generated by phonopy                    
   1.00000000000000     
     0.0000000000000000    3.3522678272038364    3.3522678272039652
     3.3522678272038910    0.0000000000000000    3.3522678272039652
     3.3522678272038910    3.3522678272038364    0.0000000000000000
   Na   Ba   Ca   Th   H 
     1     1     1     1    24
Direct
  0.2500000000000000  0.2500000000000000  0.2500000000000000
  0.7500000000000000  0.7500000000000000  0.7500000000000000
  0.0000000000000000  0.0000000000000000  0.0000000000000000
  0.5000000000000000  0.5000000000000000  0.5000000000000000
  0.1343126390702096  0.9077158271541492  0.6121470138628524
  0.9077158271541492  0.1343126390702096  0.3458245199127816
  0.6121470138628524  0.3458245199127816  0.1343126390702096
  0.3458245199127816  0.6121470138628524  0.9077158271541492
  0.6121470138628524  0.1343126390702096  0.9077158271541492
  0.3458245199127816  0.9077158271541492  0.1343126390702096
  0.1343126390702096  0.6121470138628524  0.3458245199127816
  0.9077158271541492  0.3458245199127816  0.6121470138628524
  0.9077158271541492  0.6121470138628524  0.1343126390702096
  0.1343126390702096  0.3458245199127816  0.9077158271541492
  0.3458245199127816  0.1343126390702096  0.6121470138628524
  0.6121470138628524  0.9077158271541492  0.3458245199127816
  0.1343126390702096  0.3458245199127816  0.6121470138628524
  0.3458245199127816  0.1343126390702096  0.9077158271541492
  0.6121470138628524  0.9077158271541492  0.1343126390702096
  0.9077158271541492  0.6121470138628524  0.3458245199127816
  0.6121470138628524  0.1343126390702096  0.3458245199127816
  0.9077158271541492  0.3458245199127816  0.1343126390702096
  0.1343126390702096  0.6121470138628524  0.9077158271541492
  0.3458245199127816  0.9077158271541492  0.6121470138628524
  0.3458245199127816  0.6121470138628524  0.1343126390702096
  0.1343126390702096  0.9077158271541492  0.3458245199127816
  0.9077158271541492  0.1343126390702096  0.6121470138628524
  0.6121470138628524  0.3458245199127816  0.9077158271541492
 
  0.00000000E+00  0.00000000E+00  0.00000000E+00
  0.00000000E+00  0.00000000E+00  0.00000000E+00
  0.00000000E+00  0.00000000E+00  0.00000000E+00
  0.00000000E+00  0.00000000E+00  0.00000000E+00
  0.00000000E+00  0.00000000E+00  0.00000000E+00
  0.00000000E+00  0.00000000E+00  0.00000000E+00
  0.00000000E+00  0.00000000E+00  0.00000000E+00
  0.00000000E+00  0.00000000E+00  0.00000000E+00
  0.00000000E+00  0.00000000E+00  0.00000000E+00
  0.00000000E+00  0.00000000E+00  0.00000000E+00
  0.00000000E+00  0.00000000E+00  0.00000000E+00
  0.00000000E+00  0.00000000E+00  0.00000000E+00
  0.00000000E+00  0.00000000E+00  0.00000000E+00
  0.00000000E+00  0.00000000E+00  0.00000000E+00
  0.00000000E+00  0.00000000E+00  0.00000000E+00
  0.00000000E+00  0.00000000E+00  0.00000000E+00
  0.00000000E+00  0.00000000E+00  0.00000000E+00
  0.00000000E+00  0.00000000E+00  0.00000000E+00
  0.00000000E+00  0.00000000E+00  0.00000000E+00
  0.00000000E+00  0.00000000E+00  0.00000000E+00
  0.00000000E+00  0.00000000E+00  0.00000000E+00
  0.00000000E+00  0.00000000E+00  0.00000000E+00
  0.00000000E+00  0.00000000E+00  0.00000000E+00
  0.00000000E+00  0.00000000E+00  0.00000000E+00
  0.00000000E+00  0.00000000E+00  0.00000000E+00
  0.00000000E+00  0.00000000E+00  0.00000000E+00
  0.00000000E+00  0.00000000E+00  0.00000000E+00
  0.00000000E+00  0.00000000E+00  0.00000000E+00
