generated by phonopy                    
   1.00000000000000     
     0.0000000000000000    3.3195453830587924    3.3195453830588519
     3.3195453830588155    0.0000000000000000    3.3195453830588519
     3.3195453830588155    3.3195453830587924    0.0000000000000000
   Na   Sc   Mg   Hf   H 
     1     1     1     1    24
Direct
  0.2500000000000000  0.2500000000000000  0.2500000000000000
  0.7500000000000000  0.7500000000000000  0.7500000000000000
  0.0000000000000000  0.0000000000000000  0.0000000000000000
  0.5000000000000000  0.5000000000000000  0.5000000000000000
  0.1177207237386284  0.8939806030428983  0.6255731924916148
  0.8939806030428983  0.1177207237386284  0.3627254807268585
  0.6255731924916148  0.3627254807268585  0.1177207237386284
  0.3627254807268585  0.6255731924916148  0.8939806030428983
  0.6255731924916148  0.1177207237386284  0.8939806030428983
  0.3627254807268585  0.8939806030428983  0.1177207237386284
  0.1177207237386284  0.6255731924916148  0.3627254807268585
  0.8939806030428983  0.3627254807268585  0.6255731924916148
  0.8939806030428983  0.6255731924916148  0.1177207237386284
  0.1177207237386284  0.3627254807268585  0.8939806030428983
  0.3627254807268585  0.1177207237386284  0.6255731924916148
  0.6255731924916148  0.8939806030428983  0.3627254807268585
  0.1177207237386284  0.3627254807268585  0.6255731924916148
  0.3627254807268585  0.1177207237386284  0.8939806030428983
  0.6255731924916148  0.8939806030428983  0.1177207237386284
  0.8939806030428983  0.6255731924916148  0.3627254807268585
  0.6255731924916148  0.1177207237386284  0.3627254807268585
  0.8939806030428983  0.3627254807268585  0.1177207237386284
  0.1177207237386284  0.6255731924916148  0.8939806030428983
  0.3627254807268585  0.8939806030428983  0.6255731924916148
  0.3627254807268585  0.6255731924916148  0.1177207237386284
  0.1177207237386284  0.8939806030428983  0.3627254807268585
  0.8939806030428983  0.1177207237386284  0.6255731924916148
  0.6255731924916148  0.3627254807268585  0.8939806030428983
 
  0.00000000E+00  0.00000000E+00  0.00000000E+00
  0.00000000E+00  0.00000000E+00  0.00000000E+00
  0.00000000E+00  0.00000000E+00  0.00000000E+00
  0.00000000E+00  0.00000000E+00  0.00000000E+00
  0.00000000E+00  0.00000000E+00  0.00000000E+00
  0.00000000E+00  0.00000000E+00  0.00000000E+00
  0.00000000E+00  0.00000000E+00  0.00000000E+00
  0.00000000E+00  0.00000000E+00  0.00000000E+00
  0.00000000E+00  0.00000000E+00  0.00000000E+00
  0.00000000E+00  0.00000000E+00  0.00000000E+00
  0.00000000E+00  0.00000000E+00  0.00000000E+00
  0.00000000E+00  0.00000000E+00  0.00000000E+00
  0.00000000E+00  0.00000000E+00  0.00000000E+00
  0.00000000E+00  0.00000000E+00  0.00000000E+00
  0.00000000E+00  0.00000000E+00  0.00000000E+00
  0.00000000E+00  0.00000000E+00  0.00000000E+00
  0.00000000E+00  0.00000000E+00  0.00000000E+00
  0.00000000E+00  0.00000000E+00  0.00000000E+00
  0.00000000E+00  0.00000000E+00  0.00000000E+00
  0.00000000E+00  0.00000000E+00  0.00000000E+00
  0.00000000E+00  0.00000000E+00  0.00000000E+00
  0.00000000E+00  0.00000000E+00  0.00000000E+00
  0.00000000E+00  0.00000000E+00  0.00000000E+00
  0.00000000E+00  0.00000000E+00  0.00000000E+00
  0.00000000E+00  0.00000000E+00  0.00000000E+00
  0.00000000E+00  0.00000000E+00  0.00000000E+00
  0.00000000E+00  0.00000000E+00  0.00000000E+00
  0.00000000E+00  0.00000000E+00  0.00000000E+00
