generated by phonopy                    
   1.00000000000000     
     0.0000000000000000    3.2293992755016587    3.2293992755017578
     3.2293992755016978    0.0000000000000000    3.2293992755017578
     3.2293992755016978    3.2293992755016587    0.0000000000000000
   Mg   Y    Ca   Sc   H 
     1     1     1     1    24
Direct
  0.2500000000000000  0.2500000000000000  0.2500000000000000
  0.7500000000000000  0.7500000000000000  0.7500000000000000
  0.0000000000000000  0.0000000000000000  0.0000000000000000
  0.5000000000000000  0.5000000000000000  0.5000000000000000
  0.1352721940951866  0.8854919942292270  0.6149945582087923
  0.8854919942292270  0.1352721940951866  0.3642412534667940
  0.6149945582087923  0.3642412534667940  0.1352721940951866
  0.3642412534667940  0.6149945582087923  0.8854919942292270
  0.6149945582087923  0.1352721940951866  0.8854919942292270
  0.3642412534667940  0.8854919942292270  0.1352721940951866
  0.1352721940951866  0.6149945582087923  0.3642412534667940
  0.8854919942292270  0.3642412534667940  0.6149945582087923
  0.8854919942292270  0.6149945582087923  0.1352721940951866
  0.1352721940951866  0.3642412534667940  0.8854919942292270
  0.3642412534667940  0.1352721940951866  0.6149945582087923
  0.6149945582087923  0.8854919942292270  0.3642412534667940
  0.1352721940951866  0.3642412534667940  0.6149945582087923
  0.3642412534667940  0.1352721940951866  0.8854919942292270
  0.6149945582087923  0.8854919942292270  0.1352721940951866
  0.8854919942292270  0.6149945582087923  0.3642412534667940
  0.6149945582087923  0.1352721940951866  0.3642412534667940
  0.8854919942292270  0.3642412534667940  0.1352721940951866
  0.1352721940951866  0.6149945582087923  0.8854919942292270
  0.3642412534667940  0.8854919942292270  0.6149945582087923
  0.3642412534667940  0.6149945582087923  0.1352721940951866
  0.1352721940951866  0.8854919942292270  0.3642412534667940
  0.8854919942292270  0.1352721940951866  0.6149945582087923
  0.6149945582087923  0.3642412534667940  0.8854919942292270
 
  0.00000000E+00  0.00000000E+00  0.00000000E+00
  0.00000000E+00  0.00000000E+00  0.00000000E+00
  0.00000000E+00  0.00000000E+00  0.00000000E+00
  0.00000000E+00  0.00000000E+00  0.00000000E+00
  0.00000000E+00  0.00000000E+00  0.00000000E+00
  0.00000000E+00  0.00000000E+00  0.00000000E+00
  0.00000000E+00  0.00000000E+00  0.00000000E+00
  0.00000000E+00  0.00000000E+00  0.00000000E+00
  0.00000000E+00  0.00000000E+00  0.00000000E+00
  0.00000000E+00  0.00000000E+00  0.00000000E+00
  0.00000000E+00  0.00000000E+00  0.00000000E+00
  0.00000000E+00  0.00000000E+00  0.00000000E+00
  0.00000000E+00  0.00000000E+00  0.00000000E+00
  0.00000000E+00  0.00000000E+00  0.00000000E+00
  0.00000000E+00  0.00000000E+00  0.00000000E+00
  0.00000000E+00  0.00000000E+00  0.00000000E+00
  0.00000000E+00  0.00000000E+00  0.00000000E+00
  0.00000000E+00  0.00000000E+00  0.00000000E+00
  0.00000000E+00  0.00000000E+00  0.00000000E+00
  0.00000000E+00  0.00000000E+00  0.00000000E+00
  0.00000000E+00  0.00000000E+00  0.00000000E+00
  0.00000000E+00  0.00000000E+00  0.00000000E+00
  0.00000000E+00  0.00000000E+00  0.00000000E+00
  0.00000000E+00  0.00000000E+00  0.00000000E+00
  0.00000000E+00  0.00000000E+00  0.00000000E+00
  0.00000000E+00  0.00000000E+00  0.00000000E+00
  0.00000000E+00  0.00000000E+00  0.00000000E+00
  0.00000000E+00  0.00000000E+00  0.00000000E+00
