generated by phonopy                    
   1.00000000000000     
     0.0000000000000000    3.4448126758813333    3.4448126758813844
     3.4448126758813542    0.0000000000000000    3.4448126758813844
     3.4448126758813542    3.4448126758813333    0.0000000000000000
   Ca   Y    Hf   Th   H 
     1     1     1     1    24
Direct
  0.2500000000000000  0.2500000000000000  0.2500000000000000
  0.7500000000000000  0.7500000000000000  0.7500000000000000
  0.0000000000000000  0.0000000000000000  0.0000000000000000
  0.5000000000000000  0.5000000000000000  0.5000000000000000
  0.1220616596580371  0.8867283939611781  0.6245211674672930
  0.8867283939611781  0.1220616596580371  0.3666887789134847
  0.6245211674672930  0.3666887789134847  0.1220616596580371
  0.3666887789134847  0.6245211674672930  0.8867283939611781
  0.6245211674672930  0.1220616596580371  0.8867283939611781
  0.3666887789134847  0.8867283939611781  0.1220616596580371
  0.1220616596580371  0.6245211674672930  0.3666887789134847
  0.8867283939611781  0.3666887789134847  0.6245211674672930
  0.8867283939611781  0.6245211674672930  0.1220616596580371
  0.1220616596580371  0.3666887789134847  0.8867283939611781
  0.3666887789134847  0.1220616596580371  0.6245211674672930
  0.6245211674672930  0.8867283939611781  0.3666887789134847
  0.1220616596580371  0.3666887789134847  0.6245211674672930
  0.3666887789134847  0.1220616596580371  0.8867283939611781
  0.6245211674672930  0.8867283939611781  0.1220616596580371
  0.8867283939611781  0.6245211674672930  0.3666887789134847
  0.6245211674672930  0.1220616596580371  0.3666887789134847
  0.8867283939611781  0.3666887789134847  0.1220616596580371
  0.1220616596580371  0.6245211674672930  0.8867283939611781
  0.3666887789134847  0.8867283939611781  0.6245211674672930
  0.3666887789134847  0.6245211674672930  0.1220616596580371
  0.1220616596580371  0.8867283939611781  0.3666887789134847
  0.8867283939611781  0.1220616596580371  0.6245211674672930
  0.6245211674672930  0.3666887789134847  0.8867283939611781
 
  0.00000000E+00  0.00000000E+00  0.00000000E+00
  0.00000000E+00  0.00000000E+00  0.00000000E+00
  0.00000000E+00  0.00000000E+00  0.00000000E+00
  0.00000000E+00  0.00000000E+00  0.00000000E+00
  0.00000000E+00  0.00000000E+00  0.00000000E+00
  0.00000000E+00  0.00000000E+00  0.00000000E+00
  0.00000000E+00  0.00000000E+00  0.00000000E+00
  0.00000000E+00  0.00000000E+00  0.00000000E+00
  0.00000000E+00  0.00000000E+00  0.00000000E+00
  0.00000000E+00  0.00000000E+00  0.00000000E+00
  0.00000000E+00  0.00000000E+00  0.00000000E+00
  0.00000000E+00  0.00000000E+00  0.00000000E+00
  0.00000000E+00  0.00000000E+00  0.00000000E+00
  0.00000000E+00  0.00000000E+00  0.00000000E+00
  0.00000000E+00  0.00000000E+00  0.00000000E+00
  0.00000000E+00  0.00000000E+00  0.00000000E+00
  0.00000000E+00  0.00000000E+00  0.00000000E+00
  0.00000000E+00  0.00000000E+00  0.00000000E+00
  0.00000000E+00  0.00000000E+00  0.00000000E+00
  0.00000000E+00  0.00000000E+00  0.00000000E+00
  0.00000000E+00  0.00000000E+00  0.00000000E+00
  0.00000000E+00  0.00000000E+00  0.00000000E+00
  0.00000000E+00  0.00000000E+00  0.00000000E+00
  0.00000000E+00  0.00000000E+00  0.00000000E+00
  0.00000000E+00  0.00000000E+00  0.00000000E+00
  0.00000000E+00  0.00000000E+00  0.00000000E+00
  0.00000000E+00  0.00000000E+00  0.00000000E+00
  0.00000000E+00  0.00000000E+00  0.00000000E+00
