generated by phonopy                    
   1.00000000000000     
     0.0000000000000000    3.2239012935180891    3.2239012935181850
     3.2239012935181268    0.0000000000000000    3.2239012935181850
     3.2239012935181268    3.2239012935180891    0.0000000000000000
   K    Sc   Mg   Zr   H 
     1     1     1     1    24
Direct
  0.2500000000000000  0.2500000000000000  0.2500000000000000
  0.7500000000000000  0.7500000000000000  0.7500000000000000
  0.0000000000000000  0.0000000000000000  0.0000000000000000
  0.5000000000000000  0.5000000000000000  0.5000000000000000
  0.1112153673980529  0.8883562225348030  0.6337075947099038
  0.8883562225348030  0.1112153673980529  0.3667208153572403
  0.6337075947099038  0.3667208153572403  0.1112153673980529
  0.3667208153572403  0.6337075947099038  0.8883562225348030
  0.6337075947099038  0.1112153673980529  0.8883562225348030
  0.3667208153572403  0.8883562225348030  0.1112153673980529
  0.1112153673980529  0.6337075947099038  0.3667208153572403
  0.8883562225348030  0.3667208153572403  0.6337075947099038
  0.8883562225348030  0.6337075947099038  0.1112153673980529
  0.1112153673980529  0.3667208153572403  0.8883562225348030
  0.3667208153572403  0.1112153673980529  0.6337075947099038
  0.6337075947099038  0.8883562225348030  0.3667208153572403
  0.1112153673980529  0.3667208153572403  0.6337075947099038
  0.3667208153572403  0.1112153673980529  0.8883562225348030
  0.6337075947099038  0.8883562225348030  0.1112153673980529
  0.8883562225348030  0.6337075947099038  0.3667208153572403
  0.6337075947099038  0.1112153673980529  0.3667208153572403
  0.8883562225348030  0.3667208153572403  0.1112153673980529
  0.1112153673980529  0.6337075947099038  0.8883562225348030
  0.3667208153572403  0.8883562225348030  0.6337075947099038
  0.3667208153572403  0.6337075947099038  0.1112153673980529
  0.1112153673980529  0.8883562225348030  0.3667208153572403
  0.8883562225348030  0.1112153673980529  0.6337075947099038
  0.6337075947099038  0.3667208153572403  0.8883562225348030
 
  0.00000000E+00  0.00000000E+00  0.00000000E+00
  0.00000000E+00  0.00000000E+00  0.00000000E+00
  0.00000000E+00  0.00000000E+00  0.00000000E+00
  0.00000000E+00  0.00000000E+00  0.00000000E+00
  0.00000000E+00  0.00000000E+00  0.00000000E+00
  0.00000000E+00  0.00000000E+00  0.00000000E+00
  0.00000000E+00  0.00000000E+00  0.00000000E+00
  0.00000000E+00  0.00000000E+00  0.00000000E+00
  0.00000000E+00  0.00000000E+00  0.00000000E+00
  0.00000000E+00  0.00000000E+00  0.00000000E+00
  0.00000000E+00  0.00000000E+00  0.00000000E+00
  0.00000000E+00  0.00000000E+00  0.00000000E+00
  0.00000000E+00  0.00000000E+00  0.00000000E+00
  0.00000000E+00  0.00000000E+00  0.00000000E+00
  0.00000000E+00  0.00000000E+00  0.00000000E+00
  0.00000000E+00  0.00000000E+00  0.00000000E+00
  0.00000000E+00  0.00000000E+00  0.00000000E+00
  0.00000000E+00  0.00000000E+00  0.00000000E+00
  0.00000000E+00  0.00000000E+00  0.00000000E+00
  0.00000000E+00  0.00000000E+00  0.00000000E+00
  0.00000000E+00  0.00000000E+00  0.00000000E+00
  0.00000000E+00  0.00000000E+00  0.00000000E+00
  0.00000000E+00  0.00000000E+00  0.00000000E+00
  0.00000000E+00  0.00000000E+00  0.00000000E+00
  0.00000000E+00  0.00000000E+00  0.00000000E+00
  0.00000000E+00  0.00000000E+00  0.00000000E+00
  0.00000000E+00  0.00000000E+00  0.00000000E+00
  0.00000000E+00  0.00000000E+00  0.00000000E+00
