generated by phonopy                    
   1.00000000000000     
     0.0000000000000000    3.4493255845840038    3.4493255845840958
     3.4493255845840443    0.0000000000000000    3.4493255845840958
     3.4493255845840443    3.4493255845840038    0.0000000000000000
   Ca   Zr   Sc   Ce   H 
     1     1     1     1    24
Direct
  0.2500000000000000  0.2500000000000000  0.2500000000000000
  0.7500000000000000  0.7500000000000000  0.7500000000000000
  0.0000000000000000  0.0000000000000000  0.0000000000000000
  0.5000000000000000  0.5000000000000000  0.5000000000000000
  0.1254772885634239  0.8833062561713660  0.6308515151012344
  0.8833062561713660  0.1254772885634239  0.3603649401639686
  0.6308515151012344  0.3603649401639686  0.1254772885634239
  0.3603649401639686  0.6308515151012344  0.8833062561713660
  0.6308515151012344  0.1254772885634239  0.8833062561713660
  0.3603649401639686  0.8833062561713660  0.1254772885634239
  0.1254772885634239  0.6308515151012344  0.3603649401639686
  0.8833062561713660  0.3603649401639686  0.6308515151012344
  0.8833062561713660  0.6308515151012344  0.1254772885634239
  0.1254772885634239  0.3603649401639686  0.8833062561713660
  0.3603649401639686  0.1254772885634239  0.6308515151012344
  0.6308515151012344  0.8833062561713660  0.3603649401639686
  0.1254772885634239  0.3603649401639686  0.6308515151012344
  0.3603649401639686  0.1254772885634239  0.8833062561713660
  0.6308515151012344  0.8833062561713660  0.1254772885634239
  0.8833062561713660  0.6308515151012344  0.3603649401639686
  0.6308515151012344  0.1254772885634239  0.3603649401639686
  0.8833062561713660  0.3603649401639686  0.1254772885634239
  0.1254772885634239  0.6308515151012344  0.8833062561713660
  0.3603649401639686  0.8833062561713660  0.6308515151012344
  0.3603649401639686  0.6308515151012344  0.1254772885634239
  0.1254772885634239  0.8833062561713660  0.3603649401639686
  0.8833062561713660  0.1254772885634239  0.6308515151012344
  0.6308515151012344  0.3603649401639686  0.8833062561713660
 
  0.00000000E+00  0.00000000E+00  0.00000000E+00
  0.00000000E+00  0.00000000E+00  0.00000000E+00
  0.00000000E+00  0.00000000E+00  0.00000000E+00
  0.00000000E+00  0.00000000E+00  0.00000000E+00
  0.00000000E+00  0.00000000E+00  0.00000000E+00
  0.00000000E+00  0.00000000E+00  0.00000000E+00
  0.00000000E+00  0.00000000E+00  0.00000000E+00
  0.00000000E+00  0.00000000E+00  0.00000000E+00
  0.00000000E+00  0.00000000E+00  0.00000000E+00
  0.00000000E+00  0.00000000E+00  0.00000000E+00
  0.00000000E+00  0.00000000E+00  0.00000000E+00
  0.00000000E+00  0.00000000E+00  0.00000000E+00
  0.00000000E+00  0.00000000E+00  0.00000000E+00
  0.00000000E+00  0.00000000E+00  0.00000000E+00
  0.00000000E+00  0.00000000E+00  0.00000000E+00
  0.00000000E+00  0.00000000E+00  0.00000000E+00
  0.00000000E+00  0.00000000E+00  0.00000000E+00
  0.00000000E+00  0.00000000E+00  0.00000000E+00
  0.00000000E+00  0.00000000E+00  0.00000000E+00
  0.00000000E+00  0.00000000E+00  0.00000000E+00
  0.00000000E+00  0.00000000E+00  0.00000000E+00
  0.00000000E+00  0.00000000E+00  0.00000000E+00
  0.00000000E+00  0.00000000E+00  0.00000000E+00
  0.00000000E+00  0.00000000E+00  0.00000000E+00
  0.00000000E+00  0.00000000E+00  0.00000000E+00
  0.00000000E+00  0.00000000E+00  0.00000000E+00
  0.00000000E+00  0.00000000E+00  0.00000000E+00
  0.00000000E+00  0.00000000E+00  0.00000000E+00
