generated by phonopy                    
   1.00000000000000     
     0.0000000000000000    3.2147520945189947    3.2147520945190386
     3.2147520945190124    0.0000000000000000    3.2147520945190386
     3.2147520945190124    3.2147520945189947    0.0000000000000000
   Na   Zr   Mg   Hf   H 
     1     1     1     1    24
Direct
  0.2500000000000000  0.2500000000000000  0.2500000000000000
  0.7500000000000000  0.7500000000000000  0.7500000000000000
  0.0000000000000000  0.0000000000000000  0.0000000000000000
  0.5000000000000000  0.5000000000000000  0.5000000000000000
  0.1236241446757305  0.8970652758173898  0.6230021898450673
  0.8970652758173898  0.1236241446757305  0.3563083896618195
  0.6230021898450673  0.3563083896618195  0.1236241446757305
  0.3563083896618195  0.6230021898450673  0.8970652758173898
  0.6230021898450673  0.1236241446757305  0.8970652758173898
  0.3563083896618195  0.8970652758173898  0.1236241446757305
  0.1236241446757305  0.6230021898450673  0.3563083896618195
  0.8970652758173898  0.3563083896618195  0.6230021898450673
  0.8970652758173898  0.6230021898450673  0.1236241446757305
  0.1236241446757305  0.3563083896618195  0.8970652758173898
  0.3563083896618195  0.1236241446757305  0.6230021898450673
  0.6230021898450673  0.8970652758173898  0.3563083896618195
  0.1236241446757305  0.3563083896618195  0.6230021898450673
  0.3563083896618195  0.1236241446757305  0.8970652758173898
  0.6230021898450673  0.8970652758173898  0.1236241446757305
  0.8970652758173898  0.6230021898450673  0.3563083896618195
  0.6230021898450673  0.1236241446757305  0.3563083896618195
  0.8970652758173898  0.3563083896618195  0.1236241446757305
  0.1236241446757305  0.6230021898450673  0.8970652758173898
  0.3563083896618195  0.8970652758173898  0.6230021898450673
  0.3563083896618195  0.6230021898450673  0.1236241446757305
  0.1236241446757305  0.8970652758173898  0.3563083896618195
  0.8970652758173898  0.1236241446757305  0.6230021898450673
  0.6230021898450673  0.3563083896618195  0.8970652758173898
 
  0.00000000E+00  0.00000000E+00  0.00000000E+00
  0.00000000E+00  0.00000000E+00  0.00000000E+00
  0.00000000E+00  0.00000000E+00  0.00000000E+00
  0.00000000E+00  0.00000000E+00  0.00000000E+00
  0.00000000E+00  0.00000000E+00  0.00000000E+00
  0.00000000E+00  0.00000000E+00  0.00000000E+00
  0.00000000E+00  0.00000000E+00  0.00000000E+00
  0.00000000E+00  0.00000000E+00  0.00000000E+00
  0.00000000E+00  0.00000000E+00  0.00000000E+00
  0.00000000E+00  0.00000000E+00  0.00000000E+00
  0.00000000E+00  0.00000000E+00  0.00000000E+00
  0.00000000E+00  0.00000000E+00  0.00000000E+00
  0.00000000E+00  0.00000000E+00  0.00000000E+00
  0.00000000E+00  0.00000000E+00  0.00000000E+00
  0.00000000E+00  0.00000000E+00  0.00000000E+00
  0.00000000E+00  0.00000000E+00  0.00000000E+00
  0.00000000E+00  0.00000000E+00  0.00000000E+00
  0.00000000E+00  0.00000000E+00  0.00000000E+00
  0.00000000E+00  0.00000000E+00  0.00000000E+00
  0.00000000E+00  0.00000000E+00  0.00000000E+00
  0.00000000E+00  0.00000000E+00  0.00000000E+00
  0.00000000E+00  0.00000000E+00  0.00000000E+00
  0.00000000E+00  0.00000000E+00  0.00000000E+00
  0.00000000E+00  0.00000000E+00  0.00000000E+00
  0.00000000E+00  0.00000000E+00  0.00000000E+00
  0.00000000E+00  0.00000000E+00  0.00000000E+00
  0.00000000E+00  0.00000000E+00  0.00000000E+00
  0.00000000E+00  0.00000000E+00  0.00000000E+00
