generated by phonopy                    
   1.00000000000000     
     0.0000000000000000    3.2961574542162304    3.2961574542163170
     3.2961574542162650    0.0000000000000000    3.2961574542163170
     3.2961574542162650    3.2961574542162304    0.0000000000000000
   Ca   Zr   Ti   Ce   H 
     1     1     1     1    24
Direct
  0.2500000000000000  0.2500000000000000  0.2500000000000000
  0.7500000000000000  0.7500000000000000  0.7500000000000000
  0.0000000000000000  0.0000000000000000  0.0000000000000000
  0.5000000000000000  0.5000000000000000  0.5000000000000000
  0.1223332074824199  0.8860567721557331  0.6315043679718784
  0.8860567721557331  0.1223332074824199  0.3601056523899615
  0.6315043679718784  0.3601056523899615  0.1223332074824199
  0.3601056523899615  0.6315043679718784  0.8860567721557331
  0.6315043679718784  0.1223332074824199  0.8860567721557331
  0.3601056523899615  0.8860567721557331  0.1223332074824199
  0.1223332074824199  0.6315043679718784  0.3601056523899615
  0.8860567721557331  0.3601056523899615  0.6315043679718784
  0.8860567721557331  0.6315043679718784  0.1223332074824199
  0.1223332074824199  0.3601056523899615  0.8860567721557331
  0.3601056523899615  0.1223332074824199  0.6315043679718784
  0.6315043679718784  0.8860567721557331  0.3601056523899615
  0.1223332074824199  0.3601056523899615  0.6315043679718784
  0.3601056523899615  0.1223332074824199  0.8860567721557331
  0.6315043679718784  0.8860567721557331  0.1223332074824199
  0.8860567721557331  0.6315043679718784  0.3601056523899615
  0.6315043679718784  0.1223332074824199  0.3601056523899615
  0.8860567721557331  0.3601056523899615  0.1223332074824199
  0.1223332074824199  0.6315043679718784  0.8860567721557331
  0.3601056523899615  0.8860567721557331  0.6315043679718784
  0.3601056523899615  0.6315043679718784  0.1223332074824199
  0.1223332074824199  0.8860567721557331  0.3601056523899615
  0.8860567721557331  0.1223332074824199  0.6315043679718784
  0.6315043679718784  0.3601056523899615  0.8860567721557331
 
  0.00000000E+00  0.00000000E+00  0.00000000E+00
  0.00000000E+00  0.00000000E+00  0.00000000E+00
  0.00000000E+00  0.00000000E+00  0.00000000E+00
  0.00000000E+00  0.00000000E+00  0.00000000E+00
  0.00000000E+00  0.00000000E+00  0.00000000E+00
  0.00000000E+00  0.00000000E+00  0.00000000E+00
  0.00000000E+00  0.00000000E+00  0.00000000E+00
  0.00000000E+00  0.00000000E+00  0.00000000E+00
  0.00000000E+00  0.00000000E+00  0.00000000E+00
  0.00000000E+00  0.00000000E+00  0.00000000E+00
  0.00000000E+00  0.00000000E+00  0.00000000E+00
  0.00000000E+00  0.00000000E+00  0.00000000E+00
  0.00000000E+00  0.00000000E+00  0.00000000E+00
  0.00000000E+00  0.00000000E+00  0.00000000E+00
  0.00000000E+00  0.00000000E+00  0.00000000E+00
  0.00000000E+00  0.00000000E+00  0.00000000E+00
  0.00000000E+00  0.00000000E+00  0.00000000E+00
  0.00000000E+00  0.00000000E+00  0.00000000E+00
  0.00000000E+00  0.00000000E+00  0.00000000E+00
  0.00000000E+00  0.00000000E+00  0.00000000E+00
  0.00000000E+00  0.00000000E+00  0.00000000E+00
  0.00000000E+00  0.00000000E+00  0.00000000E+00
  0.00000000E+00  0.00000000E+00  0.00000000E+00
  0.00000000E+00  0.00000000E+00  0.00000000E+00
  0.00000000E+00  0.00000000E+00  0.00000000E+00
  0.00000000E+00  0.00000000E+00  0.00000000E+00
  0.00000000E+00  0.00000000E+00  0.00000000E+00
  0.00000000E+00  0.00000000E+00  0.00000000E+00
