generated by phonopy                    
   1.00000000000000     
     0.0000000000000000    3.2601416428850443    3.2601416428851628
     3.2601416428850936    0.0000000000000000    3.2601416428851628
     3.2601416428850936    3.2601416428850443    0.0000000000000000
   Na   Zr   Ca   Y    H 
     1     1     1     1    24
Direct
  0.2500000000000000  0.2500000000000000  0.2500000000000000
  0.7500000000000000  0.7500000000000000  0.7500000000000000
  0.0000000000000000  0.0000000000000000  0.0000000000000000
  0.5000000000000000  0.5000000000000000  0.5000000000000000
  0.1321173660827171  0.8926074261093007  0.6167363107763677
  0.8926074261093007  0.1321173660827171  0.3585388970316146
  0.6167363107763677  0.3585388970316146  0.1321173660827171
  0.3585388970316146  0.6167363107763677  0.8926074261093007
  0.6167363107763677  0.1321173660827171  0.8926074261093007
  0.3585388970316146  0.8926074261093007  0.1321173660827171
  0.1321173660827171  0.6167363107763677  0.3585388970316146
  0.8926074261093007  0.3585388970316146  0.6167363107763677
  0.8926074261093007  0.6167363107763677  0.1321173660827171
  0.1321173660827171  0.3585388970316146  0.8926074261093007
  0.3585388970316146  0.1321173660827171  0.6167363107763677
  0.6167363107763677  0.8926074261093007  0.3585388970316146
  0.1321173660827171  0.3585388970316146  0.6167363107763677
  0.3585388970316146  0.1321173660827171  0.8926074261093007
  0.6167363107763677  0.8926074261093007  0.1321173660827171
  0.8926074261093007  0.6167363107763677  0.3585388970316146
  0.6167363107763677  0.1321173660827171  0.3585388970316146
  0.8926074261093007  0.3585388970316146  0.1321173660827171
  0.1321173660827171  0.6167363107763677  0.8926074261093007
  0.3585388970316146  0.8926074261093007  0.6167363107763677
  0.3585388970316146  0.6167363107763677  0.1321173660827171
  0.1321173660827171  0.8926074261093007  0.3585388970316146
  0.8926074261093007  0.1321173660827171  0.6167363107763677
  0.6167363107763677  0.3585388970316146  0.8926074261093007
 
  0.00000000E+00  0.00000000E+00  0.00000000E+00
  0.00000000E+00  0.00000000E+00  0.00000000E+00
  0.00000000E+00  0.00000000E+00  0.00000000E+00
  0.00000000E+00  0.00000000E+00  0.00000000E+00
  0.00000000E+00  0.00000000E+00  0.00000000E+00
  0.00000000E+00  0.00000000E+00  0.00000000E+00
  0.00000000E+00  0.00000000E+00  0.00000000E+00
  0.00000000E+00  0.00000000E+00  0.00000000E+00
  0.00000000E+00  0.00000000E+00  0.00000000E+00
  0.00000000E+00  0.00000000E+00  0.00000000E+00
  0.00000000E+00  0.00000000E+00  0.00000000E+00
  0.00000000E+00  0.00000000E+00  0.00000000E+00
  0.00000000E+00  0.00000000E+00  0.00000000E+00
  0.00000000E+00  0.00000000E+00  0.00000000E+00
  0.00000000E+00  0.00000000E+00  0.00000000E+00
  0.00000000E+00  0.00000000E+00  0.00000000E+00
  0.00000000E+00  0.00000000E+00  0.00000000E+00
  0.00000000E+00  0.00000000E+00  0.00000000E+00
  0.00000000E+00  0.00000000E+00  0.00000000E+00
  0.00000000E+00  0.00000000E+00  0.00000000E+00
  0.00000000E+00  0.00000000E+00  0.00000000E+00
  0.00000000E+00  0.00000000E+00  0.00000000E+00
  0.00000000E+00  0.00000000E+00  0.00000000E+00
  0.00000000E+00  0.00000000E+00  0.00000000E+00
  0.00000000E+00  0.00000000E+00  0.00000000E+00
  0.00000000E+00  0.00000000E+00  0.00000000E+00
  0.00000000E+00  0.00000000E+00  0.00000000E+00
  0.00000000E+00  0.00000000E+00  0.00000000E+00
