generated by phonopy                    
   1.00000000000000     
     0.0000000000000000    3.4317008567628244    3.4317008567629079
     3.4317008567628591    0.0000000000000000    3.4317008567629079
     3.4317008567628591    3.4317008567628244    0.0000000000000000
   K    Zr   Sc   Y    H 
     1     1     1     1    24
Direct
  0.2500000000000000  0.2500000000000000  0.2500000000000000
  0.7500000000000000  0.7500000000000000  0.7500000000000000
  0.0000000000000000  0.0000000000000000  0.0000000000000000
  0.5000000000000000  0.5000000000000000  0.5000000000000000
  0.1224089129458079  0.8845060562962814  0.6269793924830509
  0.8845060562962814  0.1224089129458079  0.3661056382748455
  0.6269793924830509  0.3661056382748455  0.1224089129458079
  0.3661056382748455  0.6269793924830509  0.8845060562962814
  0.6269793924830509  0.1224089129458079  0.8845060562962814
  0.3661056382748455  0.8845060562962814  0.1224089129458079
  0.1224089129458079  0.6269793924830509  0.3661056382748455
  0.8845060562962814  0.3661056382748455  0.6269793924830509
  0.8845060562962814  0.6269793924830509  0.1224089129458079
  0.1224089129458079  0.3661056382748455  0.8845060562962814
  0.3661056382748455  0.1224089129458079  0.6269793924830509
  0.6269793924830509  0.8845060562962814  0.3661056382748455
  0.1224089129458079  0.3661056382748455  0.6269793924830509
  0.3661056382748455  0.1224089129458079  0.8845060562962814
  0.6269793924830509  0.8845060562962814  0.1224089129458079
  0.8845060562962814  0.6269793924830509  0.3661056382748455
  0.6269793924830509  0.1224089129458079  0.3661056382748455
  0.8845060562962814  0.3661056382748455  0.1224089129458079
  0.1224089129458079  0.6269793924830509  0.8845060562962814
  0.3661056382748455  0.8845060562962814  0.6269793924830509
  0.3661056382748455  0.6269793924830509  0.1224089129458079
  0.1224089129458079  0.8845060562962814  0.3661056382748455
  0.8845060562962814  0.1224089129458079  0.6269793924830509
  0.6269793924830509  0.3661056382748455  0.8845060562962814
 
  0.00000000E+00  0.00000000E+00  0.00000000E+00
  0.00000000E+00  0.00000000E+00  0.00000000E+00
  0.00000000E+00  0.00000000E+00  0.00000000E+00
  0.00000000E+00  0.00000000E+00  0.00000000E+00
  0.00000000E+00  0.00000000E+00  0.00000000E+00
  0.00000000E+00  0.00000000E+00  0.00000000E+00
  0.00000000E+00  0.00000000E+00  0.00000000E+00
  0.00000000E+00  0.00000000E+00  0.00000000E+00
  0.00000000E+00  0.00000000E+00  0.00000000E+00
  0.00000000E+00  0.00000000E+00  0.00000000E+00
  0.00000000E+00  0.00000000E+00  0.00000000E+00
  0.00000000E+00  0.00000000E+00  0.00000000E+00
  0.00000000E+00  0.00000000E+00  0.00000000E+00
  0.00000000E+00  0.00000000E+00  0.00000000E+00
  0.00000000E+00  0.00000000E+00  0.00000000E+00
  0.00000000E+00  0.00000000E+00  0.00000000E+00
  0.00000000E+00  0.00000000E+00  0.00000000E+00
  0.00000000E+00  0.00000000E+00  0.00000000E+00
  0.00000000E+00  0.00000000E+00  0.00000000E+00
  0.00000000E+00  0.00000000E+00  0.00000000E+00
  0.00000000E+00  0.00000000E+00  0.00000000E+00
  0.00000000E+00  0.00000000E+00  0.00000000E+00
  0.00000000E+00  0.00000000E+00  0.00000000E+00
  0.00000000E+00  0.00000000E+00  0.00000000E+00
  0.00000000E+00  0.00000000E+00  0.00000000E+00
  0.00000000E+00  0.00000000E+00  0.00000000E+00
  0.00000000E+00  0.00000000E+00  0.00000000E+00
  0.00000000E+00  0.00000000E+00  0.00000000E+00
