generated by phonopy                    
   1.00000000000000     
     0.0000000000000000    3.3298977046748650    3.3298977046749307
     3.3298977046748921    0.0000000000000000    3.3298977046749307
     3.3298977046748921    3.3298977046748650    0.0000000000000000
   Sc   Ce   Zr   Hf   H 
     1     1     1     1    24
Direct
  0.2500000000000000  0.2500000000000000  0.2500000000000000
  0.7500000000000000  0.7500000000000000  0.7500000000000000
  0.0000000000000000  0.0000000000000000  0.0000000000000000
  0.5000000000000000  0.5000000000000000  0.5000000000000000
  0.1281173315375028  0.8871821331822431  0.6136810225735516
  0.8871821331822431  0.1281173315375028  0.3710195127067095
  0.6136810225735516  0.3710195127067095  0.1281173315375028
  0.3710195127067095  0.6136810225735516  0.8871821331822431
  0.6136810225735516  0.1281173315375028  0.8871821331822431
  0.3710195127067095  0.8871821331822431  0.1281173315375028
  0.1281173315375028  0.6136810225735516  0.3710195127067095
  0.8871821331822431  0.3710195127067095  0.6136810225735516
  0.8871821331822431  0.6136810225735516  0.1281173315375028
  0.1281173315375028  0.3710195127067095  0.8871821331822431
  0.3710195127067095  0.1281173315375028  0.6136810225735516
  0.6136810225735516  0.8871821331822431  0.3710195127067095
  0.1281173315375028  0.3710195127067095  0.6136810225735516
  0.3710195127067095  0.1281173315375028  0.8871821331822431
  0.6136810225735516  0.8871821331822431  0.1281173315375028
  0.8871821331822431  0.6136810225735516  0.3710195127067095
  0.6136810225735516  0.1281173315375028  0.3710195127067095
  0.8871821331822431  0.3710195127067095  0.1281173315375028
  0.1281173315375028  0.6136810225735516  0.8871821331822431
  0.3710195127067095  0.8871821331822431  0.6136810225735516
  0.3710195127067095  0.6136810225735516  0.1281173315375028
  0.1281173315375028  0.8871821331822431  0.3710195127067095
  0.8871821331822431  0.1281173315375028  0.6136810225735516
  0.6136810225735516  0.3710195127067095  0.8871821331822431
 
  0.00000000E+00  0.00000000E+00  0.00000000E+00
  0.00000000E+00  0.00000000E+00  0.00000000E+00
  0.00000000E+00  0.00000000E+00  0.00000000E+00
  0.00000000E+00  0.00000000E+00  0.00000000E+00
  0.00000000E+00  0.00000000E+00  0.00000000E+00
  0.00000000E+00  0.00000000E+00  0.00000000E+00
  0.00000000E+00  0.00000000E+00  0.00000000E+00
  0.00000000E+00  0.00000000E+00  0.00000000E+00
  0.00000000E+00  0.00000000E+00  0.00000000E+00
  0.00000000E+00  0.00000000E+00  0.00000000E+00
  0.00000000E+00  0.00000000E+00  0.00000000E+00
  0.00000000E+00  0.00000000E+00  0.00000000E+00
  0.00000000E+00  0.00000000E+00  0.00000000E+00
  0.00000000E+00  0.00000000E+00  0.00000000E+00
  0.00000000E+00  0.00000000E+00  0.00000000E+00
  0.00000000E+00  0.00000000E+00  0.00000000E+00
  0.00000000E+00  0.00000000E+00  0.00000000E+00
  0.00000000E+00  0.00000000E+00  0.00000000E+00
  0.00000000E+00  0.00000000E+00  0.00000000E+00
  0.00000000E+00  0.00000000E+00  0.00000000E+00
  0.00000000E+00  0.00000000E+00  0.00000000E+00
  0.00000000E+00  0.00000000E+00  0.00000000E+00
  0.00000000E+00  0.00000000E+00  0.00000000E+00
  0.00000000E+00  0.00000000E+00  0.00000000E+00
  0.00000000E+00  0.00000000E+00  0.00000000E+00
  0.00000000E+00  0.00000000E+00  0.00000000E+00
  0.00000000E+00  0.00000000E+00  0.00000000E+00
  0.00000000E+00  0.00000000E+00  0.00000000E+00
