generated by phonopy                    
   1.00000000000000     
     0.0000000000000000    3.3168999187734673    3.3168999187735788
     3.3168999187735109    0.0000000000000000    3.3168999187735788
     3.3168999187735109    3.3168999187734673    0.0000000000000000
   Sr   Sc   Zr   Hf   H 
     1     1     1     1    24
Direct
  0.2500000000000000  0.2500000000000000  0.2500000000000000
  0.7500000000000000  0.7500000000000000  0.7500000000000000
  0.0000000000000000  0.0000000000000000  0.0000000000000000
  0.5000000000000000  0.5000000000000000  0.5000000000000000
  0.1133421455274046  0.8737486589168952  0.6273702545413329
  0.8737486589168952  0.1133421455274046  0.3855389410143673
  0.6273702545413329  0.3855389410143673  0.1133421455274046
  0.3855389410143673  0.6273702545413329  0.8737486589168952
  0.6273702545413329  0.1133421455274046  0.8737486589168952
  0.3855389410143673  0.8737486589168952  0.1133421455274046
  0.1133421455274046  0.6273702545413329  0.3855389410143673
  0.8737486589168952  0.3855389410143673  0.6273702545413329
  0.8737486589168952  0.6273702545413329  0.1133421455274046
  0.1133421455274046  0.3855389410143673  0.8737486589168952
  0.3855389410143673  0.1133421455274046  0.6273702545413329
  0.6273702545413329  0.8737486589168952  0.3855389410143673
  0.1133421455274046  0.3855389410143673  0.6273702545413329
  0.3855389410143673  0.1133421455274046  0.8737486589168952
  0.6273702545413329  0.8737486589168952  0.1133421455274046
  0.8737486589168952  0.6273702545413329  0.3855389410143673
  0.6273702545413329  0.1133421455274046  0.3855389410143673
  0.8737486589168952  0.3855389410143673  0.1133421455274046
  0.1133421455274046  0.6273702545413329  0.8737486589168952
  0.3855389410143673  0.8737486589168952  0.6273702545413329
  0.3855389410143673  0.6273702545413329  0.1133421455274046
  0.1133421455274046  0.8737486589168952  0.3855389410143673
  0.8737486589168952  0.1133421455274046  0.6273702545413329
  0.6273702545413329  0.3855389410143673  0.8737486589168952
 
  0.00000000E+00  0.00000000E+00  0.00000000E+00
  0.00000000E+00  0.00000000E+00  0.00000000E+00
  0.00000000E+00  0.00000000E+00  0.00000000E+00
  0.00000000E+00  0.00000000E+00  0.00000000E+00
  0.00000000E+00  0.00000000E+00  0.00000000E+00
  0.00000000E+00  0.00000000E+00  0.00000000E+00
  0.00000000E+00  0.00000000E+00  0.00000000E+00
  0.00000000E+00  0.00000000E+00  0.00000000E+00
  0.00000000E+00  0.00000000E+00  0.00000000E+00
  0.00000000E+00  0.00000000E+00  0.00000000E+00
  0.00000000E+00  0.00000000E+00  0.00000000E+00
  0.00000000E+00  0.00000000E+00  0.00000000E+00
  0.00000000E+00  0.00000000E+00  0.00000000E+00
  0.00000000E+00  0.00000000E+00  0.00000000E+00
  0.00000000E+00  0.00000000E+00  0.00000000E+00
  0.00000000E+00  0.00000000E+00  0.00000000E+00
  0.00000000E+00  0.00000000E+00  0.00000000E+00
  0.00000000E+00  0.00000000E+00  0.00000000E+00
  0.00000000E+00  0.00000000E+00  0.00000000E+00
  0.00000000E+00  0.00000000E+00  0.00000000E+00
  0.00000000E+00  0.00000000E+00  0.00000000E+00
  0.00000000E+00  0.00000000E+00  0.00000000E+00
  0.00000000E+00  0.00000000E+00  0.00000000E+00
  0.00000000E+00  0.00000000E+00  0.00000000E+00
  0.00000000E+00  0.00000000E+00  0.00000000E+00
  0.00000000E+00  0.00000000E+00  0.00000000E+00
  0.00000000E+00  0.00000000E+00  0.00000000E+00
  0.00000000E+00  0.00000000E+00  0.00000000E+00
