generated by phonopy                    
   1.00000000000000     
     0.0000000000000000    3.4189566821716468    3.4189566821717521
     3.4189566821716908    0.0000000000000000    3.4189566821717521
     3.4189566821716908    3.4189566821716468    0.0000000000000000
   Na   Y    Zr   Hf   H 
     1     1     1     1    24
Direct
  0.2500000000000000  0.2500000000000000  0.2500000000000000
  0.7500000000000000  0.7500000000000000  0.7500000000000000
  0.0000000000000000  0.0000000000000000  0.0000000000000000
  0.5000000000000000  0.5000000000000000  0.5000000000000000
  0.1287696624297396  0.8904857546176217  0.6102188396563193
  0.8904857546176217  0.1287696624297396  0.3705257432963265
  0.6102188396563193  0.3705257432963265  0.1287696624297396
  0.3705257432963265  0.6102188396563193  0.8904857546176217
  0.6102188396563193  0.1287696624297396  0.8904857546176217
  0.3705257432963265  0.8904857546176217  0.1287696624297396
  0.1287696624297396  0.6102188396563193  0.3705257432963265
  0.8904857546176217  0.3705257432963265  0.6102188396563193
  0.8904857546176217  0.6102188396563193  0.1287696624297396
  0.1287696624297396  0.3705257432963265  0.8904857546176217
  0.3705257432963265  0.1287696624297396  0.6102188396563193
  0.6102188396563193  0.8904857546176217  0.3705257432963265
  0.1287696624297396  0.3705257432963265  0.6102188396563193
  0.3705257432963265  0.1287696624297396  0.8904857546176217
  0.6102188396563193  0.8904857546176217  0.1287696624297396
  0.8904857546176217  0.6102188396563193  0.3705257432963265
  0.6102188396563193  0.1287696624297396  0.3705257432963265
  0.8904857546176217  0.3705257432963265  0.1287696624297396
  0.1287696624297396  0.6102188396563193  0.8904857546176217
  0.3705257432963265  0.8904857546176217  0.6102188396563193
  0.3705257432963265  0.6102188396563193  0.1287696624297396
  0.1287696624297396  0.8904857546176217  0.3705257432963265
  0.8904857546176217  0.1287696624297396  0.6102188396563193
  0.6102188396563193  0.3705257432963265  0.8904857546176217
 
  0.00000000E+00  0.00000000E+00  0.00000000E+00
  0.00000000E+00  0.00000000E+00  0.00000000E+00
  0.00000000E+00  0.00000000E+00  0.00000000E+00
  0.00000000E+00  0.00000000E+00  0.00000000E+00
  0.00000000E+00  0.00000000E+00  0.00000000E+00
  0.00000000E+00  0.00000000E+00  0.00000000E+00
  0.00000000E+00  0.00000000E+00  0.00000000E+00
  0.00000000E+00  0.00000000E+00  0.00000000E+00
  0.00000000E+00  0.00000000E+00  0.00000000E+00
  0.00000000E+00  0.00000000E+00  0.00000000E+00
  0.00000000E+00  0.00000000E+00  0.00000000E+00
  0.00000000E+00  0.00000000E+00  0.00000000E+00
  0.00000000E+00  0.00000000E+00  0.00000000E+00
  0.00000000E+00  0.00000000E+00  0.00000000E+00
  0.00000000E+00  0.00000000E+00  0.00000000E+00
  0.00000000E+00  0.00000000E+00  0.00000000E+00
  0.00000000E+00  0.00000000E+00  0.00000000E+00
  0.00000000E+00  0.00000000E+00  0.00000000E+00
  0.00000000E+00  0.00000000E+00  0.00000000E+00
  0.00000000E+00  0.00000000E+00  0.00000000E+00
  0.00000000E+00  0.00000000E+00  0.00000000E+00
  0.00000000E+00  0.00000000E+00  0.00000000E+00
  0.00000000E+00  0.00000000E+00  0.00000000E+00
  0.00000000E+00  0.00000000E+00  0.00000000E+00
  0.00000000E+00  0.00000000E+00  0.00000000E+00
  0.00000000E+00  0.00000000E+00  0.00000000E+00
  0.00000000E+00  0.00000000E+00  0.00000000E+00
  0.00000000E+00  0.00000000E+00  0.00000000E+00
