generated by phonopy                    
   1.00000000000000     
     0.0000000000000000    3.4635866186067918    3.4635866186068585
     3.4635866186068212    0.0000000000000000    3.4635866186068585
     3.4635866186068212    3.4635866186067918    0.0000000000000000
   Sc   Ce   Zr   Hf   H 
     1     1     1     1    24
Direct
  0.2500000000000000  0.2500000000000000  0.2500000000000000
  0.7500000000000000  0.7500000000000000  0.7500000000000000
  0.0000000000000000  0.0000000000000000  0.0000000000000000
  0.5000000000000000  0.5000000000000000  0.5000000000000000
  0.1274644640080780  0.8857631292879447  0.6147301782293724
  0.8857631292879447  0.1274644640080780  0.3720422284746121
  0.6147301782293724  0.3720422284746121  0.1274644640080780
  0.3720422284746121  0.6147301782293724  0.8857631292879447
  0.6147301782293724  0.1274644640080780  0.8857631292879447
  0.3720422284746121  0.8857631292879447  0.1274644640080780
  0.1274644640080780  0.6147301782293724  0.3720422284746121
  0.8857631292879447  0.3720422284746121  0.6147301782293724
  0.8857631292879447  0.6147301782293724  0.1274644640080780
  0.1274644640080780  0.3720422284746121  0.8857631292879447
  0.3720422284746121  0.1274644640080780  0.6147301782293724
  0.6147301782293724  0.8857631292879447  0.3720422284746121
  0.1274644640080780  0.3720422284746121  0.6147301782293724
  0.3720422284746121  0.1274644640080780  0.8857631292879447
  0.6147301782293724  0.8857631292879447  0.1274644640080780
  0.8857631292879447  0.6147301782293724  0.3720422284746121
  0.6147301782293724  0.1274644640080780  0.3720422284746121
  0.8857631292879447  0.3720422284746121  0.1274644640080780
  0.1274644640080780  0.6147301782293724  0.8857631292879447
  0.3720422284746121  0.8857631292879447  0.6147301782293724
  0.3720422284746121  0.6147301782293724  0.1274644640080780
  0.1274644640080780  0.8857631292879447  0.3720422284746121
  0.8857631292879447  0.1274644640080780  0.6147301782293724
  0.6147301782293724  0.3720422284746121  0.8857631292879447
 
  0.00000000E+00  0.00000000E+00  0.00000000E+00
  0.00000000E+00  0.00000000E+00  0.00000000E+00
  0.00000000E+00  0.00000000E+00  0.00000000E+00
  0.00000000E+00  0.00000000E+00  0.00000000E+00
  0.00000000E+00  0.00000000E+00  0.00000000E+00
  0.00000000E+00  0.00000000E+00  0.00000000E+00
  0.00000000E+00  0.00000000E+00  0.00000000E+00
  0.00000000E+00  0.00000000E+00  0.00000000E+00
  0.00000000E+00  0.00000000E+00  0.00000000E+00
  0.00000000E+00  0.00000000E+00  0.00000000E+00
  0.00000000E+00  0.00000000E+00  0.00000000E+00
  0.00000000E+00  0.00000000E+00  0.00000000E+00
  0.00000000E+00  0.00000000E+00  0.00000000E+00
  0.00000000E+00  0.00000000E+00  0.00000000E+00
  0.00000000E+00  0.00000000E+00  0.00000000E+00
  0.00000000E+00  0.00000000E+00  0.00000000E+00
  0.00000000E+00  0.00000000E+00  0.00000000E+00
  0.00000000E+00  0.00000000E+00  0.00000000E+00
  0.00000000E+00  0.00000000E+00  0.00000000E+00
  0.00000000E+00  0.00000000E+00  0.00000000E+00
  0.00000000E+00  0.00000000E+00  0.00000000E+00
  0.00000000E+00  0.00000000E+00  0.00000000E+00
  0.00000000E+00  0.00000000E+00  0.00000000E+00
  0.00000000E+00  0.00000000E+00  0.00000000E+00
  0.00000000E+00  0.00000000E+00  0.00000000E+00
  0.00000000E+00  0.00000000E+00  0.00000000E+00
  0.00000000E+00  0.00000000E+00  0.00000000E+00
  0.00000000E+00  0.00000000E+00  0.00000000E+00
