generated by phonopy                    
   1.00000000000000     
     0.0000000000000000    3.3853441179473767    3.3853441179474753
     3.3853441179474180    0.0000000000000000    3.3853441179474753
     3.3853441179474180    3.3853441179473767    0.0000000000000000
   Sr   Y    Hf   Ce   H 
     1     1     1     1    24
Direct
  0.2500000000000000  0.2500000000000000  0.2500000000000000
  0.7500000000000000  0.7500000000000000  0.7500000000000000
  0.0000000000000000  0.0000000000000000  0.0000000000000000
  0.5000000000000000  0.5000000000000000  0.5000000000000000
  0.1202497765325887  0.8772758156896785  0.6285870488531842
  0.8772758156896785  0.1202497765325887  0.3738873589245557
  0.6285870488531842  0.3738873589245557  0.1202497765325887
  0.3738873589245557  0.6285870488531842  0.8772758156896785
  0.6285870488531842  0.1202497765325887  0.8772758156896785
  0.3738873589245557  0.8772758156896785  0.1202497765325887
  0.1202497765325887  0.6285870488531842  0.3738873589245557
  0.8772758156896785  0.3738873589245557  0.6285870488531842
  0.8772758156896785  0.6285870488531842  0.1202497765325887
  0.1202497765325887  0.3738873589245557  0.8772758156896785
  0.3738873589245557  0.1202497765325887  0.6285870488531842
  0.6285870488531842  0.8772758156896785  0.3738873589245557
  0.1202497765325887  0.3738873589245557  0.6285870488531842
  0.3738873589245557  0.1202497765325887  0.8772758156896785
  0.6285870488531842  0.8772758156896785  0.1202497765325887
  0.8772758156896785  0.6285870488531842  0.3738873589245557
  0.6285870488531842  0.1202497765325887  0.3738873589245557
  0.8772758156896785  0.3738873589245557  0.1202497765325887
  0.1202497765325887  0.6285870488531842  0.8772758156896785
  0.3738873589245557  0.8772758156896785  0.6285870488531842
  0.3738873589245557  0.6285870488531842  0.1202497765325887
  0.1202497765325887  0.8772758156896785  0.3738873589245557
  0.8772758156896785  0.1202497765325887  0.6285870488531842
  0.6285870488531842  0.3738873589245557  0.8772758156896785
 
  0.00000000E+00  0.00000000E+00  0.00000000E+00
  0.00000000E+00  0.00000000E+00  0.00000000E+00
  0.00000000E+00  0.00000000E+00  0.00000000E+00
  0.00000000E+00  0.00000000E+00  0.00000000E+00
  0.00000000E+00  0.00000000E+00  0.00000000E+00
  0.00000000E+00  0.00000000E+00  0.00000000E+00
  0.00000000E+00  0.00000000E+00  0.00000000E+00
  0.00000000E+00  0.00000000E+00  0.00000000E+00
  0.00000000E+00  0.00000000E+00  0.00000000E+00
  0.00000000E+00  0.00000000E+00  0.00000000E+00
  0.00000000E+00  0.00000000E+00  0.00000000E+00
  0.00000000E+00  0.00000000E+00  0.00000000E+00
  0.00000000E+00  0.00000000E+00  0.00000000E+00
  0.00000000E+00  0.00000000E+00  0.00000000E+00
  0.00000000E+00  0.00000000E+00  0.00000000E+00
  0.00000000E+00  0.00000000E+00  0.00000000E+00
  0.00000000E+00  0.00000000E+00  0.00000000E+00
  0.00000000E+00  0.00000000E+00  0.00000000E+00
  0.00000000E+00  0.00000000E+00  0.00000000E+00
  0.00000000E+00  0.00000000E+00  0.00000000E+00
  0.00000000E+00  0.00000000E+00  0.00000000E+00
  0.00000000E+00  0.00000000E+00  0.00000000E+00
  0.00000000E+00  0.00000000E+00  0.00000000E+00
  0.00000000E+00  0.00000000E+00  0.00000000E+00
  0.00000000E+00  0.00000000E+00  0.00000000E+00
  0.00000000E+00  0.00000000E+00  0.00000000E+00
  0.00000000E+00  0.00000000E+00  0.00000000E+00
  0.00000000E+00  0.00000000E+00  0.00000000E+00
