generated by phonopy                    
   1.00000000000000     
     0.0000000000000000    3.3551013131267018    3.3551013131267364
     3.3551013131267151    0.0000000000000000    3.3551013131267364
     3.3551013131267151    3.3551013131267018    0.0000000000000000
   Ca   Sr   Zr   Ce   H 
     1     1     1     1    24
Direct
  0.2500000000000000  0.2500000000000000  0.2500000000000000
  0.7500000000000000  0.7500000000000000  0.7500000000000000
  0.0000000000000000  0.0000000000000000  0.0000000000000000
  0.5000000000000000  0.5000000000000000  0.5000000000000000
  0.1266808388469727  0.8862255923231857  0.6205481139251035
  0.8862255923231857  0.1266808388469727  0.3665454549047453
  0.6205481139251035  0.3665454549047453  0.1266808388469727
  0.3665454549047453  0.6205481139251035  0.8862255923231857
  0.6205481139251035  0.1266808388469727  0.8862255923231857
  0.3665454549047453  0.8862255923231857  0.1266808388469727
  0.1266808388469727  0.6205481139251035  0.3665454549047453
  0.8862255923231857  0.3665454549047453  0.6205481139251035
  0.8862255923231857  0.6205481139251035  0.1266808388469727
  0.1266808388469727  0.3665454549047453  0.8862255923231857
  0.3665454549047453  0.1266808388469727  0.6205481139251035
  0.6205481139251035  0.8862255923231857  0.3665454549047453
  0.1266808388469727  0.3665454549047453  0.6205481139251035
  0.3665454549047453  0.1266808388469727  0.8862255923231857
  0.6205481139251035  0.8862255923231857  0.1266808388469727
  0.8862255923231857  0.6205481139251035  0.3665454549047453
  0.6205481139251035  0.1266808388469727  0.3665454549047453
  0.8862255923231857  0.3665454549047453  0.1266808388469727
  0.1266808388469727  0.6205481139251035  0.8862255923231857
  0.3665454549047453  0.8862255923231857  0.6205481139251035
  0.3665454549047453  0.6205481139251035  0.1266808388469727
  0.1266808388469727  0.8862255923231857  0.3665454549047453
  0.8862255923231857  0.1266808388469727  0.6205481139251035
  0.6205481139251035  0.3665454549047453  0.8862255923231857
 
  0.00000000E+00  0.00000000E+00  0.00000000E+00
  0.00000000E+00  0.00000000E+00  0.00000000E+00
  0.00000000E+00  0.00000000E+00  0.00000000E+00
  0.00000000E+00  0.00000000E+00  0.00000000E+00
  0.00000000E+00  0.00000000E+00  0.00000000E+00
  0.00000000E+00  0.00000000E+00  0.00000000E+00
  0.00000000E+00  0.00000000E+00  0.00000000E+00
  0.00000000E+00  0.00000000E+00  0.00000000E+00
  0.00000000E+00  0.00000000E+00  0.00000000E+00
  0.00000000E+00  0.00000000E+00  0.00000000E+00
  0.00000000E+00  0.00000000E+00  0.00000000E+00
  0.00000000E+00  0.00000000E+00  0.00000000E+00
  0.00000000E+00  0.00000000E+00  0.00000000E+00
  0.00000000E+00  0.00000000E+00  0.00000000E+00
  0.00000000E+00  0.00000000E+00  0.00000000E+00
  0.00000000E+00  0.00000000E+00  0.00000000E+00
  0.00000000E+00  0.00000000E+00  0.00000000E+00
  0.00000000E+00  0.00000000E+00  0.00000000E+00
  0.00000000E+00  0.00000000E+00  0.00000000E+00
  0.00000000E+00  0.00000000E+00  0.00000000E+00
  0.00000000E+00  0.00000000E+00  0.00000000E+00
  0.00000000E+00  0.00000000E+00  0.00000000E+00
  0.00000000E+00  0.00000000E+00  0.00000000E+00
  0.00000000E+00  0.00000000E+00  0.00000000E+00
  0.00000000E+00  0.00000000E+00  0.00000000E+00
  0.00000000E+00  0.00000000E+00  0.00000000E+00
  0.00000000E+00  0.00000000E+00  0.00000000E+00
  0.00000000E+00  0.00000000E+00  0.00000000E+00
