generated by phonopy                    
   1.00000000000000     
     0.0000000000000000    3.3055053397707872    3.3055053397708472
     3.3055053397708098    0.0000000000000000    3.3055053397708472
     3.3055053397708098    3.3055053397707872    0.0000000000000000
   Ca   Y    Ti   Ce   H 
     1     1     1     1    24
Direct
  0.2500000000000000  0.2500000000000000  0.2500000000000000
  0.7500000000000000  0.7500000000000000  0.7500000000000000
  0.0000000000000000  0.0000000000000000  0.0000000000000000
  0.5000000000000000  0.5000000000000000  0.5000000000000000
  0.1223623018538973  0.8871263969105527  0.6307122415564379
  0.8871263969105527  0.1223623018538973  0.3597990596791121
  0.6307122415564379  0.3597990596791121  0.1223623018538973
  0.3597990596791121  0.6307122415564379  0.8871263969105527
  0.6307122415564379  0.1223623018538973  0.8871263969105527
  0.3597990596791121  0.8871263969105527  0.1223623018538973
  0.1223623018538973  0.6307122415564379  0.3597990596791121
  0.8871263969105527  0.3597990596791121  0.6307122415564379
  0.8871263969105527  0.6307122415564379  0.1223623018538973
  0.1223623018538973  0.3597990596791121  0.8871263969105527
  0.3597990596791121  0.1223623018538973  0.6307122415564379
  0.6307122415564379  0.8871263969105527  0.3597990596791121
  0.1223623018538973  0.3597990596791121  0.6307122415564379
  0.3597990596791121  0.1223623018538973  0.8871263969105527
  0.6307122415564379  0.8871263969105527  0.1223623018538973
  0.8871263969105527  0.6307122415564379  0.3597990596791121
  0.6307122415564379  0.1223623018538973  0.3597990596791121
  0.8871263969105527  0.3597990596791121  0.1223623018538973
  0.1223623018538973  0.6307122415564379  0.8871263969105527
  0.3597990596791121  0.8871263969105527  0.6307122415564379
  0.3597990596791121  0.6307122415564379  0.1223623018538973
  0.1223623018538973  0.8871263969105527  0.3597990596791121
  0.8871263969105527  0.1223623018538973  0.6307122415564379
  0.6307122415564379  0.3597990596791121  0.8871263969105527
 
  0.00000000E+00  0.00000000E+00  0.00000000E+00
  0.00000000E+00  0.00000000E+00  0.00000000E+00
  0.00000000E+00  0.00000000E+00  0.00000000E+00
  0.00000000E+00  0.00000000E+00  0.00000000E+00
  0.00000000E+00  0.00000000E+00  0.00000000E+00
  0.00000000E+00  0.00000000E+00  0.00000000E+00
  0.00000000E+00  0.00000000E+00  0.00000000E+00
  0.00000000E+00  0.00000000E+00  0.00000000E+00
  0.00000000E+00  0.00000000E+00  0.00000000E+00
  0.00000000E+00  0.00000000E+00  0.00000000E+00
  0.00000000E+00  0.00000000E+00  0.00000000E+00
  0.00000000E+00  0.00000000E+00  0.00000000E+00
  0.00000000E+00  0.00000000E+00  0.00000000E+00
  0.00000000E+00  0.00000000E+00  0.00000000E+00
  0.00000000E+00  0.00000000E+00  0.00000000E+00
  0.00000000E+00  0.00000000E+00  0.00000000E+00
  0.00000000E+00  0.00000000E+00  0.00000000E+00
  0.00000000E+00  0.00000000E+00  0.00000000E+00
  0.00000000E+00  0.00000000E+00  0.00000000E+00
  0.00000000E+00  0.00000000E+00  0.00000000E+00
  0.00000000E+00  0.00000000E+00  0.00000000E+00
  0.00000000E+00  0.00000000E+00  0.00000000E+00
  0.00000000E+00  0.00000000E+00  0.00000000E+00
  0.00000000E+00  0.00000000E+00  0.00000000E+00
  0.00000000E+00  0.00000000E+00  0.00000000E+00
  0.00000000E+00  0.00000000E+00  0.00000000E+00
  0.00000000E+00  0.00000000E+00  0.00000000E+00
  0.00000000E+00  0.00000000E+00  0.00000000E+00
