generated by phonopy                    
   1.00000000000000     
     0.0000000000000000    3.3003620092590373    3.3003620092591115
     3.3003620092590653    0.0000000000000000    3.3003620092591115
     3.3003620092590653    3.3003620092590373    0.0000000000000000
   Na   Zr   Sc   Hf   H 
     1     1     1     1    24
Direct
  0.2500000000000000  0.2500000000000000  0.2500000000000000
  0.7500000000000000  0.7500000000000000  0.7500000000000000
  0.0000000000000000  0.0000000000000000  0.0000000000000000
  0.5000000000000000  0.5000000000000000  0.5000000000000000
  0.1269929958685054  0.8929272838823934  0.6176198430646593
  0.8929272838823934  0.1269929958685054  0.3624598771844489
  0.6176198430646593  0.3624598771844489  0.1269929958685054
  0.3624598771844489  0.6176198430646593  0.8929272838823934
  0.6176198430646593  0.1269929958685054  0.8929272838823934
  0.3624598771844489  0.8929272838823934  0.1269929958685054
  0.1269929958685054  0.6176198430646593  0.3624598771844489
  0.8929272838823934  0.3624598771844489  0.6176198430646593
  0.8929272838823934  0.6176198430646593  0.1269929958685054
  0.1269929958685054  0.3624598771844489  0.8929272838823934
  0.3624598771844489  0.1269929958685054  0.6176198430646593
  0.6176198430646593  0.8929272838823934  0.3624598771844489
  0.1269929958685054  0.3624598771844489  0.6176198430646593
  0.3624598771844489  0.1269929958685054  0.8929272838823934
  0.6176198430646593  0.8929272838823934  0.1269929958685054
  0.8929272838823934  0.6176198430646593  0.3624598771844489
  0.6176198430646593  0.1269929958685054  0.3624598771844489
  0.8929272838823934  0.3624598771844489  0.1269929958685054
  0.1269929958685054  0.6176198430646593  0.8929272838823934
  0.3624598771844489  0.8929272838823934  0.6176198430646593
  0.3624598771844489  0.6176198430646593  0.1269929958685054
  0.1269929958685054  0.8929272838823934  0.3624598771844489
  0.8929272838823934  0.1269929958685054  0.6176198430646593
  0.6176198430646593  0.3624598771844489  0.8929272838823934
 
  0.00000000E+00  0.00000000E+00  0.00000000E+00
  0.00000000E+00  0.00000000E+00  0.00000000E+00
  0.00000000E+00  0.00000000E+00  0.00000000E+00
  0.00000000E+00  0.00000000E+00  0.00000000E+00
  0.00000000E+00  0.00000000E+00  0.00000000E+00
  0.00000000E+00  0.00000000E+00  0.00000000E+00
  0.00000000E+00  0.00000000E+00  0.00000000E+00
  0.00000000E+00  0.00000000E+00  0.00000000E+00
  0.00000000E+00  0.00000000E+00  0.00000000E+00
  0.00000000E+00  0.00000000E+00  0.00000000E+00
  0.00000000E+00  0.00000000E+00  0.00000000E+00
  0.00000000E+00  0.00000000E+00  0.00000000E+00
  0.00000000E+00  0.00000000E+00  0.00000000E+00
  0.00000000E+00  0.00000000E+00  0.00000000E+00
  0.00000000E+00  0.00000000E+00  0.00000000E+00
  0.00000000E+00  0.00000000E+00  0.00000000E+00
  0.00000000E+00  0.00000000E+00  0.00000000E+00
  0.00000000E+00  0.00000000E+00  0.00000000E+00
  0.00000000E+00  0.00000000E+00  0.00000000E+00
  0.00000000E+00  0.00000000E+00  0.00000000E+00
  0.00000000E+00  0.00000000E+00  0.00000000E+00
  0.00000000E+00  0.00000000E+00  0.00000000E+00
  0.00000000E+00  0.00000000E+00  0.00000000E+00
  0.00000000E+00  0.00000000E+00  0.00000000E+00
  0.00000000E+00  0.00000000E+00  0.00000000E+00
  0.00000000E+00  0.00000000E+00  0.00000000E+00
  0.00000000E+00  0.00000000E+00  0.00000000E+00
  0.00000000E+00  0.00000000E+00  0.00000000E+00
