generated by phonopy                    
   1.00000000000000     
     0.0000000000000000    3.4190474764896117    3.4190474764896743
     3.4190474764896384    0.0000000000000000    3.4190474764896743
     3.4190474764896384    3.4190474764896117    0.0000000000000000
   K    Y    Hf   Ce   H 
     1     1     1     1    24
Direct
  0.2500000000000000  0.2500000000000000  0.2500000000000000
  0.7500000000000000  0.7500000000000000  0.7500000000000000
  0.0000000000000000  0.0000000000000000  0.0000000000000000
  0.5000000000000000  0.5000000000000000  0.5000000000000000
  0.1238806905646825  0.8833308755433009  0.6226314945127882
  0.8833308755433009  0.1238806905646825  0.3701569393792283
  0.6226314945127882  0.3701569393792283  0.1238806905646825
  0.3701569393792283  0.6226314945127882  0.8833308755433009
  0.6226314945127882  0.1238806905646825  0.8833308755433009
  0.3701569393792283  0.8833308755433009  0.1238806905646825
  0.1238806905646825  0.6226314945127882  0.3701569393792283
  0.8833308755433009  0.3701569393792283  0.6226314945127882
  0.8833308755433009  0.6226314945127882  0.1238806905646825
  0.1238806905646825  0.3701569393792283  0.8833308755433009
  0.3701569393792283  0.1238806905646825  0.6226314945127882
  0.6226314945127882  0.8833308755433009  0.3701569393792283
  0.1238806905646825  0.3701569393792283  0.6226314945127882
  0.3701569393792283  0.1238806905646825  0.8833308755433009
  0.6226314945127882  0.8833308755433009  0.1238806905646825
  0.8833308755433009  0.6226314945127882  0.3701569393792283
  0.6226314945127882  0.1238806905646825  0.3701569393792283
  0.8833308755433009  0.3701569393792283  0.1238806905646825
  0.1238806905646825  0.6226314945127882  0.8833308755433009
  0.3701569393792283  0.8833308755433009  0.6226314945127882
  0.3701569393792283  0.6226314945127882  0.1238806905646825
  0.1238806905646825  0.8833308755433009  0.3701569393792283
  0.8833308755433009  0.1238806905646825  0.6226314945127882
  0.6226314945127882  0.3701569393792283  0.8833308755433009
 
  0.00000000E+00  0.00000000E+00  0.00000000E+00
  0.00000000E+00  0.00000000E+00  0.00000000E+00
  0.00000000E+00  0.00000000E+00  0.00000000E+00
  0.00000000E+00  0.00000000E+00  0.00000000E+00
  0.00000000E+00  0.00000000E+00  0.00000000E+00
  0.00000000E+00  0.00000000E+00  0.00000000E+00
  0.00000000E+00  0.00000000E+00  0.00000000E+00
  0.00000000E+00  0.00000000E+00  0.00000000E+00
  0.00000000E+00  0.00000000E+00  0.00000000E+00
  0.00000000E+00  0.00000000E+00  0.00000000E+00
  0.00000000E+00  0.00000000E+00  0.00000000E+00
  0.00000000E+00  0.00000000E+00  0.00000000E+00
  0.00000000E+00  0.00000000E+00  0.00000000E+00
  0.00000000E+00  0.00000000E+00  0.00000000E+00
  0.00000000E+00  0.00000000E+00  0.00000000E+00
  0.00000000E+00  0.00000000E+00  0.00000000E+00
  0.00000000E+00  0.00000000E+00  0.00000000E+00
  0.00000000E+00  0.00000000E+00  0.00000000E+00
  0.00000000E+00  0.00000000E+00  0.00000000E+00
  0.00000000E+00  0.00000000E+00  0.00000000E+00
  0.00000000E+00  0.00000000E+00  0.00000000E+00
  0.00000000E+00  0.00000000E+00  0.00000000E+00
  0.00000000E+00  0.00000000E+00  0.00000000E+00
  0.00000000E+00  0.00000000E+00  0.00000000E+00
  0.00000000E+00  0.00000000E+00  0.00000000E+00
  0.00000000E+00  0.00000000E+00  0.00000000E+00
  0.00000000E+00  0.00000000E+00  0.00000000E+00
  0.00000000E+00  0.00000000E+00  0.00000000E+00
