POSCAR                                  
   1.00000000000000     
     0.0000000000000000    0.0135691180713743    6.4410324025124535
     0.0000000000000000    6.4773171325675731    0.0137083550804650
    -3.1922668188932133    0.0000000000000000    0.0000000000000000
   Zr   Mg   Na   Hf   H 
     2     2     2     2    48
Direct
  0.2388111969338880  0.2504437188374240  0.5000000000000000
  0.4985316646555304  0.5009545369866402  0.0000000000000000
  0.7526104645176162  0.2519656412584510  0.5000000000000000
  0.0025253258984890  0.9985347846030734  0.0000000000000000
  0.0002175093202155  0.4988498538438222  0.0000000000000000
  0.2466643086043092  0.7496296631585793  0.5000000000000000
  0.4995377740450095  0.9988259280973466  0.0000000000000000
  0.7624444705225102  0.7495920869420800  0.5000000000000000
  0.9870380202236717  0.1243179248952160  0.5000000000000000
  0.2285257082101921  0.3797947054439845  0.0000000000000000
  0.5079983414264007  0.1310845189457197  0.5000000000000000
  0.7620664194630749  0.3728361634673263  0.0000000000000000
  0.0152287104111579  0.6203160003106944  0.5000000000000000
  0.2410317903451755  0.8691455546316931  0.0000000000000000
  0.4882501650329019  0.6279934835998588  0.5000000000000000
  0.7722982817353383  0.8818703873753222  0.0000000000000000
  0.9844736086834445  0.2430018681720867  0.7583695896978284
  0.2398287214169486  0.5091399478416037  0.2474006774413837
  0.5112565822257409  0.2511472510422124  0.7445737143572231
  0.7601213849564274  0.4892015936473868  0.2442326534764518
  0.0124023091970571  0.7541113617061939  0.7551164244374604
  0.2349386961345274  0.9893838211606294  0.2514088253225282
  0.4900649908324368  0.7488856708620872  0.7421682688856350
  0.7694064102673082  0.0154312840006909  0.2474864778373203
  0.1185605736101607  0.9865882115087032  0.5000000000000000
  0.3689870543036946  0.2489508853230760  0.0000000000000000
  0.6355991386503277  0.0106864456753684  0.5000000000000000
  0.8757573722321013  0.2516175777566900  0.0000000000000000
  0.1183175825541554  0.5143562313978620  0.5000000000000000
  0.3649936870387620  0.7516524859656428  0.0000000000000000
  0.6307164160996592  0.4911278373266086  0.5000000000000000
  0.8895392001885298  0.7429284990834404  0.0000000000000000
  0.2349386961345274  0.9893838211606294  0.7485911746774718
  0.5112565822257409  0.2511472510422124  0.2554262856427769
  0.7694064102673082  0.0154312840006909  0.7525135221626797
  0.9844736086834445  0.2430018681720867  0.2416304103021716
  0.2398287214169486  0.5091399478416037  0.7525993225586163
  0.4900649908324368  0.7488856708620872  0.2578317311143650
  0.7601213849564274  0.4892015936473868  0.7557673465235482
  0.0124023091970571  0.7541113617061939  0.2448835755625396
  0.1136927359605622  0.2548946613835454  0.0000000000000000
  0.3662902184673769  0.5093406669199609  0.5000000000000000
  0.6320799218402016  0.2482887558007647  0.0000000000000000
  0.8811210742580542  0.4834369840989154  0.5000000000000000
  0.1276365058019380  0.7477500317874544  0.0000000000000000
  0.3647906350433487  0.9898672613638482  0.5000000000000000
  0.6293695954183605  0.7511979653726897  0.0000000000000000
  0.8810011529975483  0.0163294757612249  0.5000000000000000
  0.2300536256980905  0.1206470914628284  0.0000000000000000
  0.5102354156492765  0.3720765604391048  0.5000000000000000
  0.7582342502857387  0.1298235697333823  0.0000000000000000
  0.9829046531524668  0.3762173563326812  0.5000000000000000
  0.2361042114938385  0.6288657094850905  0.0000000000000000
  0.4906175834996560  0.8700992613122907  0.5000000000000000
  0.7717786475237105  0.6188334550603685  0.0000000000000000
  0.0128531894592001  0.8776624703854168  0.5000000000000000
 
  0.00000000E+00  0.00000000E+00  0.00000000E+00
  0.00000000E+00  0.00000000E+00  0.00000000E+00
  0.00000000E+00  0.00000000E+00  0.00000000E+00
  0.00000000E+00  0.00000000E+00  0.00000000E+00
  0.00000000E+00  0.00000000E+00  0.00000000E+00
  0.00000000E+00  0.00000000E+00  0.00000000E+00
  0.00000000E+00  0.00000000E+00  0.00000000E+00
  0.00000000E+00  0.00000000E+00  0.00000000E+00
  0.00000000E+00  0.00000000E+00  0.00000000E+00
  0.00000000E+00  0.00000000E+00  0.00000000E+00
  0.00000000E+00  0.00000000E+00  0.00000000E+00
  0.00000000E+00  0.00000000E+00  0.00000000E+00
  0.00000000E+00  0.00000000E+00  0.00000000E+00
  0.00000000E+00  0.00000000E+00  0.00000000E+00
  0.00000000E+00  0.00000000E+00  0.00000000E+00
  0.00000000E+00  0.00000000E+00  0.00000000E+00
  0.00000000E+00  0.00000000E+00  0.00000000E+00
  0.00000000E+00  0.00000000E+00  0.00000000E+00
  0.00000000E+00  0.00000000E+00  0.00000000E+00
  0.00000000E+00  0.00000000E+00  0.00000000E+00
  0.00000000E+00  0.00000000E+00  0.00000000E+00
  0.00000000E+00  0.00000000E+00  0.00000000E+00
  0.00000000E+00  0.00000000E+00  0.00000000E+00
  0.00000000E+00  0.00000000E+00  0.00000000E+00
  0.00000000E+00  0.00000000E+00  0.00000000E+00
  0.00000000E+00  0.00000000E+00  0.00000000E+00
  0.00000000E+00  0.00000000E+00  0.00000000E+00
  0.00000000E+00  0.00000000E+00  0.00000000E+00
  0.00000000E+00  0.00000000E+00  0.00000000E+00
  0.00000000E+00  0.00000000E+00  0.00000000E+00
  0.00000000E+00  0.00000000E+00  0.00000000E+00
  0.00000000E+00  0.00000000E+00  0.00000000E+00
  0.00000000E+00  0.00000000E+00  0.00000000E+00
  0.00000000E+00  0.00000000E+00  0.00000000E+00
  0.00000000E+00  0.00000000E+00  0.00000000E+00
  0.00000000E+00  0.00000000E+00  0.00000000E+00
  0.00000000E+00  0.00000000E+00  0.00000000E+00
  0.00000000E+00  0.00000000E+00  0.00000000E+00
  0.00000000E+00  0.00000000E+00  0.00000000E+00
  0.00000000E+00  0.00000000E+00  0.00000000E+00
  0.00000000E+00  0.00000000E+00  0.00000000E+00
  0.00000000E+00  0.00000000E+00  0.00000000E+00
  0.00000000E+00  0.00000000E+00  0.00000000E+00
  0.00000000E+00  0.00000000E+00  0.00000000E+00
  0.00000000E+00  0.00000000E+00  0.00000000E+00
  0.00000000E+00  0.00000000E+00  0.00000000E+00
  0.00000000E+00  0.00000000E+00  0.00000000E+00
  0.00000000E+00  0.00000000E+00  0.00000000E+00
  0.00000000E+00  0.00000000E+00  0.00000000E+00
  0.00000000E+00  0.00000000E+00  0.00000000E+00
  0.00000000E+00  0.00000000E+00  0.00000000E+00
  0.00000000E+00  0.00000000E+00  0.00000000E+00
  0.00000000E+00  0.00000000E+00  0.00000000E+00
  0.00000000E+00  0.00000000E+00  0.00000000E+00
  0.00000000E+00  0.00000000E+00  0.00000000E+00
  0.00000000E+00  0.00000000E+00  0.00000000E+00
