POSCAR                                  
   1.00000000000000     
    10.0286891465634902   -0.0090872361716820   -0.0004413000889841
    -0.0090890607372403   10.0254116103566346   -0.0127541278337551
    -0.0003075712811839   -0.0084607853160304    6.6408648329713031
   Na   Zr   Mg   Ca   H 
     9     9     9     9   216
Direct
  0.1686768678740092  0.1717467063319670  0.2518966397349828
  0.1702015250633414  0.4980269141493303  0.2502584736565873
  0.4953900344966652  0.1664802736642244  0.2521295752813059
  0.4993272103054756  0.1724711036320825  0.7541749676371615
  0.6644321592485383  0.3359192314869406  0.0072512909078359
  0.3314537068399493  0.9984874231873324  0.4952604308141903
  0.9986634829648678  0.3285586416411486  0.0010531644125028
  0.8326040210864785  0.8351610446760174  0.2506280633102222
  0.0049611039556093  0.0040721199489156  0.0008785754332299
  0.1739347474718567  0.1597629068843430  0.7493176714631120
  0.1713191077004582  0.4992821830395189  0.7513637192269867
  0.8271203835914194  0.1749625749052438  0.7506936326855443
  0.8333053665950978  0.4970421054896916  0.2489265460947914
  0.4926727103372575  0.8334875357047543  0.7478307159529383
  0.0036398434250399  0.6680488776982773  0.4945217008491864
  0.8369964537008658  0.8317511192121161  0.7480879798035165
  0.6673561029164480  0.0042102038450263  0.0080350531455871
  0.0026620264573748  0.6711665331523861  0.0077295602777856
  0.3331513643222111  0.3302078003042506  0.4979567674529683
  0.1670152819863176  0.8363345386622122  0.2488279047397743
  0.4914200917195322  0.4967594199676405  0.2467538381735919
  0.3370925149613053  0.6660540713616823  0.4980407697812066
  0.6647019397374794  0.3303918756763963  0.4953230410587814
  0.6625172536548237  0.6658434593880588  0.4967127839349693
  0.3253366340883098  0.0013643928902062  0.0029031658303469
  0.8287635331920112  0.4974538817172335  0.7513526487123007
  0.0047816170492463  0.0037252407669201  0.4963808968081145
  0.3393540548927905  0.3279075997241570 -0.0002821388266911
  0.1681878918577804  0.8389567214705679  0.7479483722645788
  0.8361589062592365  0.1652498935838939  0.2501892735867302
  0.5070028915383983  0.4931225539434420  0.7401512410352262
  0.3356740557153936  0.6661315984909066  0.0061257889835858
  0.4994496444990913  0.8355876343358118  0.2515922754422886
  0.0009010732722711  0.3314925593716370  0.4994632791114925
  0.6639382790435420  0.6589674949231493  0.0002407805266275
  0.6599308305440875  0.0022755514556787  0.4992696270893859
  0.1660961211272707  0.0836426127762853  0.0146627741646936
  0.1727096229372072  0.0800112267471498  0.4744883490722611
  0.1577734300772470  0.4174284511257276  0.0007137682524526
  0.4975178822155481  0.0828419459155159  0.9979918069577837
  0.3381229980013562  0.2539771453926929  0.2620524858184963
  0.1741246979356318  0.4154240563953717  0.4892162076430914
  0.4896934067717871  0.0816205989931868  0.5138259569783568
  0.3373495751669942  0.2517804396895559  0.7379023402236669
  0.1715377770474007  0.7544292027199547  0.0059525978133861
  0.5057573578678487  0.4125270340097735  0.0030135904809311
  0.3350347833692088  0.5819206763450194  0.2674710767629998
  0.1826118237218970  0.7533895674218493  0.4937813618517289
  0.8407546540091794  0.0822037112685673 -0.0014203585167931
  0.6561933270572428  0.2496646462006386  0.2424058302487108
  0.5044067465495877  0.4154898128392693  0.4819187303297982
  0.3405713613515526  0.5812071856330122  0.7370090167285633
  0.8359245586970422  0.0805342569710001  0.5020371407098384
  0.6602984776879413  0.2521876057287709  0.7646940025239902
  0.5012252003494119  0.7504385888567950  0.0033898505326011
  0.3207977701785328  0.9168635054443081  0.2630149934681577
  0.8372487105476235  0.4163969193514470  0.9926719854439695
  0.6503073582248432  0.5818138744172006  0.2642395268306005
  0.4973876697923715  0.7488251377473552  0.4927459754813919
  0.3283247802819751  0.9228573752642504  0.7378511389395873
  0.0104288549691448  0.2530125543659869  0.2441084244206458
  0.8236341255924581  0.4179519637741025  0.5144227237463925
  0.6707413897404710  0.5817659382516926  0.7308942983515979
  0.0060799867153271  0.2500296571665512  0.7597444793059202
  0.8295570377512409  0.7496224526633500  0.0111352956011771
  0.6737151363380121  0.9154969439112115  0.2533654849022000
  0.0108724217644636  0.5814403620607029  0.2501622898104030
  0.8266957261022481  0.7481168511653253  0.4889477406774261
  0.6681897597968942  0.9172639987537524  0.7487039525586323
  0.9946555868430207  0.5827298039944377  0.7510621551384328
  0.0082030050948785  0.9164593769358886  0.2576935523546480
  0.0013562115181534  0.9196086290437090  0.7400947205682143
  0.0823072675952734  0.1647665743731692  0.0171125887702538
  0.0824915262609209  0.1650751247824915  0.4894354706250074
  0.0844560667803576  0.4892554804000997  0.0083412547854115
  0.4172279971081746  0.1567779112862764 -0.0012483290696684
  0.2394787842247994  0.3338091729713873  0.2380615140556970
  0.0855760767752061  0.4984969400882395  0.4927622788667838
  0.4187452385698542  0.1810934085853867  0.5017772543798037
  0.2499642281652511  0.3311878755312446  0.7493036767131060
  0.0848460274756778  0.8484718383998808  0.0053284879928328
  0.4159962184472632  0.4952488002461359 -0.0072666930556392
  0.2508337376500906  0.6719940208272086  0.2584712082520121
  0.0847375338253065  0.8358838013318549  0.4894102281039621
  0.7477788802290016  0.1750420583812870  0.0062943611992406
  0.5858716539949284  0.3368612060709361  0.2608344689084183
  0.4147269587658290  0.4963414636058375  0.4949454357264507
  0.2528891636202056  0.6726744971384684  0.7434820134901665
  0.7468298281597868  0.1673034813690622  0.4947023460678473
  0.5833643655113996  0.3282776340964043  0.7419531077715877
  0.4120661052044319  0.8458401164246849  0.0093849599356409
  0.2491225422980161  0.9971219166296071  0.2456095243917842
  0.7469213352753965  0.4942185178690194  0.9950102257525959
  0.5837229737197026  0.6539102764920951  0.2600192951429894
  0.4103175396680915  0.8311517614404550  0.4930620454482103
  0.2584894794610650  0.9963681814462318  0.7479336676614512
  0.9162778903667067  0.3309495163802381  0.2432635964219679
  0.7476041958442650  0.5057645082122486  0.4986308196996143
  0.5841143606953862  0.6666860773342175  0.7345262539799426
  0.9184234631563238  0.3384372132309866  0.7554230729681789
  0.7526198242168999  0.8295999166519022  0.0046553917112287
  0.5786530399503370  0.0103002742330907  0.2497755418088923
  0.9117008256880510  0.6744842959543849  0.2536403538393849
  0.7507625763359868  0.8311731134620919  0.4947703326065070
  0.5808112198758602  0.0042814399992219  0.7572193664675445
  0.9158093674294582  0.6536243919324517  0.7458829177677430
  0.9160218892635448  0.9981552284835873  0.2386590937027351
  0.9176263928618239  0.0067907273474315  0.7607645924357830
  0.1661892833164414  0.0072452785316074  0.1338297479434908
  0.1662341085142453  0.9994616926768417  0.6166252671570165
  0.1768700278014709  0.3329222400364708  0.1321375823584018
  0.4776438412439571  0.0056602169323882  0.1281378043032278
  0.3288517945057248  0.1534190688837504  0.3668712205282244
  0.1735695235805985  0.3304420266666870  0.6234061991203050
  0.4889658673131046  0.0218464658036420  0.6192756027267200
  0.3406899064049417  0.1565236890553021  0.8777567205044866
  0.1713551535418719  0.6630080461354199  0.1312874098992922
  0.4978266803557008  0.3351838033972565  0.1281323135276378
  0.3310025793548135  0.4853959466125543  0.3688767384653734
  0.1718595437532671  0.6693941275827415  0.6218145223434876
  0.8549320092693994  0.9967256786662531  0.1329829356200154
  0.6624714664766987  0.1686337739191708  0.3747393864519169
  0.5098517103990603  0.3275868099795720  0.6226816611813425
  0.3444448149234609  0.4972923668628821  0.8766791580643117
  0.8364472258584791  0.0034452998264092  0.6233646827908024
  0.6578072083361715  0.1799952911619491  0.8789401874660385
  0.4990489655645882  0.6566928595410959  0.1282995790885040
  0.3323775894970680  0.8430063067532984  0.3664358053119097
  0.8344278216073833  0.3304792601088362  0.1226305230271941
  0.6688765833148895  0.4987278100920923  0.3752991305459391
  0.4998584093711317  0.6598679680936016  0.6198803858372063
  0.3297184018643023  0.8401686743962111  0.8799608592050928
  0.0078592680181295  0.1614270500354286  0.3757792177874770
  0.8198461160244428  0.3437844031796060  0.6234101243078192
  0.6738290516922751  0.4904407041817704  0.8762584059129274
  0.0020780630980519  0.1674605805965968  0.8762304694237230
  0.8306889332699839  0.6728167041052499  0.1275356086246763
  0.6698887132973874  0.8290076548222457  0.3749388433381642
  0.0079454807656678  0.4966390970181204  0.3731314543313465
  0.8292921202516000  0.6567104413023447  0.6239165261184315
  0.6637266561334308  0.8282894542494706  0.8745935877760789
  0.9910501932595450  0.4957088990933810  0.8780420986649766
  0.9975388704401412  0.8497523742093072  0.3661164224675659
  0.0050223553552424  0.8414364449849772  0.8796141744477560
  0.0817754413448220  0.0120196309123517  0.2415345530989727
  0.0805824281177580  0.0022069933935243  0.7544455370216246
  0.0762214692553240  0.3318980601065918  0.2435589383124385
  0.4146872977792959  0.0061329920358032  0.2301095080213847
  0.2515004295536019  0.1652804913970347  0.4882797465540976
  0.0801548440846724  0.3330593155579597  0.7595072588629117
  0.4197547362334799  0.0071538603255685  0.7679049594395667
  0.2549959490799534  0.1615981106900002  0.0295061504946908
  0.0897162889523861  0.6660523583887721  0.2535213873218053
  0.4174324931293102  0.3212575121224387  0.2646202422444701
  0.2501397915689301  0.5087674916440073  0.4880403944875306
  0.0855642287906499  0.6683790643888894  0.7500110772431373
  0.7502778883377462  0.9950689361715412  0.2551086218751880
  0.5816688254414262  0.1796545711375036  0.5022173960703534
  0.4176802582767603  0.3274079351779128  0.7285064007443062
  0.2538240420929337  0.4973977629033432  0.0193631912930143
  0.7489265787598892  0.9979470866315451  0.7468997499740820
  0.5776998802919304  0.1754574543534971  0.0022068393828061
  0.4172060437117108  0.6643357315272426  0.2649249477241201
  0.2462437475884091  0.8290511923401507  0.4894727860355016
  0.7495794476103084  0.3348955226479330  0.2479179390079017
  0.5806769951390006  0.4881979903471361  0.4823691161379227
  0.4166413520330305  0.6596527191230963  0.7356902884142990
  0.2484545501312986  0.8361857018706951  0.0105002754482562
  0.9179184642570357  0.1618972015088764  0.5029469297666641
  0.7484247740648007  0.3410051861985198  0.7640404495129595
  0.5816609989712389  0.4912502651574963  0.0091858209300302
  0.9206729452951841  0.1631552226119791  0.9954992200968671
  0.7483929802043021  0.6663702468891397  0.2571336225913980
  0.5861168866579616  0.8242733808463309  0.5023115164174101
  0.9173102022580775  0.4990984249651510  0.5154408764918131
  0.7489219218827906  0.6660672192734669  0.7424764227075710
  0.5857363970591514  0.8320302519032000  0.9979677153435298
  0.9196412658414758  0.4911473128083994  0.9838121940643482
  0.9167492290117326  0.8396241455070056  0.4850101283024534
  0.9178492371089216  0.8470147975834846  0.0170329469346583
  0.0114615724478147  0.1668274006661909  0.1204165581892548
  0.9996092711719894  0.1629339589341894  0.6251151475538724
  0.0074270107392925  0.4930391065941282  0.1227269247877112
  0.3254013759504465  0.1614708996128867  0.1245118962901590
  0.1770537873342298  0.3352653399223909  0.3789184357129303
  0.9904718708579140  0.4972515303569108  0.6299128491644989
  0.3437255859992597  0.1537718681657218  0.6215167496533260
  0.1653028868206373  0.3272332434032165  0.8862502194364126
  0.0002529055606661  0.8449633617561070  0.1272616695717881
  0.3284946537177178  0.4956337588818261  0.1233685016628913
  0.1728414437268075  0.6637388961717891  0.3726747472100617
  0.0042998582382998  0.8409452533440830  0.6175878331636091
  0.6616682254347097  0.1785717843799385  0.1316700253728215
  0.4898911219708195  0.3318754548342246  0.3741785110252817
  0.3402327927859101  0.4928885203291342  0.6171109895475707
  0.1684276261195994  0.6719532775047893  0.8767500401123864
  0.6554878184155549  0.1758541609880357  0.6228675575404498
  0.5102648884874436  0.3338164103131030  0.8773960447923164
  0.3317315480757541  0.8386565973768993  0.1234995938713312
  0.1689743082803906  0.0100226548911473  0.3733108055275324
  0.6602469267952312  0.4929647877158002  0.1289825156794790
  0.4971916735309037  0.6685174033526587  0.3750297503114589
  0.3316544142053686  0.8394982295416601  0.6207306719198921
  0.1661468435367681  0.0003632494382444  0.8817816966694558
  0.8249422749119766  0.3287800991673277  0.3780314209758704
  0.6709338954077890  0.4913860377915811  0.6203090328673602
  0.4996880434163180  0.6533460231861397  0.8776626401510847
  0.8220885982286829  0.3443267232328244  0.8785578200340382
  0.6694432419882128  0.8280609297144323  0.1261686877942448
  0.4924855440290598  0.0060181676418835  0.3751482268158046
  0.8259807772121589  0.6728006294911247  0.3764028605297839
  0.6652003217315257  0.8297462091826918  0.6239009112624331
  0.4831479720514064  0.0131499930797259  0.8761403124677491
  0.8312730682585279  0.6539364193838536  0.8747670114144601
  0.8386020171817253  0.9972212874597658  0.3802380557986842
  0.8488563309369811  0.0013857094014903  0.8734398789750685
  0.0120941616801345  0.0796378168700933  0.2516575883549405
  0.9995689801920774  0.0806923192459048  0.7498475181719277
  0.0149141604746617  0.4150354001966267  0.2399535284561721
  0.3303913346698214  0.0877806484337755  0.2703087482372605
  0.1744298078874782  0.2498910667812838  0.4958462362609522
  0.9971226176325454  0.4157503689891242  0.7586375016215082
  0.3433939801357865  0.0891937847900656  0.7222578414885003
  0.1651363918149548  0.2518544918381225 -0.0002650612818390
  0.0007900333596512  0.7566686124650979  0.2559719885642560
  0.3318681518361185  0.4171371834701665  0.2657140884248224
  0.1837083611574079  0.5824965001254612  0.4863605814832133
  0.0035338482973781  0.7515094080098935  0.7459054628706219
  0.6571845281682269  0.0881163028577376  0.2556303644874307
  0.4906140279892462  0.2429543458869451  0.4952082827960933
  0.3368906236214791  0.4154275396985413  0.7363569553850662
  0.1688510701151101  0.5837628903605300  0.0162842376477259
  0.6584766229218219  0.0862478421007961  0.7521585449419167
  0.5078332041236634  0.2462014674268798  0.0117818236969477
  0.3296885795270337  0.7480792677532518  0.2608979409620011
  0.1658270681599930  0.9167852752905351  0.4848170067871536
  0.6458074367576128  0.4116637121693542  0.2594532905215537
  0.5001294259824941  0.5829043956943958  0.4903548266958795
  0.3274204099895324  0.7466426147954821  0.7432836560707685
  0.1623195762026196  0.9167308055812776  0.0090679651945512
  0.8274003398304612  0.2539316284020819  0.4925228117360865
  0.6710769086502222  0.4142158356535380  0.7381404099608520
  0.4989284895362224  0.5840140541298767  0.9983250152342534
  0.8281672669564311  0.2535935776816213  0.0061447699108815
  0.6678919000281300  0.7498455501524203  0.2509342523606596
  0.4906792427207416  0.9184913283544963  0.5007887622739211
  0.8177168136546514  0.5811926388341081  0.5137518739544898
  0.6709620682678593  0.7470270550897875  0.7484364302937849
  0.4969929789872620  0.9184294893287825  0.0008573463821345
  0.8330238672110264  0.5813453418535234  0.9903562357036001
  0.8389782414301219  0.9165932158616048  0.4913064491630494
  0.8432177167518993  0.9144935376428933  0.0050355584006605
 
  0.00000000E+00  0.00000000E+00  0.00000000E+00
  0.00000000E+00  0.00000000E+00  0.00000000E+00
  0.00000000E+00  0.00000000E+00  0.00000000E+00
  0.00000000E+00  0.00000000E+00  0.00000000E+00
  0.00000000E+00  0.00000000E+00  0.00000000E+00
  0.00000000E+00  0.00000000E+00  0.00000000E+00
  0.00000000E+00  0.00000000E+00  0.00000000E+00
  0.00000000E+00  0.00000000E+00  0.00000000E+00
  0.00000000E+00  0.00000000E+00  0.00000000E+00
  0.00000000E+00  0.00000000E+00  0.00000000E+00
  0.00000000E+00  0.00000000E+00  0.00000000E+00
  0.00000000E+00  0.00000000E+00  0.00000000E+00
  0.00000000E+00  0.00000000E+00  0.00000000E+00
  0.00000000E+00  0.00000000E+00  0.00000000E+00
  0.00000000E+00  0.00000000E+00  0.00000000E+00
  0.00000000E+00  0.00000000E+00  0.00000000E+00
  0.00000000E+00  0.00000000E+00  0.00000000E+00
  0.00000000E+00  0.00000000E+00  0.00000000E+00
  0.00000000E+00  0.00000000E+00  0.00000000E+00
  0.00000000E+00  0.00000000E+00  0.00000000E+00
  0.00000000E+00  0.00000000E+00  0.00000000E+00
  0.00000000E+00  0.00000000E+00  0.00000000E+00
  0.00000000E+00  0.00000000E+00  0.00000000E+00
  0.00000000E+00  0.00000000E+00  0.00000000E+00
  0.00000000E+00  0.00000000E+00  0.00000000E+00
  0.00000000E+00  0.00000000E+00  0.00000000E+00
  0.00000000E+00  0.00000000E+00  0.00000000E+00
  0.00000000E+00  0.00000000E+00  0.00000000E+00
  0.00000000E+00  0.00000000E+00  0.00000000E+00
  0.00000000E+00  0.00000000E+00  0.00000000E+00
  0.00000000E+00  0.00000000E+00  0.00000000E+00
  0.00000000E+00  0.00000000E+00  0.00000000E+00
  0.00000000E+00  0.00000000E+00  0.00000000E+00
  0.00000000E+00  0.00000000E+00  0.00000000E+00
  0.00000000E+00  0.00000000E+00  0.00000000E+00
  0.00000000E+00  0.00000000E+00  0.00000000E+00
  0.00000000E+00  0.00000000E+00  0.00000000E+00
  0.00000000E+00  0.00000000E+00  0.00000000E+00
  0.00000000E+00  0.00000000E+00  0.00000000E+00
  0.00000000E+00  0.00000000E+00  0.00000000E+00
  0.00000000E+00  0.00000000E+00  0.00000000E+00
  0.00000000E+00  0.00000000E+00  0.00000000E+00
  0.00000000E+00  0.00000000E+00  0.00000000E+00
  0.00000000E+00  0.00000000E+00  0.00000000E+00
  0.00000000E+00  0.00000000E+00  0.00000000E+00
  0.00000000E+00  0.00000000E+00  0.00000000E+00
  0.00000000E+00  0.00000000E+00  0.00000000E+00
  0.00000000E+00  0.00000000E+00  0.00000000E+00
  0.00000000E+00  0.00000000E+00  0.00000000E+00
  0.00000000E+00  0.00000000E+00  0.00000000E+00
  0.00000000E+00  0.00000000E+00  0.00000000E+00
  0.00000000E+00  0.00000000E+00  0.00000000E+00
  0.00000000E+00  0.00000000E+00  0.00000000E+00
  0.00000000E+00  0.00000000E+00  0.00000000E+00
  0.00000000E+00  0.00000000E+00  0.00000000E+00
  0.00000000E+00  0.00000000E+00  0.00000000E+00
  0.00000000E+00  0.00000000E+00  0.00000000E+00
  0.00000000E+00  0.00000000E+00  0.00000000E+00
  0.00000000E+00  0.00000000E+00  0.00000000E+00
  0.00000000E+00  0.00000000E+00  0.00000000E+00
  0.00000000E+00  0.00000000E+00  0.00000000E+00
  0.00000000E+00  0.00000000E+00  0.00000000E+00
  0.00000000E+00  0.00000000E+00  0.00000000E+00
  0.00000000E+00  0.00000000E+00  0.00000000E+00
  0.00000000E+00  0.00000000E+00  0.00000000E+00
  0.00000000E+00  0.00000000E+00  0.00000000E+00
  0.00000000E+00  0.00000000E+00  0.00000000E+00
  0.00000000E+00  0.00000000E+00  0.00000000E+00
  0.00000000E+00  0.00000000E+00  0.00000000E+00
  0.00000000E+00  0.00000000E+00  0.00000000E+00
  0.00000000E+00  0.00000000E+00  0.00000000E+00
  0.00000000E+00  0.00000000E+00  0.00000000E+00
  0.00000000E+00  0.00000000E+00  0.00000000E+00
  0.00000000E+00  0.00000000E+00  0.00000000E+00
  0.00000000E+00  0.00000000E+00  0.00000000E+00
  0.00000000E+00  0.00000000E+00  0.00000000E+00
  0.00000000E+00  0.00000000E+00  0.00000000E+00
  0.00000000E+00  0.00000000E+00  0.00000000E+00
  0.00000000E+00  0.00000000E+00  0.00000000E+00
  0.00000000E+00  0.00000000E+00  0.00000000E+00
  0.00000000E+00  0.00000000E+00  0.00000000E+00
  0.00000000E+00  0.00000000E+00  0.00000000E+00
  0.00000000E+00  0.00000000E+00  0.00000000E+00
  0.00000000E+00  0.00000000E+00  0.00000000E+00
  0.00000000E+00  0.00000000E+00  0.00000000E+00
  0.00000000E+00  0.00000000E+00  0.00000000E+00
  0.00000000E+00  0.00000000E+00  0.00000000E+00
  0.00000000E+00  0.00000000E+00  0.00000000E+00
  0.00000000E+00  0.00000000E+00  0.00000000E+00
  0.00000000E+00  0.00000000E+00  0.00000000E+00
  0.00000000E+00  0.00000000E+00  0.00000000E+00
  0.00000000E+00  0.00000000E+00  0.00000000E+00
  0.00000000E+00  0.00000000E+00  0.00000000E+00
  0.00000000E+00  0.00000000E+00  0.00000000E+00
  0.00000000E+00  0.00000000E+00  0.00000000E+00
  0.00000000E+00  0.00000000E+00  0.00000000E+00
  0.00000000E+00  0.00000000E+00  0.00000000E+00
  0.00000000E+00  0.00000000E+00  0.00000000E+00
  0.00000000E+00  0.00000000E+00  0.00000000E+00
  0.00000000E+00  0.00000000E+00  0.00000000E+00
  0.00000000E+00  0.00000000E+00  0.00000000E+00
  0.00000000E+00  0.00000000E+00  0.00000000E+00
  0.00000000E+00  0.00000000E+00  0.00000000E+00
  0.00000000E+00  0.00000000E+00  0.00000000E+00
  0.00000000E+00  0.00000000E+00  0.00000000E+00
  0.00000000E+00  0.00000000E+00  0.00000000E+00
  0.00000000E+00  0.00000000E+00  0.00000000E+00
  0.00000000E+00  0.00000000E+00  0.00000000E+00
  0.00000000E+00  0.00000000E+00  0.00000000E+00
  0.00000000E+00  0.00000000E+00  0.00000000E+00
  0.00000000E+00  0.00000000E+00  0.00000000E+00
  0.00000000E+00  0.00000000E+00  0.00000000E+00
  0.00000000E+00  0.00000000E+00  0.00000000E+00
  0.00000000E+00  0.00000000E+00  0.00000000E+00
  0.00000000E+00  0.00000000E+00  0.00000000E+00
  0.00000000E+00  0.00000000E+00  0.00000000E+00
  0.00000000E+00  0.00000000E+00  0.00000000E+00
  0.00000000E+00  0.00000000E+00  0.00000000E+00
  0.00000000E+00  0.00000000E+00  0.00000000E+00
  0.00000000E+00  0.00000000E+00  0.00000000E+00
  0.00000000E+00  0.00000000E+00  0.00000000E+00
  0.00000000E+00  0.00000000E+00  0.00000000E+00
  0.00000000E+00  0.00000000E+00  0.00000000E+00
  0.00000000E+00  0.00000000E+00  0.00000000E+00
  0.00000000E+00  0.00000000E+00  0.00000000E+00
  0.00000000E+00  0.00000000E+00  0.00000000E+00
  0.00000000E+00  0.00000000E+00  0.00000000E+00
  0.00000000E+00  0.00000000E+00  0.00000000E+00
  0.00000000E+00  0.00000000E+00  0.00000000E+00
  0.00000000E+00  0.00000000E+00  0.00000000E+00
  0.00000000E+00  0.00000000E+00  0.00000000E+00
  0.00000000E+00  0.00000000E+00  0.00000000E+00
  0.00000000E+00  0.00000000E+00  0.00000000E+00
  0.00000000E+00  0.00000000E+00  0.00000000E+00
  0.00000000E+00  0.00000000E+00  0.00000000E+00
  0.00000000E+00  0.00000000E+00  0.00000000E+00
  0.00000000E+00  0.00000000E+00  0.00000000E+00
  0.00000000E+00  0.00000000E+00  0.00000000E+00
  0.00000000E+00  0.00000000E+00  0.00000000E+00
  0.00000000E+00  0.00000000E+00  0.00000000E+00
  0.00000000E+00  0.00000000E+00  0.00000000E+00
  0.00000000E+00  0.00000000E+00  0.00000000E+00
  0.00000000E+00  0.00000000E+00  0.00000000E+00
  0.00000000E+00  0.00000000E+00  0.00000000E+00
  0.00000000E+00  0.00000000E+00  0.00000000E+00
  0.00000000E+00  0.00000000E+00  0.00000000E+00
  0.00000000E+00  0.00000000E+00  0.00000000E+00
  0.00000000E+00  0.00000000E+00  0.00000000E+00
  0.00000000E+00  0.00000000E+00  0.00000000E+00
  0.00000000E+00  0.00000000E+00  0.00000000E+00
  0.00000000E+00  0.00000000E+00  0.00000000E+00
  0.00000000E+00  0.00000000E+00  0.00000000E+00
  0.00000000E+00  0.00000000E+00  0.00000000E+00
  0.00000000E+00  0.00000000E+00  0.00000000E+00
  0.00000000E+00  0.00000000E+00  0.00000000E+00
  0.00000000E+00  0.00000000E+00  0.00000000E+00
  0.00000000E+00  0.00000000E+00  0.00000000E+00
  0.00000000E+00  0.00000000E+00  0.00000000E+00
  0.00000000E+00  0.00000000E+00  0.00000000E+00
  0.00000000E+00  0.00000000E+00  0.00000000E+00
  0.00000000E+00  0.00000000E+00  0.00000000E+00
  0.00000000E+00  0.00000000E+00  0.00000000E+00
  0.00000000E+00  0.00000000E+00  0.00000000E+00
  0.00000000E+00  0.00000000E+00  0.00000000E+00
  0.00000000E+00  0.00000000E+00  0.00000000E+00
  0.00000000E+00  0.00000000E+00  0.00000000E+00
  0.00000000E+00  0.00000000E+00  0.00000000E+00
  0.00000000E+00  0.00000000E+00  0.00000000E+00
  0.00000000E+00  0.00000000E+00  0.00000000E+00
  0.00000000E+00  0.00000000E+00  0.00000000E+00
  0.00000000E+00  0.00000000E+00  0.00000000E+00
  0.00000000E+00  0.00000000E+00  0.00000000E+00
  0.00000000E+00  0.00000000E+00  0.00000000E+00
  0.00000000E+00  0.00000000E+00  0.00000000E+00
  0.00000000E+00  0.00000000E+00  0.00000000E+00
  0.00000000E+00  0.00000000E+00  0.00000000E+00
  0.00000000E+00  0.00000000E+00  0.00000000E+00
  0.00000000E+00  0.00000000E+00  0.00000000E+00
  0.00000000E+00  0.00000000E+00  0.00000000E+00
  0.00000000E+00  0.00000000E+00  0.00000000E+00
  0.00000000E+00  0.00000000E+00  0.00000000E+00
  0.00000000E+00  0.00000000E+00  0.00000000E+00
  0.00000000E+00  0.00000000E+00  0.00000000E+00
  0.00000000E+00  0.00000000E+00  0.00000000E+00
  0.00000000E+00  0.00000000E+00  0.00000000E+00
  0.00000000E+00  0.00000000E+00  0.00000000E+00
  0.00000000E+00  0.00000000E+00  0.00000000E+00
  0.00000000E+00  0.00000000E+00  0.00000000E+00
  0.00000000E+00  0.00000000E+00  0.00000000E+00
  0.00000000E+00  0.00000000E+00  0.00000000E+00
  0.00000000E+00  0.00000000E+00  0.00000000E+00
  0.00000000E+00  0.00000000E+00  0.00000000E+00
  0.00000000E+00  0.00000000E+00  0.00000000E+00
  0.00000000E+00  0.00000000E+00  0.00000000E+00
  0.00000000E+00  0.00000000E+00  0.00000000E+00
  0.00000000E+00  0.00000000E+00  0.00000000E+00
  0.00000000E+00  0.00000000E+00  0.00000000E+00
  0.00000000E+00  0.00000000E+00  0.00000000E+00
  0.00000000E+00  0.00000000E+00  0.00000000E+00
  0.00000000E+00  0.00000000E+00  0.00000000E+00
  0.00000000E+00  0.00000000E+00  0.00000000E+00
  0.00000000E+00  0.00000000E+00  0.00000000E+00
  0.00000000E+00  0.00000000E+00  0.00000000E+00
  0.00000000E+00  0.00000000E+00  0.00000000E+00
  0.00000000E+00  0.00000000E+00  0.00000000E+00
  0.00000000E+00  0.00000000E+00  0.00000000E+00
  0.00000000E+00  0.00000000E+00  0.00000000E+00
  0.00000000E+00  0.00000000E+00  0.00000000E+00
  0.00000000E+00  0.00000000E+00  0.00000000E+00
  0.00000000E+00  0.00000000E+00  0.00000000E+00
  0.00000000E+00  0.00000000E+00  0.00000000E+00
  0.00000000E+00  0.00000000E+00  0.00000000E+00
  0.00000000E+00  0.00000000E+00  0.00000000E+00
  0.00000000E+00  0.00000000E+00  0.00000000E+00
  0.00000000E+00  0.00000000E+00  0.00000000E+00
  0.00000000E+00  0.00000000E+00  0.00000000E+00
  0.00000000E+00  0.00000000E+00  0.00000000E+00
  0.00000000E+00  0.00000000E+00  0.00000000E+00
  0.00000000E+00  0.00000000E+00  0.00000000E+00
  0.00000000E+00  0.00000000E+00  0.00000000E+00
  0.00000000E+00  0.00000000E+00  0.00000000E+00
  0.00000000E+00  0.00000000E+00  0.00000000E+00
  0.00000000E+00  0.00000000E+00  0.00000000E+00
  0.00000000E+00  0.00000000E+00  0.00000000E+00
  0.00000000E+00  0.00000000E+00  0.00000000E+00
  0.00000000E+00  0.00000000E+00  0.00000000E+00
  0.00000000E+00  0.00000000E+00  0.00000000E+00
  0.00000000E+00  0.00000000E+00  0.00000000E+00
  0.00000000E+00  0.00000000E+00  0.00000000E+00
  0.00000000E+00  0.00000000E+00  0.00000000E+00
  0.00000000E+00  0.00000000E+00  0.00000000E+00
  0.00000000E+00  0.00000000E+00  0.00000000E+00
  0.00000000E+00  0.00000000E+00  0.00000000E+00
  0.00000000E+00  0.00000000E+00  0.00000000E+00
  0.00000000E+00  0.00000000E+00  0.00000000E+00
  0.00000000E+00  0.00000000E+00  0.00000000E+00
  0.00000000E+00  0.00000000E+00  0.00000000E+00
  0.00000000E+00  0.00000000E+00  0.00000000E+00
  0.00000000E+00  0.00000000E+00  0.00000000E+00
  0.00000000E+00  0.00000000E+00  0.00000000E+00
  0.00000000E+00  0.00000000E+00  0.00000000E+00
  0.00000000E+00  0.00000000E+00  0.00000000E+00
  0.00000000E+00  0.00000000E+00  0.00000000E+00
  0.00000000E+00  0.00000000E+00  0.00000000E+00
  0.00000000E+00  0.00000000E+00  0.00000000E+00
  0.00000000E+00  0.00000000E+00  0.00000000E+00
  0.00000000E+00  0.00000000E+00  0.00000000E+00
  0.00000000E+00  0.00000000E+00  0.00000000E+00
  0.00000000E+00  0.00000000E+00  0.00000000E+00
  0.00000000E+00  0.00000000E+00  0.00000000E+00
  0.00000000E+00  0.00000000E+00  0.00000000E+00
  0.00000000E+00  0.00000000E+00  0.00000000E+00
