POSCAR                                  
   1.00000000000000     
    10.0299286823731482   -0.0080409963468346   -0.0001286381340209
    -0.0080445239588527   10.0254316737707256   -0.0124450257483051
    -0.0001012669195208   -0.0082560178747282    6.6407826739109641
   Na   Zr   Mg   Ca   H 
     9     9     9     9   216
Direct
  0.1686785158024434  0.1718461679167694  0.2516583486635642
  0.1702404574479862  0.4981570110770487  0.2503243080200264
  0.4952829093669285  0.1664716491315419  0.2522764602832600
  0.4993496844036189  0.1723787929936529  0.7542353159534392
  0.6643602006051741  0.3358950809605764  0.0072546813209651
  0.3312194146269804  0.9982647163928350  0.4955294038943947
  0.9988992018207620  0.3284794762305588  0.0010215839043931
  0.8327138997424802  0.8351898298875846  0.2508283507609945
  0.0044268603253198  0.0040457696770799  0.0003585973896971
  0.1738911827277914  0.1597915308494859  0.7490786336547107
  0.1714424065123825  0.4993615351067844  0.7513988001991844
  0.8270349788337167  0.1750865450210002  0.7506357260450865
  0.8333912938968140  0.4970170194288571  0.2489661503070175
  0.4927570302367064  0.8336429370296408  0.7481012315244718
  0.0033471503818534  0.6678632862328140  0.4945080364411304
  0.8369727700394424  0.8317190158679393  0.7482577127488026
  0.6673747578703381  0.0044288482292249  0.0083939234862436
  0.0027658172136698  0.6710536529948692  0.0078270044754119
  0.3331382606709721  0.3303049119994050  0.4978732438968005
  0.1671806508013502  0.8365893453162800  0.2487980546305832
  0.4910240970370151  0.4969890571527581  0.2467978684648255
  0.3375705170038992  0.6657842832623616  0.4982539089578132
  0.6648397690229055  0.3303468322628710  0.4946715584809878
  0.6626122657833098  0.6657402097388125  0.4966093115754270
  0.3253356382478058  0.0012169695179344  0.0026606344130256
  0.8287102103845498  0.4976536042757910  0.7515194024234763
  0.0049345202155545  0.0036638275696819  0.4962157120351134
  0.3390938298674475  0.3276349698783710  0.9995726966300204
  0.1681100236183046  0.8389912812788205  0.7479945355753971
  0.8361377783006253  0.1654623591291794  0.2502806132960040
  0.5069423184029632  0.4929806650396421  0.7404020815936894
  0.3356139197475054  0.6661531663499849  0.0061954762350731
  0.4996323881313727  0.8356518639971759  0.2517296467821414
  0.0010918419845464  0.3315113980923392  0.4995033437805922
  0.6638257283037171  0.6590605919096186  0.0003517206031731
  0.6597901684293724  0.0023895930203005  0.4993671266469201
  0.1657893730973854  0.0836297917001749  0.0142882564891055
  0.1727303084433728  0.0798316492748585  0.4733757641715091
  0.1582328589696055  0.4171342592337918  0.0011792026317358
  0.4970168893593068  0.0831336021550110  0.9980938396955130
  0.3381979500123235  0.2538760843028200  0.2616796099910806
  0.1742013891811505  0.4155887736251208  0.4901134457406807
  0.4894263523415490  0.0814371560219871  0.5137999259211388
  0.3375049879255311  0.2517626128604354  0.7377343084905584
  0.1714010204429696  0.7544474102432499  0.0059435069747869
  0.5055123419664750  0.4123534200001615  0.0037261038656886
  0.3348317481211354  0.5819299896117626  0.2675002081063775
  0.1832900481577149  0.7533233232979569  0.4940837196470607
  0.8407276643472928  0.0822915170374399  0.9986560705171643
  0.6560221139106089  0.2500229130801588  0.2428662386301418
  0.5046416916902441  0.4155599416664412  0.4820475984267896
  0.3407171137123868  0.5812874270293923  0.7374307603198751
  0.8360468171392016  0.0804326323086897  0.5021970350609926
  0.6604951114312667  0.2521205227017705  0.7642581903587964
  0.5011600295488583  0.7503465777942500  0.0035370224265846
  0.3211587255459929  0.9166025959050922  0.2639878614170064
  0.8371215244690550  0.4164506824626956  0.9928568928186428
  0.6501259025843048  0.5816600259174508  0.2642546080549282
  0.4979546519655090  0.7488357652438166  0.4928640124322691
  0.3282492341877173  0.9226398073277774  0.7377508695916870
  0.0098972149839521  0.2530394617896530  0.2442210747376463
  0.8236109710350126  0.4179756936398253  0.5147615060913763
  0.6705022125959965  0.5817633242411601  0.7310059457674737
  0.0060179047528278  0.2499797702123222  0.7594060126170189
  0.8296178011971057  0.7495769287090231  0.0112481457898429
  0.6739167826226055  0.9153968857151317  0.2539372323099393
  0.0111048680202890  0.5814788946226706  0.2501885652146272
  0.8262887554036453  0.7482901622320618  0.4889195447917663
  0.6683538310013649  0.9173324533760926  0.7488241943315530
  0.9950494655057250  0.5826144526085173  0.7513253758704667
  0.0082480313448895  0.9165644052253532  0.2580400893600531
  0.0012420770352077  0.9195332464883411  0.7392306624031878
  0.0820477432072506  0.1645734290008214  0.0168249589618121
  0.0825212723502619  0.1652230304491089  0.4890617037368118
  0.0843691084379904  0.4893299862619690  0.0082494182279940
  0.4172930497684386  0.1565029111716355  0.9985041046248969
  0.2398865949849626  0.3337934453244140  0.2396497028156569
  0.0856389099832743  0.4986704884719838  0.4927714121299797
  0.4190126055374903  0.1812159495454240  0.5021555089155443
  0.2501585981286386  0.3310173825997849  0.7479510003504312
  0.0848847764312006  0.8486295638711683  0.0060153376758404
  0.4157954712046051  0.4950493450263503  0.9926466574551741
  0.2509732051477916  0.6726942818162115  0.2589008095888770
  0.0850986434673482  0.8349337100363926  0.4891111613646960
  0.7477332611505255  0.1751260179740010  0.0062512858695307
  0.5853760060226804  0.3372726935917841  0.2603626422836527
  0.4147075843497965  0.4958442428859322  0.4951995660803137
  0.2530213091229946  0.6728316397026529  0.7428253722818200
  0.7469544063205452  0.1674769638124101  0.4950921632906827
  0.5831806521954096  0.3282382012993203  0.7416298639947402
  0.4119873008433705  0.8457593476427128  0.0098427622470789
  0.2489621523636049  0.9975421782937767  0.2445194660423443
  0.7467142819123653  0.4942229485397692  0.9951096155817827
  0.5837645664056801  0.6536066339636919  0.2598772913404069
  0.4106798079775738  0.8303650886856778  0.4935025585817191
  0.2582698129482131  0.9964354065616692  0.7486816895103796
  0.9167060835668733  0.3307833809741728  0.2431924249924453
  0.7475872239523635  0.5052273572180253  0.4986687847363673
  0.5843116053699970  0.6667240801779473  0.7345652005117244
  0.9185169438181284  0.3382185835466658  0.7556192152105708
  0.7526155572673607  0.8296315392141449  0.0048502495180615
  0.5784868575164325  0.0102987691814806  0.2496869216381054
  0.9116724228415324  0.6746038390503885  0.2534786394061535
  0.7507122569411823  0.8311163885379600  0.4949886073471833
  0.5808285720468921  0.0043669465266835  0.7576568380376227
  0.9157546300052676  0.6540684510435275  0.7464059089779758
  0.9160677058567861  0.9985148469878827  0.2389359219348896
  0.9177656086827891  0.0070308403523376  0.7594709236543777
  0.1658949564200348  0.0076333098122389  0.1337208201047377
  0.1661464748127184  0.9994618180268745  0.6162126036478792
  0.1763261239817475  0.3326250962074438  0.1314810541013134
  0.4776471460623618  0.0056436708397993  0.1282542298600135
  0.3289040653665748  0.1529923527448588  0.3668652488101120
  0.1736714602389660  0.3304221364894238  0.6230971776051195
  0.4888957095312794  0.0217104937707569  0.6196348416394806
  0.3403910296814369  0.1564717579359606  0.8775539111528464
  0.1714502778829385  0.6631960586149569  0.1313215401572791
  0.4976744526937453  0.3352456244624445  0.1277540919650830
  0.3311109104706495  0.4850675379498170  0.3688950355820231
  0.1714834121171424  0.6692586966676111  0.6219235293924726
  0.8545012707578618  0.9968901981176418  0.1330750778188221
  0.6620960895271845  0.1684186785466708  0.3742491890394632
  0.5104843456050583  0.3275198366103588  0.6226790216159921
  0.3442675870157905  0.4971041259395481  0.8766577953383329
  0.8354462306128440  0.0033819974240056  0.6234434300068393
  0.6576240532407991  0.1799628351548908  0.8790658137977536
  0.4989555929830239  0.6571559978488155  0.1284704144079729
  0.3322756254709207  0.8442035307492332  0.3659825425481849
  0.8344506561707461  0.3306437973528338  0.1221475496657993
  0.6690759001036817  0.4984429122570254  0.3751857007621541
  0.5002741597689258  0.6599254466956811  0.6201977835220912
  0.3296585956681219  0.8399891811016946  0.8800695406477355
  0.0080643471320282  0.1613077929437201  0.3753160616427894
  0.8198821384209007  0.3439357769429043  0.6238943654608171
  0.6737298476992680  0.4904766935195259  0.8762534078590932
  0.0025771898983589  0.1674507270846934  0.8762239940930483
  0.8304877937962230  0.6728303569513332  0.1278797949970107
  0.6699493416053697  0.8294906389936059  0.3745519245158951
  0.0081564731724760  0.4965909246208195  0.3730943328690157
  0.8292301588554696  0.6565526764673070  0.6238727828412436
  0.6637609228578744  0.8283863679303055  0.8749302505478169
  0.9907238599723901  0.4955737788985680  0.8780900819849201
  0.9978595098312780  0.8497238880624701  0.3656460956319547
  0.0048361108071466  0.8412006693323519  0.8793846705378764
  0.0818014356340409  0.0117561665835352  0.2404274173525482
  0.0807474466827474  0.0022889695495049  0.7545012124805415
  0.0767825827813090  0.3322683115933120  0.2437659702748025
  0.4144395178525612  0.0060225454427437  0.2296595028147803
  0.2519164070214664  0.1656707808510272  0.4881365009375708
  0.0803412026014613  0.3330542404952609  0.7595432033627764
  0.4197994459596007  0.0072242096626280  0.7681501089680454
  0.2549981910936471  0.1611222765058614  0.0290978946209553
  0.0899169805439399  0.6663504128513266  0.2539466367665658
  0.4171597170927493  0.3212927058771752  0.2644902574211448
  0.2501242150995990  0.5088646694322743  0.4877429688706257
  0.0855591636031047  0.6684811089161373  0.7497024675865459
  0.7503853425535485  0.9952894604951312  0.2555580536195587
  0.5817953772785174  0.1796463154573152  0.5028673301278356
  0.4175742436966258  0.3273017891344306  0.7281110801496592
  0.2534887096514413  0.4973770286506919  0.0190731057451173
  0.7489916578531759  0.9978357171583194  0.7466856608368331
  0.5778733193851976  0.1755459444575339  0.0023548343951531
  0.4171191433427408  0.6649381204622677  0.2651470302071896
  0.2469096161078487  0.8272515154824330  0.4898049695056589
  0.7494218964952215  0.3350746116141547  0.2477703135279325
  0.5806887221272002  0.4879622466117103  0.4825087041780339
  0.4168575780442306  0.6597049723342571  0.7358952258212738
  0.2484150134694473  0.8364270845015921  0.0104625962865154
  0.9178674107164455  0.1618588715053236  0.5031788423765072
  0.7481800854171080  0.3412132961687966  0.7642421287761458
  0.5814609649930208  0.4912182175892636  0.0096679029050545
  0.9204261559438727  0.1632579966374602  0.9951192861204647
  0.7483957288658925  0.6665323399493548  0.2565896917986633
  0.5862468902159195  0.8241145674088224  0.5026552848545206
  0.9174017657863979  0.4988208041751314  0.5153995649263126
  0.7489213319071463  0.6659868090768595  0.7428597247486479
  0.5857459733904899  0.8322302681959979  0.9977385090917964
  0.9196926538464127  0.4908583921124149  0.9836950381667114
  0.9169283055215760  0.8396166260805579  0.4850797721534272
  0.9177518705912138  0.8471638657529587  0.0173318497676625
  0.0115703136584149  0.1667842617604434  0.1204584300730152
  0.0000540560429079  0.1630344412176627  0.6248486928122574
  0.0075001323077194  0.4926448752838298  0.1226338878174848
  0.3252722668028515  0.1610713132293622  0.1244504270622918
  0.1773057010524069  0.3353703318900442  0.3781097844038504
  0.9900510930463760  0.4971589027048643  0.6300491975394098
  0.3436877146781134  0.1531602544889585  0.6216261523273028
  0.1649819913006371  0.3274671880975359  0.8854752962021781
 -0.0000390820618241  0.8448179429466237  0.1268668641550131
  0.3284416379829950  0.4953455152143827  0.1233269581562698
  0.1726026700561155  0.6642227211013665  0.3728165703478284
  0.0043099001420844  0.8405353157916812  0.6174286527709149
  0.6615046652972341  0.1783839653527647  0.1315231768313012
  0.4898179050200444  0.3321168096870792  0.3741624153690571
  0.3403024094822197  0.4934643797574843  0.6171042416727468
  0.1684739369865706  0.6718592470157826  0.8767864139098068
  0.6550052061774604  0.1761352529385163  0.6223854899467182
  0.5104049119960551  0.3334724114246038  0.8771643152297809
  0.3319334943091607  0.8385704168881227  0.1233780229388806
  0.1692063545816647  0.0105366586015590  0.3728949105096263
  0.6604054188633530  0.4929926862282748  0.1287979629953577
  0.4972920341427636  0.6684870843155115  0.3752843841715677
  0.3318986746323221  0.8401853209055341  0.6212715396072452
  0.1655454338635303  0.0004888520019689  0.8816872944723154
  0.8258070167892508  0.3290406627893074  0.3784721003720772
  0.6707630196983231  0.4914973217128805  0.6203966353533278
  0.4995975118421773  0.6533711837781727  0.8777743688891004
  0.8218840275409980  0.3443636422802178  0.8781387637684357
  0.6696189140046527  0.8286122790316945  0.1260040500780494
  0.4923319171818225  0.0059918420656166  0.3754757308076975
  0.8260680737896006  0.6726313723114861  0.3764591082519387
  0.6652426418160992  0.8297721016668244  0.6239669988760195
  0.4838501295681947  0.0129677430582489  0.8764243211615077
  0.8312136878853825  0.6538288531119019  0.8750480577212021
  0.8387633331324741  0.9973192842213088  0.3804229931698060
  0.8481964120038559  0.0013137926920939  0.8730913254810603
  0.0116814406339879  0.0796931197713020  0.2515295207300413
  0.9990994279240015  0.0805088411149791  0.7487200330830440
  0.0150168075707568  0.4149486775519978  0.2399960052845882
  0.3305147792123662  0.0876414499501468  0.2706375848046748
  0.1744371846131754  0.2496933762479996  0.4956425594963676
  0.9973256566615173  0.4157332300122124  0.7586004887941059
  0.3435986519459759  0.0889795633416119  0.7221837610999764
  0.1653709270095739  0.2520723835009436  0.0005367277094459
  0.0010058075422677  0.7566531586689521  0.2560903659832452
  0.3316822523337565  0.4172592320383613  0.2645703409208493
  0.1844329093066825  0.5824944709631622  0.4864613668187814
  0.0037009497330810  0.7513539875864957  0.7458079575067588
  0.6574109732089424  0.0885261697215241  0.2563334508576675
  0.4901045253500787  0.2430946570408725  0.4953008435533802
  0.3368772526789039  0.4154223891977625  0.7365266396521856
  0.1689540137190976  0.5837055619078727  0.0163771682804225
  0.6589044028203636  0.0861445661673494  0.7524219131724265
  0.5075251885418932  0.2462994470667041  0.0120262967079605
  0.3299252614845815  0.7479970753848110  0.2610562599312241
  0.1651310460518139  0.9166987852975768  0.4846042907833206
  0.6450767125127821  0.4118976620162914  0.2587404089812968
  0.5004710741050646  0.5829343564949722  0.4906193804145966
  0.3276140251927357  0.7466473623720760  0.7430507718344054
  0.1619697678395414  0.9167319674229143  0.0088812865049323
  0.8277179850732538  0.2540985455385944  0.4924443182078097
  0.6710395297894323  0.4142985049000923  0.7380682884488713
  0.4988738025206766  0.5838365348730896  0.9980386727284832
  0.8280569645404127  0.2537580318388791  0.0061868794330656
  0.6679372999413427  0.7496713349489551  0.2516054680511782
  0.4908063015028802  0.9185075258411235  0.5007643588580269
  0.8175867154856185  0.5810870449919338  0.5136613691655832
  0.6708495899987222  0.7470831996941952  0.7485220282561269
  0.4968346365984741  0.9185361319898480  0.0012253678284275
  0.8329192558938731  0.5814367258596511  0.9907672157936432
  0.8392498793951533  0.9165591494699322  0.4914514553775035
  0.8431467822682135  0.9144670459874159  0.0052669769020140
 
  0.00000000E+00  0.00000000E+00  0.00000000E+00
  0.00000000E+00  0.00000000E+00  0.00000000E+00
  0.00000000E+00  0.00000000E+00  0.00000000E+00
  0.00000000E+00  0.00000000E+00  0.00000000E+00
  0.00000000E+00  0.00000000E+00  0.00000000E+00
  0.00000000E+00  0.00000000E+00  0.00000000E+00
  0.00000000E+00  0.00000000E+00  0.00000000E+00
  0.00000000E+00  0.00000000E+00  0.00000000E+00
  0.00000000E+00  0.00000000E+00  0.00000000E+00
  0.00000000E+00  0.00000000E+00  0.00000000E+00
  0.00000000E+00  0.00000000E+00  0.00000000E+00
  0.00000000E+00  0.00000000E+00  0.00000000E+00
  0.00000000E+00  0.00000000E+00  0.00000000E+00
  0.00000000E+00  0.00000000E+00  0.00000000E+00
  0.00000000E+00  0.00000000E+00  0.00000000E+00
  0.00000000E+00  0.00000000E+00  0.00000000E+00
  0.00000000E+00  0.00000000E+00  0.00000000E+00
  0.00000000E+00  0.00000000E+00  0.00000000E+00
  0.00000000E+00  0.00000000E+00  0.00000000E+00
  0.00000000E+00  0.00000000E+00  0.00000000E+00
  0.00000000E+00  0.00000000E+00  0.00000000E+00
  0.00000000E+00  0.00000000E+00  0.00000000E+00
  0.00000000E+00  0.00000000E+00  0.00000000E+00
  0.00000000E+00  0.00000000E+00  0.00000000E+00
  0.00000000E+00  0.00000000E+00  0.00000000E+00
  0.00000000E+00  0.00000000E+00  0.00000000E+00
  0.00000000E+00  0.00000000E+00  0.00000000E+00
  0.00000000E+00  0.00000000E+00  0.00000000E+00
  0.00000000E+00  0.00000000E+00  0.00000000E+00
  0.00000000E+00  0.00000000E+00  0.00000000E+00
  0.00000000E+00  0.00000000E+00  0.00000000E+00
  0.00000000E+00  0.00000000E+00  0.00000000E+00
  0.00000000E+00  0.00000000E+00  0.00000000E+00
  0.00000000E+00  0.00000000E+00  0.00000000E+00
  0.00000000E+00  0.00000000E+00  0.00000000E+00
  0.00000000E+00  0.00000000E+00  0.00000000E+00
  0.00000000E+00  0.00000000E+00  0.00000000E+00
  0.00000000E+00  0.00000000E+00  0.00000000E+00
  0.00000000E+00  0.00000000E+00  0.00000000E+00
  0.00000000E+00  0.00000000E+00  0.00000000E+00
  0.00000000E+00  0.00000000E+00  0.00000000E+00
  0.00000000E+00  0.00000000E+00  0.00000000E+00
  0.00000000E+00  0.00000000E+00  0.00000000E+00
  0.00000000E+00  0.00000000E+00  0.00000000E+00
  0.00000000E+00  0.00000000E+00  0.00000000E+00
  0.00000000E+00  0.00000000E+00  0.00000000E+00
  0.00000000E+00  0.00000000E+00  0.00000000E+00
  0.00000000E+00  0.00000000E+00  0.00000000E+00
  0.00000000E+00  0.00000000E+00  0.00000000E+00
  0.00000000E+00  0.00000000E+00  0.00000000E+00
  0.00000000E+00  0.00000000E+00  0.00000000E+00
  0.00000000E+00  0.00000000E+00  0.00000000E+00
  0.00000000E+00  0.00000000E+00  0.00000000E+00
  0.00000000E+00  0.00000000E+00  0.00000000E+00
  0.00000000E+00  0.00000000E+00  0.00000000E+00
  0.00000000E+00  0.00000000E+00  0.00000000E+00
  0.00000000E+00  0.00000000E+00  0.00000000E+00
  0.00000000E+00  0.00000000E+00  0.00000000E+00
  0.00000000E+00  0.00000000E+00  0.00000000E+00
  0.00000000E+00  0.00000000E+00  0.00000000E+00
  0.00000000E+00  0.00000000E+00  0.00000000E+00
  0.00000000E+00  0.00000000E+00  0.00000000E+00
  0.00000000E+00  0.00000000E+00  0.00000000E+00
  0.00000000E+00  0.00000000E+00  0.00000000E+00
  0.00000000E+00  0.00000000E+00  0.00000000E+00
  0.00000000E+00  0.00000000E+00  0.00000000E+00
  0.00000000E+00  0.00000000E+00  0.00000000E+00
  0.00000000E+00  0.00000000E+00  0.00000000E+00
  0.00000000E+00  0.00000000E+00  0.00000000E+00
  0.00000000E+00  0.00000000E+00  0.00000000E+00
  0.00000000E+00  0.00000000E+00  0.00000000E+00
  0.00000000E+00  0.00000000E+00  0.00000000E+00
  0.00000000E+00  0.00000000E+00  0.00000000E+00
  0.00000000E+00  0.00000000E+00  0.00000000E+00
  0.00000000E+00  0.00000000E+00  0.00000000E+00
  0.00000000E+00  0.00000000E+00  0.00000000E+00
  0.00000000E+00  0.00000000E+00  0.00000000E+00
  0.00000000E+00  0.00000000E+00  0.00000000E+00
  0.00000000E+00  0.00000000E+00  0.00000000E+00
  0.00000000E+00  0.00000000E+00  0.00000000E+00
  0.00000000E+00  0.00000000E+00  0.00000000E+00
  0.00000000E+00  0.00000000E+00  0.00000000E+00
  0.00000000E+00  0.00000000E+00  0.00000000E+00
  0.00000000E+00  0.00000000E+00  0.00000000E+00
  0.00000000E+00  0.00000000E+00  0.00000000E+00
  0.00000000E+00  0.00000000E+00  0.00000000E+00
  0.00000000E+00  0.00000000E+00  0.00000000E+00
  0.00000000E+00  0.00000000E+00  0.00000000E+00
  0.00000000E+00  0.00000000E+00  0.00000000E+00
  0.00000000E+00  0.00000000E+00  0.00000000E+00
  0.00000000E+00  0.00000000E+00  0.00000000E+00
  0.00000000E+00  0.00000000E+00  0.00000000E+00
  0.00000000E+00  0.00000000E+00  0.00000000E+00
  0.00000000E+00  0.00000000E+00  0.00000000E+00
  0.00000000E+00  0.00000000E+00  0.00000000E+00
  0.00000000E+00  0.00000000E+00  0.00000000E+00
  0.00000000E+00  0.00000000E+00  0.00000000E+00
  0.00000000E+00  0.00000000E+00  0.00000000E+00
  0.00000000E+00  0.00000000E+00  0.00000000E+00
  0.00000000E+00  0.00000000E+00  0.00000000E+00
  0.00000000E+00  0.00000000E+00  0.00000000E+00
  0.00000000E+00  0.00000000E+00  0.00000000E+00
  0.00000000E+00  0.00000000E+00  0.00000000E+00
  0.00000000E+00  0.00000000E+00  0.00000000E+00
  0.00000000E+00  0.00000000E+00  0.00000000E+00
  0.00000000E+00  0.00000000E+00  0.00000000E+00
  0.00000000E+00  0.00000000E+00  0.00000000E+00
  0.00000000E+00  0.00000000E+00  0.00000000E+00
  0.00000000E+00  0.00000000E+00  0.00000000E+00
  0.00000000E+00  0.00000000E+00  0.00000000E+00
  0.00000000E+00  0.00000000E+00  0.00000000E+00
  0.00000000E+00  0.00000000E+00  0.00000000E+00
  0.00000000E+00  0.00000000E+00  0.00000000E+00
  0.00000000E+00  0.00000000E+00  0.00000000E+00
  0.00000000E+00  0.00000000E+00  0.00000000E+00
  0.00000000E+00  0.00000000E+00  0.00000000E+00
  0.00000000E+00  0.00000000E+00  0.00000000E+00
  0.00000000E+00  0.00000000E+00  0.00000000E+00
  0.00000000E+00  0.00000000E+00  0.00000000E+00
  0.00000000E+00  0.00000000E+00  0.00000000E+00
  0.00000000E+00  0.00000000E+00  0.00000000E+00
  0.00000000E+00  0.00000000E+00  0.00000000E+00
  0.00000000E+00  0.00000000E+00  0.00000000E+00
  0.00000000E+00  0.00000000E+00  0.00000000E+00
  0.00000000E+00  0.00000000E+00  0.00000000E+00
  0.00000000E+00  0.00000000E+00  0.00000000E+00
  0.00000000E+00  0.00000000E+00  0.00000000E+00
  0.00000000E+00  0.00000000E+00  0.00000000E+00
  0.00000000E+00  0.00000000E+00  0.00000000E+00
  0.00000000E+00  0.00000000E+00  0.00000000E+00
  0.00000000E+00  0.00000000E+00  0.00000000E+00
  0.00000000E+00  0.00000000E+00  0.00000000E+00
  0.00000000E+00  0.00000000E+00  0.00000000E+00
  0.00000000E+00  0.00000000E+00  0.00000000E+00
  0.00000000E+00  0.00000000E+00  0.00000000E+00
  0.00000000E+00  0.00000000E+00  0.00000000E+00
  0.00000000E+00  0.00000000E+00  0.00000000E+00
  0.00000000E+00  0.00000000E+00  0.00000000E+00
  0.00000000E+00  0.00000000E+00  0.00000000E+00
  0.00000000E+00  0.00000000E+00  0.00000000E+00
  0.00000000E+00  0.00000000E+00  0.00000000E+00
  0.00000000E+00  0.00000000E+00  0.00000000E+00
  0.00000000E+00  0.00000000E+00  0.00000000E+00
  0.00000000E+00  0.00000000E+00  0.00000000E+00
  0.00000000E+00  0.00000000E+00  0.00000000E+00
  0.00000000E+00  0.00000000E+00  0.00000000E+00
  0.00000000E+00  0.00000000E+00  0.00000000E+00
  0.00000000E+00  0.00000000E+00  0.00000000E+00
  0.00000000E+00  0.00000000E+00  0.00000000E+00
  0.00000000E+00  0.00000000E+00  0.00000000E+00
  0.00000000E+00  0.00000000E+00  0.00000000E+00
  0.00000000E+00  0.00000000E+00  0.00000000E+00
  0.00000000E+00  0.00000000E+00  0.00000000E+00
  0.00000000E+00  0.00000000E+00  0.00000000E+00
  0.00000000E+00  0.00000000E+00  0.00000000E+00
  0.00000000E+00  0.00000000E+00  0.00000000E+00
  0.00000000E+00  0.00000000E+00  0.00000000E+00
  0.00000000E+00  0.00000000E+00  0.00000000E+00
  0.00000000E+00  0.00000000E+00  0.00000000E+00
  0.00000000E+00  0.00000000E+00  0.00000000E+00
  0.00000000E+00  0.00000000E+00  0.00000000E+00
  0.00000000E+00  0.00000000E+00  0.00000000E+00
  0.00000000E+00  0.00000000E+00  0.00000000E+00
  0.00000000E+00  0.00000000E+00  0.00000000E+00
  0.00000000E+00  0.00000000E+00  0.00000000E+00
  0.00000000E+00  0.00000000E+00  0.00000000E+00
  0.00000000E+00  0.00000000E+00  0.00000000E+00
  0.00000000E+00  0.00000000E+00  0.00000000E+00
  0.00000000E+00  0.00000000E+00  0.00000000E+00
  0.00000000E+00  0.00000000E+00  0.00000000E+00
  0.00000000E+00  0.00000000E+00  0.00000000E+00
  0.00000000E+00  0.00000000E+00  0.00000000E+00
  0.00000000E+00  0.00000000E+00  0.00000000E+00
  0.00000000E+00  0.00000000E+00  0.00000000E+00
  0.00000000E+00  0.00000000E+00  0.00000000E+00
  0.00000000E+00  0.00000000E+00  0.00000000E+00
  0.00000000E+00  0.00000000E+00  0.00000000E+00
  0.00000000E+00  0.00000000E+00  0.00000000E+00
  0.00000000E+00  0.00000000E+00  0.00000000E+00
  0.00000000E+00  0.00000000E+00  0.00000000E+00
  0.00000000E+00  0.00000000E+00  0.00000000E+00
  0.00000000E+00  0.00000000E+00  0.00000000E+00
  0.00000000E+00  0.00000000E+00  0.00000000E+00
  0.00000000E+00  0.00000000E+00  0.00000000E+00
  0.00000000E+00  0.00000000E+00  0.00000000E+00
  0.00000000E+00  0.00000000E+00  0.00000000E+00
  0.00000000E+00  0.00000000E+00  0.00000000E+00
  0.00000000E+00  0.00000000E+00  0.00000000E+00
  0.00000000E+00  0.00000000E+00  0.00000000E+00
  0.00000000E+00  0.00000000E+00  0.00000000E+00
  0.00000000E+00  0.00000000E+00  0.00000000E+00
  0.00000000E+00  0.00000000E+00  0.00000000E+00
  0.00000000E+00  0.00000000E+00  0.00000000E+00
  0.00000000E+00  0.00000000E+00  0.00000000E+00
  0.00000000E+00  0.00000000E+00  0.00000000E+00
  0.00000000E+00  0.00000000E+00  0.00000000E+00
  0.00000000E+00  0.00000000E+00  0.00000000E+00
  0.00000000E+00  0.00000000E+00  0.00000000E+00
  0.00000000E+00  0.00000000E+00  0.00000000E+00
  0.00000000E+00  0.00000000E+00  0.00000000E+00
  0.00000000E+00  0.00000000E+00  0.00000000E+00
  0.00000000E+00  0.00000000E+00  0.00000000E+00
  0.00000000E+00  0.00000000E+00  0.00000000E+00
  0.00000000E+00  0.00000000E+00  0.00000000E+00
  0.00000000E+00  0.00000000E+00  0.00000000E+00
  0.00000000E+00  0.00000000E+00  0.00000000E+00
  0.00000000E+00  0.00000000E+00  0.00000000E+00
  0.00000000E+00  0.00000000E+00  0.00000000E+00
  0.00000000E+00  0.00000000E+00  0.00000000E+00
  0.00000000E+00  0.00000000E+00  0.00000000E+00
  0.00000000E+00  0.00000000E+00  0.00000000E+00
  0.00000000E+00  0.00000000E+00  0.00000000E+00
  0.00000000E+00  0.00000000E+00  0.00000000E+00
  0.00000000E+00  0.00000000E+00  0.00000000E+00
  0.00000000E+00  0.00000000E+00  0.00000000E+00
  0.00000000E+00  0.00000000E+00  0.00000000E+00
  0.00000000E+00  0.00000000E+00  0.00000000E+00
  0.00000000E+00  0.00000000E+00  0.00000000E+00
  0.00000000E+00  0.00000000E+00  0.00000000E+00
  0.00000000E+00  0.00000000E+00  0.00000000E+00
  0.00000000E+00  0.00000000E+00  0.00000000E+00
  0.00000000E+00  0.00000000E+00  0.00000000E+00
  0.00000000E+00  0.00000000E+00  0.00000000E+00
  0.00000000E+00  0.00000000E+00  0.00000000E+00
  0.00000000E+00  0.00000000E+00  0.00000000E+00
  0.00000000E+00  0.00000000E+00  0.00000000E+00
  0.00000000E+00  0.00000000E+00  0.00000000E+00
  0.00000000E+00  0.00000000E+00  0.00000000E+00
  0.00000000E+00  0.00000000E+00  0.00000000E+00
  0.00000000E+00  0.00000000E+00  0.00000000E+00
  0.00000000E+00  0.00000000E+00  0.00000000E+00
  0.00000000E+00  0.00000000E+00  0.00000000E+00
  0.00000000E+00  0.00000000E+00  0.00000000E+00
  0.00000000E+00  0.00000000E+00  0.00000000E+00
  0.00000000E+00  0.00000000E+00  0.00000000E+00
  0.00000000E+00  0.00000000E+00  0.00000000E+00
  0.00000000E+00  0.00000000E+00  0.00000000E+00
  0.00000000E+00  0.00000000E+00  0.00000000E+00
  0.00000000E+00  0.00000000E+00  0.00000000E+00
  0.00000000E+00  0.00000000E+00  0.00000000E+00
  0.00000000E+00  0.00000000E+00  0.00000000E+00
  0.00000000E+00  0.00000000E+00  0.00000000E+00
  0.00000000E+00  0.00000000E+00  0.00000000E+00
  0.00000000E+00  0.00000000E+00  0.00000000E+00
  0.00000000E+00  0.00000000E+00  0.00000000E+00
  0.00000000E+00  0.00000000E+00  0.00000000E+00
  0.00000000E+00  0.00000000E+00  0.00000000E+00
  0.00000000E+00  0.00000000E+00  0.00000000E+00
  0.00000000E+00  0.00000000E+00  0.00000000E+00
  0.00000000E+00  0.00000000E+00  0.00000000E+00
  0.00000000E+00  0.00000000E+00  0.00000000E+00
  0.00000000E+00  0.00000000E+00  0.00000000E+00
