POSCAR                                  
   1.00000000000000     
    10.0179426354341174   -0.0057135679109704   -0.0004441233789602
    -0.0057119403960218   10.0222539683483909   -0.0107300197194182
    -0.0003121443717267   -0.0071222086535165    6.6378239222889208
   Na   Zr   Mg   Ca   H 
     9     9     9     9   216
Direct
  0.1680432193660267  0.1712812263609716  0.2521186281401143
  0.1695710903817114  0.4980938297325073  0.2503924354380136
  0.4953529557124356  0.1666142144564491  0.2518005857299694
  0.4992852059066458  0.1725024278373458  0.7536794366569731
  0.6643804396966491  0.3353577246532983  0.0050527003011178
  0.3331453242961703 -0.0009910822135867  0.4965193595248714
 -0.0000759028865946  0.3276033073803843  0.0007388153989445
  0.8317636185140477  0.8361166798240210  0.2513294385502853
  0.0052427325011634  0.0030036538873451 -0.0001660910431550
  0.1739860666436331  0.1599646617061055  0.7481294417573610
  0.1719375951366206  0.4983359241819064  0.7512153447570745
  0.8277734988856938  0.1745748412563799  0.7510290593145045
  0.8312762826817695  0.4946072031948625  0.2489515019100142
  0.4924630476212745  0.8348638797592060  0.7481464172284583
  0.0034611310296870  0.6674425388241160  0.4917626951725098
  0.8370017928642669  0.8311755006501513  0.7489589306915884
  0.6674180897241289  0.0058499132143109  0.0092128558108571
  0.0025471821151789  0.6696155262470689  0.0093150444713353
  0.3339735507388178  0.3298282338502910  0.4952973833271472
  0.1678528994353556  0.8366703282206798  0.2492107601858208
  0.4931778218713963  0.4972381975170729  0.2486305124115263
  0.3372688325689739  0.6663117880293574  0.4973688798269599
  0.6639079083591661  0.3307772487827298  0.4947522803022132
  0.6620964932839024  0.6662665463390266  0.4966889263942921
  0.3262849971249993  0.0024749478874526  0.0034136622640164
  0.8291292518592734  0.4979926626509311  0.7513343402822681
  0.0034813245001228  0.0028414817076246  0.4953723694675521
  0.3384570306739261  0.3288385932875258  0.0033945254801945
  0.1673590141224343  0.8389873172628785  0.7485244252423453
  0.8361632521180028  0.1656208333210548  0.2500453022718144
  0.5058734043690265  0.4928753056634573  0.7418383895081500
  0.3365340936844317  0.6659482897260887  0.0050935166126691
  0.4979640252468340  0.8356770165766425  0.2514540119229350
  0.0013191872710694  0.3305656881851702  0.4989070077521573
  0.6640095140381239  0.6599260592321012  0.0011989125325994
  0.6606589411476051  0.0018295608840465  0.4986983538524665
  0.1656205161264989  0.0820579321984838  0.0191461242664562
  0.1736242390890139  0.0818709947327206  0.4818802915418339
  0.1599890741238563  0.4152923879094942  0.0062731311266450
  0.4935038877518700  0.0833998352898372 -0.0024072270982954
  0.3360206091806091  0.2518368272120858  0.2602349804449067
  0.1734539758493162  0.4162337379054520  0.4916352705343671
  0.4905667888429024  0.0815242488363365  0.5114704805491329
  0.3390316479123792  0.2514960807426191  0.7400722269680690
  0.1723954053535507  0.7533430601898522  0.0046382237165428
  0.5042180033513396  0.4137323919241114  0.0077031149681291
  0.3341875348664083  0.5822871564427533  0.2642700762877895
  0.1814950118741666  0.7528237461721553  0.4938475288527971
  0.8435455312820104  0.0815459758428830  0.0005889467529494
  0.6566754427017458  0.2514272218464810  0.2457819389589279
  0.5020868712026842  0.4159480484417613  0.4843053400688647
  0.3401027957371382  0.5813598873031767  0.7345214510264103
  0.8354399014116287  0.0801076825653165  0.5015019611017558
  0.6604725259180574  0.2528802034905691  0.7602205275790526
  0.5016656301061466  0.7501889795957271  0.0034691969265396
  0.3225603846059005  0.9176988840272325  0.2572231992183077
  0.8380999298057934  0.4162993620259036 -0.0070233162159736
  0.6543491179827343  0.5830465353029143  0.2639229064228686
  0.4970023170386739  0.7481307364516900  0.4932560229091676
  0.3277137048597715  0.9233637207404560  0.7446792458134301
  0.0077195791906730  0.2530726436721935  0.2439782004242781
  0.8242156243101189  0.4184372266128417  0.5148914142203604
  0.6703396542344306  0.5815273244434614  0.7322320040771323
  0.0026224993730608  0.2511639078514745  0.7584639660011793
  0.8293138165586705  0.7501379092623710  0.0125127267876037
  0.6711048957522154  0.9136547735428188  0.2543986753010459
  0.0074785121063417  0.5796538239588988  0.2501743317323229
  0.8270373818928636  0.7478034393889639  0.4878264766447538
  0.6685255985841991  0.9175316237990733  0.7497449465724677
 -0.0052031882028474  0.5814515178663132  0.7515160696971787
  0.0101545122270647  0.9166624953894210  0.2551674271350109
  0.0004694018610818  0.9193842199293005  0.7414430788620899
  0.0811978912843613  0.1635300150233402  0.0123325175568806
  0.0811840128722287  0.1618849580056968  0.4888156433601845
  0.0834534391919239  0.4881527411148768  0.0084947724253192
  0.4182394586366175  0.1585047759098611  0.0005316193114821
  0.2441282784118042  0.3327001417640910  0.2514024596290861
  0.0846926923237094  0.4976639645522455  0.4928821817440696
  0.4185238940924295  0.1780062410301650  0.5023647688749294
  0.2499160072292303  0.3304437985712751  0.7465101583718657
  0.0850647096059821  0.8473675960130587  0.0067953464560331
  0.4174015166654053  0.4952689075311991  0.0000621188572038
  0.2504837757939068  0.6669851601626521  0.2580125087109365
  0.0841391523593868  0.8382123694129414  0.4908946294027373
  0.7474880867760281  0.1752685773535562  0.0059522752811992
  0.5848760613653754  0.3348780435694946  0.2580170191653723
  0.4157961700489751  0.4933816515948755  0.4931629263222320
  0.2512672504779191  0.6723226413657215  0.7438611039902304
  0.7473518928359268  0.1682015502793159  0.4960882477497434
  0.5828274948664965  0.3280983589274559  0.7419470761108784
  0.4119917301509143  0.8458156074401921  0.0075053444371986
  0.2461395077942803 -0.0006004520979334  0.2550604286813145
  0.7473438694989172  0.4945854005920610 -0.0069193453611114
  0.5841443920106127  0.6563016321595272  0.2598607718596351
  0.4096685001551027  0.8329040323078178  0.4937460343165098
  0.2577152645484019 -0.0038898013163469  0.7434834910671234
  0.9181026197682344  0.3294174826678951  0.2431844967219889
  0.7477996633533521  0.5049102077575607  0.5003626049362271
  0.5846377726849070  0.6656494395983350  0.7361557271215993
  0.9188424424164783  0.3385536054564399  0.7562589498685344
  0.7521716439733105  0.8298628565908722  0.0059718970725466
  0.5791906569193077  0.0087715416551903  0.2505128086580392
  0.9106809722378021  0.6747292130294620  0.2520510622818390
  0.7511296470254106  0.8288448460516290  0.4964479485054856
  0.5799758852478958  0.0056804608084634  0.7560990017214068
  0.9154272007647110  0.6555436363897763  0.7465384828309535
  0.9164954732589572 -0.0025959811858041  0.2410474416162262
  0.9178751247319425  0.0072117960419987  0.7556414803674855
  0.1678081635089384  0.0093749772768291  0.1284391862668063
  0.1672697729248419 -0.0007498920635044  0.6153020450286127
  0.1717119774367469  0.3321317149602408  0.1279916033088306
  0.4819454261953066  0.0050297614145933  0.1270592692508632
  0.3292902733161884  0.1562317669105065  0.3677358955509967
  0.1749908240288552  0.3309201401169210  0.6224794908907110
  0.4903244847449734  0.0208920797643252  0.6208197829952901
  0.3397397971899724  0.1593220281022466  0.8769487208482177
  0.1718531069903759  0.6640642012684596  0.1313709850168950
  0.5004563146468917  0.3345698840210197  0.1262034750652719
  0.3312511599789092  0.4925066734232785  0.3720537797901382
  0.1709660944684573  0.6702176514659401  0.6204347895975401
  0.8538713921176220 -0.0027259323874662  0.1321802763251579
  0.6623868875874480  0.1677203811427195  0.3726806647954205
  0.5080572421630730  0.3280776918509657  0.6221457222615060
  0.3412898848639254  0.4970062233765556  0.8752264244130693
  0.8352575295610742  0.0043080940659115  0.6237162754877928
  0.6570261359716789  0.1786911964710213  0.8783702225733175
  0.4995144710069299  0.6571234192058981  0.1288113010863014
  0.3313652419506901  0.8405000907878536  0.3690707107754075
  0.8339189631057966  0.3298155063526159  0.1196789713095831
  0.6648926740674720  0.4975295818987543  0.3753648676475808
  0.5007896160928447  0.6591737403087472  0.6185844739653725
  0.3294011440963948  0.8394149624043427  0.8797276085781661
  0.0073197686352399  0.1610565791753572  0.3762334762857955
  0.8214782312606415  0.3424766290953479  0.6254090279693565
  0.6732292539432064  0.4916604813075993  0.8760279178171450
  0.0036526860195081  0.1665489297461213  0.8773072956153564
  0.8312514940086470  0.6732393408206214  0.1286627712605988
  0.6683118399462323  0.8312112865034208  0.3734430994435182
  0.0070541670764936  0.4961706163079693  0.3732491116398307
  0.8302096474088482  0.6576374413430316  0.6233654181554386
  0.6637111978836926  0.8299976458653697  0.8761369698310508
 -0.0072977683998374  0.4955192412721774  0.8780456276095876
 -0.0030170270683189  0.8451083333850523  0.3670088188118862
  0.0046375278741005  0.8395555771601150  0.8812356178742663
  0.0800737998951820  0.0103143058235095  0.2481333137768651
  0.0792660037608084  0.0026383683381245  0.7488904447148297
  0.0792198222249093  0.3334819123829406  0.2438834393366544
  0.4145645878961289  0.0064106839008909  0.2338801261739003
  0.2510281485617102  0.1608335427870327  0.4859628555094109
  0.0806004984185927  0.3315748731340523  0.7569621785617771
  0.4191006293476083  0.0089636473645945  0.7640106514226451
  0.2537512443837339  0.1624638651503150  0.0235295744793075
  0.0907501119183229  0.6720201136913191  0.2522351824302007
  0.4187711369999084  0.3256010199611039  0.2640840195488290
  0.2517312004753340  0.5078748848419125  0.4856200912003459
  0.0848272229405010  0.6677123233703400  0.7491433858102629
  0.7517121838159413 -0.0034811576127737  0.2549015780691973
  0.5813488191979392  0.1788746990167529  0.5034840475728495
  0.4169698573467005  0.3272723800310413  0.7302057738728780
  0.2524579517201422  0.4989771528623763  0.0182492940120667
  0.7494393928111145 -0.0020994473384992  0.7473173972222488
  0.5788130196931681  0.1755483069048882  0.0021328807651667
  0.4165947312063891  0.6628138126056148  0.2632597304414104
  0.2460585062778825  0.8321314500393956  0.4899053380519401
  0.7481481223748052  0.3328658359443935  0.2457876507391307
  0.5825167034152587  0.4912528251638254  0.4853198139826757
  0.4162955203247184  0.6614110490331596  0.7357262800481701
  0.2481326013425903  0.8358497757557366  0.0080604777567957
  0.9180309087310725  0.1619373719243364  0.5018444900347826
  0.7482826550319120  0.3419677692657506  0.7628438575391844
  0.5835948877588318  0.4917424355242130  0.0086548781829247
  0.9203151938685766  0.1625606956148367 -0.0033074396542317
  0.7482289160797734  0.6671079771692737  0.2583544911128378
  0.5870510525476913  0.8253310386507309  0.5014647267060983
  0.9163304511051080  0.4989141923516227  0.5145088019376332
  0.7493111103785502  0.6662917300631895  0.7426060625744978
  0.5853077559031421  0.8336274814590741 -0.0019735988338107
  0.9195225310725385  0.4889349271500241 -0.0128596757242374
  0.9170086399764407  0.8388995756974154  0.4850427933669147
  0.9182444655161326  0.8466733729256741  0.0168606600399428
  0.0107268973197044  0.1653296444344007  0.1216069846836667
 -0.0003364820726537  0.1627776273434290  0.6250407549836842
  0.0069573981894704  0.4909744568994077  0.1222396294941672
  0.3255657235623451  0.1605574665534232  0.1250499322198516
  0.1772217540434703  0.3353498397669214  0.3746949573993884
 -0.0079223012326095  0.4975790349877549  0.6308464269506737
  0.3437630107408446  0.1595262710333764  0.6204282723483059
  0.1651673468542847  0.3263573783491067  0.8836626644332771
 -0.0009664801473422  0.8428443905171800  0.1287442216502789
  0.3305674313902786  0.4971613737230825  0.1251176958894892
  0.1747751399833689  0.6644501454296042  0.3714808820027276
  0.0041973591110854  0.8370687957511243  0.6178377115400148
  0.6618080672506348  0.1767896696838618  0.1296247423534333
  0.4925494105429138  0.3306880375336915  0.3735644802003133
  0.3391457167417921  0.4940103400625029  0.6186866346171070
  0.1682634341835552  0.6713026891805873  0.8773408747743270
  0.6548875091817834  0.1743033219416592  0.6218640766455221
  0.5089382520526083  0.3324779223774715  0.8769301415955895
  0.3299854467574798  0.8399240063506180  0.1255828598171652
  0.1702081195580681  0.0058245674043604  0.3692465523785189
  0.6581876658654957  0.4928973112829774  0.1266003508829861
  0.4966213390814782  0.6670272499348007  0.3752078139799074
  0.3318041800538168  0.8355894624991147  0.6196029163874697
  0.1675953947485887  0.0008849914345437  0.8805069118600856
  0.8266991250470667  0.3285474913194161  0.3796925496216366
  0.6704403230510829  0.4934027701618677  0.6217937820373660
  0.5007417139917258  0.6543061985997777  0.8775044585396307
  0.8228389266578678  0.3433067094000401  0.8756146974643220
  0.6695560086035528  0.8300846808308825  0.1266134324888125
  0.4928955423532188  0.0067304385035494  0.3745279354416780
  0.8278206804132016  0.6728795147155446  0.3765510878244217
  0.6637305219152089  0.8290104760033810  0.6235647956194732
  0.4888210392427372  0.0127854868927651  0.8763890390951155
  0.8322222316490756  0.6544136098046551  0.8751694140958133
  0.8396015485532787 -0.0024120445885309  0.3782919266155056
  0.8444892943312455  0.0020426029130591  0.8742614746028137
  0.0126698633053606  0.0807950388968091  0.2471251960676481
 -0.0008167046402292  0.0797223083472166  0.7490846499150804
  0.0140887637660316  0.4143348528809548  0.2410038445846635
  0.3304062323097861  0.0866778318146375  0.2653889223496010
  0.1741065139962993  0.2509653491968474  0.4950109150932068
 -0.0051426396877019  0.4167229372876264  0.7575575050301924
  0.3431855919405606  0.0879148225822282  0.7314661118903418
  0.1663679874147096  0.2524240855883405  0.0031915211146771
 -0.0021912768229407  0.7572563357170163  0.2541998863629298
  0.3332574034968318  0.4180607892305019  0.2622178929810494
  0.1823604783899841  0.5831636452254011  0.4871130391292390
  0.0033547715718514  0.7504952619033135  0.7462698476492950
  0.6578829590661752  0.0893416825427767  0.2579269909037628
  0.4942030810475125  0.2441338239935325  0.4937976499851039
  0.3378196925889488  0.4148331072986625  0.7360912438758445
  0.1696850612575987  0.5824837273262713  0.0145490687066882
  0.6584997380639889  0.0863802474704505  0.7497584738244732
  0.5063331505659112  0.2476098052017507  0.0109453323775625
  0.3296054262345941  0.7494253940455871  0.2593493358616102
  0.1659178475441573  0.9170926177037660  0.4877895885622977
  0.6481401688333865  0.4129668655336993  0.2555099385191764
  0.5010234347369230  0.5845395836281355  0.4935291500645701
  0.3272654380811201  0.7470979934687294  0.7435823338329491
  0.1625217095346004  0.9168252539623776  0.0114263992189203
  0.8267772065944919  0.2550428749647673  0.4919076374423837
  0.6710511707643401  0.4148621219905180  0.7379054173075117
  0.4994795503600032  0.5848696163635981 -0.0037389603798473
  0.8300597363728861  0.2546124389434701  0.0063085228587793
  0.6677148671566850  0.7491714734621527  0.2521768063634120
  0.4913668818178684  0.9175973875344000  0.5006794682849308
  0.8170899287419440  0.5819859925168615  0.5115831934780353
  0.6697390056957910  0.7472844979646986  0.7488844966217514
  0.4952190161346605  0.9185092778806090  0.0018249853744727
  0.8328680800807785  0.5815216408498058 -0.0096040827602420
  0.8403605678320001  0.9169009232888050  0.4935380046228502
  0.8437928265160604  0.9153360001800503  0.0058122027783159
 
  0.00000000E+00  0.00000000E+00  0.00000000E+00
  0.00000000E+00  0.00000000E+00  0.00000000E+00
  0.00000000E+00  0.00000000E+00  0.00000000E+00
  0.00000000E+00  0.00000000E+00  0.00000000E+00
  0.00000000E+00  0.00000000E+00  0.00000000E+00
  0.00000000E+00  0.00000000E+00  0.00000000E+00
  0.00000000E+00  0.00000000E+00  0.00000000E+00
  0.00000000E+00  0.00000000E+00  0.00000000E+00
  0.00000000E+00  0.00000000E+00  0.00000000E+00
  0.00000000E+00  0.00000000E+00  0.00000000E+00
  0.00000000E+00  0.00000000E+00  0.00000000E+00
  0.00000000E+00  0.00000000E+00  0.00000000E+00
  0.00000000E+00  0.00000000E+00  0.00000000E+00
  0.00000000E+00  0.00000000E+00  0.00000000E+00
  0.00000000E+00  0.00000000E+00  0.00000000E+00
  0.00000000E+00  0.00000000E+00  0.00000000E+00
  0.00000000E+00  0.00000000E+00  0.00000000E+00
  0.00000000E+00  0.00000000E+00  0.00000000E+00
  0.00000000E+00  0.00000000E+00  0.00000000E+00
  0.00000000E+00  0.00000000E+00  0.00000000E+00
  0.00000000E+00  0.00000000E+00  0.00000000E+00
  0.00000000E+00  0.00000000E+00  0.00000000E+00
  0.00000000E+00  0.00000000E+00  0.00000000E+00
  0.00000000E+00  0.00000000E+00  0.00000000E+00
  0.00000000E+00  0.00000000E+00  0.00000000E+00
  0.00000000E+00  0.00000000E+00  0.00000000E+00
  0.00000000E+00  0.00000000E+00  0.00000000E+00
  0.00000000E+00  0.00000000E+00  0.00000000E+00
  0.00000000E+00  0.00000000E+00  0.00000000E+00
  0.00000000E+00  0.00000000E+00  0.00000000E+00
  0.00000000E+00  0.00000000E+00  0.00000000E+00
  0.00000000E+00  0.00000000E+00  0.00000000E+00
  0.00000000E+00  0.00000000E+00  0.00000000E+00
  0.00000000E+00  0.00000000E+00  0.00000000E+00
  0.00000000E+00  0.00000000E+00  0.00000000E+00
  0.00000000E+00  0.00000000E+00  0.00000000E+00
  0.00000000E+00  0.00000000E+00  0.00000000E+00
  0.00000000E+00  0.00000000E+00  0.00000000E+00
  0.00000000E+00  0.00000000E+00  0.00000000E+00
  0.00000000E+00  0.00000000E+00  0.00000000E+00
  0.00000000E+00  0.00000000E+00  0.00000000E+00
  0.00000000E+00  0.00000000E+00  0.00000000E+00
  0.00000000E+00  0.00000000E+00  0.00000000E+00
  0.00000000E+00  0.00000000E+00  0.00000000E+00
  0.00000000E+00  0.00000000E+00  0.00000000E+00
  0.00000000E+00  0.00000000E+00  0.00000000E+00
  0.00000000E+00  0.00000000E+00  0.00000000E+00
  0.00000000E+00  0.00000000E+00  0.00000000E+00
  0.00000000E+00  0.00000000E+00  0.00000000E+00
  0.00000000E+00  0.00000000E+00  0.00000000E+00
  0.00000000E+00  0.00000000E+00  0.00000000E+00
  0.00000000E+00  0.00000000E+00  0.00000000E+00
  0.00000000E+00  0.00000000E+00  0.00000000E+00
  0.00000000E+00  0.00000000E+00  0.00000000E+00
  0.00000000E+00  0.00000000E+00  0.00000000E+00
  0.00000000E+00  0.00000000E+00  0.00000000E+00
  0.00000000E+00  0.00000000E+00  0.00000000E+00
  0.00000000E+00  0.00000000E+00  0.00000000E+00
  0.00000000E+00  0.00000000E+00  0.00000000E+00
  0.00000000E+00  0.00000000E+00  0.00000000E+00
  0.00000000E+00  0.00000000E+00  0.00000000E+00
  0.00000000E+00  0.00000000E+00  0.00000000E+00
  0.00000000E+00  0.00000000E+00  0.00000000E+00
  0.00000000E+00  0.00000000E+00  0.00000000E+00
  0.00000000E+00  0.00000000E+00  0.00000000E+00
  0.00000000E+00  0.00000000E+00  0.00000000E+00
  0.00000000E+00  0.00000000E+00  0.00000000E+00
  0.00000000E+00  0.00000000E+00  0.00000000E+00
  0.00000000E+00  0.00000000E+00  0.00000000E+00
  0.00000000E+00  0.00000000E+00  0.00000000E+00
  0.00000000E+00  0.00000000E+00  0.00000000E+00
  0.00000000E+00  0.00000000E+00  0.00000000E+00
  0.00000000E+00  0.00000000E+00  0.00000000E+00
  0.00000000E+00  0.00000000E+00  0.00000000E+00
  0.00000000E+00  0.00000000E+00  0.00000000E+00
  0.00000000E+00  0.00000000E+00  0.00000000E+00
  0.00000000E+00  0.00000000E+00  0.00000000E+00
  0.00000000E+00  0.00000000E+00  0.00000000E+00
  0.00000000E+00  0.00000000E+00  0.00000000E+00
  0.00000000E+00  0.00000000E+00  0.00000000E+00
  0.00000000E+00  0.00000000E+00  0.00000000E+00
  0.00000000E+00  0.00000000E+00  0.00000000E+00
  0.00000000E+00  0.00000000E+00  0.00000000E+00
  0.00000000E+00  0.00000000E+00  0.00000000E+00
  0.00000000E+00  0.00000000E+00  0.00000000E+00
  0.00000000E+00  0.00000000E+00  0.00000000E+00
  0.00000000E+00  0.00000000E+00  0.00000000E+00
  0.00000000E+00  0.00000000E+00  0.00000000E+00
  0.00000000E+00  0.00000000E+00  0.00000000E+00
  0.00000000E+00  0.00000000E+00  0.00000000E+00
  0.00000000E+00  0.00000000E+00  0.00000000E+00
  0.00000000E+00  0.00000000E+00  0.00000000E+00
  0.00000000E+00  0.00000000E+00  0.00000000E+00
  0.00000000E+00  0.00000000E+00  0.00000000E+00
  0.00000000E+00  0.00000000E+00  0.00000000E+00
  0.00000000E+00  0.00000000E+00  0.00000000E+00
  0.00000000E+00  0.00000000E+00  0.00000000E+00
  0.00000000E+00  0.00000000E+00  0.00000000E+00
  0.00000000E+00  0.00000000E+00  0.00000000E+00
  0.00000000E+00  0.00000000E+00  0.00000000E+00
  0.00000000E+00  0.00000000E+00  0.00000000E+00
  0.00000000E+00  0.00000000E+00  0.00000000E+00
  0.00000000E+00  0.00000000E+00  0.00000000E+00
  0.00000000E+00  0.00000000E+00  0.00000000E+00
  0.00000000E+00  0.00000000E+00  0.00000000E+00
  0.00000000E+00  0.00000000E+00  0.00000000E+00
  0.00000000E+00  0.00000000E+00  0.00000000E+00
  0.00000000E+00  0.00000000E+00  0.00000000E+00
  0.00000000E+00  0.00000000E+00  0.00000000E+00
  0.00000000E+00  0.00000000E+00  0.00000000E+00
  0.00000000E+00  0.00000000E+00  0.00000000E+00
  0.00000000E+00  0.00000000E+00  0.00000000E+00
  0.00000000E+00  0.00000000E+00  0.00000000E+00
  0.00000000E+00  0.00000000E+00  0.00000000E+00
  0.00000000E+00  0.00000000E+00  0.00000000E+00
  0.00000000E+00  0.00000000E+00  0.00000000E+00
  0.00000000E+00  0.00000000E+00  0.00000000E+00
  0.00000000E+00  0.00000000E+00  0.00000000E+00
  0.00000000E+00  0.00000000E+00  0.00000000E+00
  0.00000000E+00  0.00000000E+00  0.00000000E+00
  0.00000000E+00  0.00000000E+00  0.00000000E+00
  0.00000000E+00  0.00000000E+00  0.00000000E+00
  0.00000000E+00  0.00000000E+00  0.00000000E+00
  0.00000000E+00  0.00000000E+00  0.00000000E+00
  0.00000000E+00  0.00000000E+00  0.00000000E+00
  0.00000000E+00  0.00000000E+00  0.00000000E+00
  0.00000000E+00  0.00000000E+00  0.00000000E+00
  0.00000000E+00  0.00000000E+00  0.00000000E+00
  0.00000000E+00  0.00000000E+00  0.00000000E+00
  0.00000000E+00  0.00000000E+00  0.00000000E+00
  0.00000000E+00  0.00000000E+00  0.00000000E+00
  0.00000000E+00  0.00000000E+00  0.00000000E+00
  0.00000000E+00  0.00000000E+00  0.00000000E+00
  0.00000000E+00  0.00000000E+00  0.00000000E+00
  0.00000000E+00  0.00000000E+00  0.00000000E+00
  0.00000000E+00  0.00000000E+00  0.00000000E+00
  0.00000000E+00  0.00000000E+00  0.00000000E+00
  0.00000000E+00  0.00000000E+00  0.00000000E+00
  0.00000000E+00  0.00000000E+00  0.00000000E+00
  0.00000000E+00  0.00000000E+00  0.00000000E+00
  0.00000000E+00  0.00000000E+00  0.00000000E+00
  0.00000000E+00  0.00000000E+00  0.00000000E+00
  0.00000000E+00  0.00000000E+00  0.00000000E+00
  0.00000000E+00  0.00000000E+00  0.00000000E+00
  0.00000000E+00  0.00000000E+00  0.00000000E+00
  0.00000000E+00  0.00000000E+00  0.00000000E+00
  0.00000000E+00  0.00000000E+00  0.00000000E+00
  0.00000000E+00  0.00000000E+00  0.00000000E+00
  0.00000000E+00  0.00000000E+00  0.00000000E+00
  0.00000000E+00  0.00000000E+00  0.00000000E+00
  0.00000000E+00  0.00000000E+00  0.00000000E+00
  0.00000000E+00  0.00000000E+00  0.00000000E+00
  0.00000000E+00  0.00000000E+00  0.00000000E+00
  0.00000000E+00  0.00000000E+00  0.00000000E+00
  0.00000000E+00  0.00000000E+00  0.00000000E+00
  0.00000000E+00  0.00000000E+00  0.00000000E+00
  0.00000000E+00  0.00000000E+00  0.00000000E+00
  0.00000000E+00  0.00000000E+00  0.00000000E+00
  0.00000000E+00  0.00000000E+00  0.00000000E+00
  0.00000000E+00  0.00000000E+00  0.00000000E+00
  0.00000000E+00  0.00000000E+00  0.00000000E+00
  0.00000000E+00  0.00000000E+00  0.00000000E+00
  0.00000000E+00  0.00000000E+00  0.00000000E+00
  0.00000000E+00  0.00000000E+00  0.00000000E+00
  0.00000000E+00  0.00000000E+00  0.00000000E+00
  0.00000000E+00  0.00000000E+00  0.00000000E+00
  0.00000000E+00  0.00000000E+00  0.00000000E+00
  0.00000000E+00  0.00000000E+00  0.00000000E+00
  0.00000000E+00  0.00000000E+00  0.00000000E+00
  0.00000000E+00  0.00000000E+00  0.00000000E+00
  0.00000000E+00  0.00000000E+00  0.00000000E+00
  0.00000000E+00  0.00000000E+00  0.00000000E+00
  0.00000000E+00  0.00000000E+00  0.00000000E+00
  0.00000000E+00  0.00000000E+00  0.00000000E+00
  0.00000000E+00  0.00000000E+00  0.00000000E+00
  0.00000000E+00  0.00000000E+00  0.00000000E+00
  0.00000000E+00  0.00000000E+00  0.00000000E+00
  0.00000000E+00  0.00000000E+00  0.00000000E+00
  0.00000000E+00  0.00000000E+00  0.00000000E+00
  0.00000000E+00  0.00000000E+00  0.00000000E+00
  0.00000000E+00  0.00000000E+00  0.00000000E+00
  0.00000000E+00  0.00000000E+00  0.00000000E+00
  0.00000000E+00  0.00000000E+00  0.00000000E+00
  0.00000000E+00  0.00000000E+00  0.00000000E+00
  0.00000000E+00  0.00000000E+00  0.00000000E+00
  0.00000000E+00  0.00000000E+00  0.00000000E+00
  0.00000000E+00  0.00000000E+00  0.00000000E+00
  0.00000000E+00  0.00000000E+00  0.00000000E+00
  0.00000000E+00  0.00000000E+00  0.00000000E+00
  0.00000000E+00  0.00000000E+00  0.00000000E+00
  0.00000000E+00  0.00000000E+00  0.00000000E+00
  0.00000000E+00  0.00000000E+00  0.00000000E+00
  0.00000000E+00  0.00000000E+00  0.00000000E+00
  0.00000000E+00  0.00000000E+00  0.00000000E+00
  0.00000000E+00  0.00000000E+00  0.00000000E+00
  0.00000000E+00  0.00000000E+00  0.00000000E+00
  0.00000000E+00  0.00000000E+00  0.00000000E+00
  0.00000000E+00  0.00000000E+00  0.00000000E+00
  0.00000000E+00  0.00000000E+00  0.00000000E+00
  0.00000000E+00  0.00000000E+00  0.00000000E+00
  0.00000000E+00  0.00000000E+00  0.00000000E+00
  0.00000000E+00  0.00000000E+00  0.00000000E+00
  0.00000000E+00  0.00000000E+00  0.00000000E+00
  0.00000000E+00  0.00000000E+00  0.00000000E+00
  0.00000000E+00  0.00000000E+00  0.00000000E+00
  0.00000000E+00  0.00000000E+00  0.00000000E+00
  0.00000000E+00  0.00000000E+00  0.00000000E+00
  0.00000000E+00  0.00000000E+00  0.00000000E+00
  0.00000000E+00  0.00000000E+00  0.00000000E+00
  0.00000000E+00  0.00000000E+00  0.00000000E+00
  0.00000000E+00  0.00000000E+00  0.00000000E+00
  0.00000000E+00  0.00000000E+00  0.00000000E+00
  0.00000000E+00  0.00000000E+00  0.00000000E+00
  0.00000000E+00  0.00000000E+00  0.00000000E+00
  0.00000000E+00  0.00000000E+00  0.00000000E+00
  0.00000000E+00  0.00000000E+00  0.00000000E+00
  0.00000000E+00  0.00000000E+00  0.00000000E+00
  0.00000000E+00  0.00000000E+00  0.00000000E+00
  0.00000000E+00  0.00000000E+00  0.00000000E+00
  0.00000000E+00  0.00000000E+00  0.00000000E+00
  0.00000000E+00  0.00000000E+00  0.00000000E+00
  0.00000000E+00  0.00000000E+00  0.00000000E+00
  0.00000000E+00  0.00000000E+00  0.00000000E+00
  0.00000000E+00  0.00000000E+00  0.00000000E+00
  0.00000000E+00  0.00000000E+00  0.00000000E+00
  0.00000000E+00  0.00000000E+00  0.00000000E+00
  0.00000000E+00  0.00000000E+00  0.00000000E+00
  0.00000000E+00  0.00000000E+00  0.00000000E+00
  0.00000000E+00  0.00000000E+00  0.00000000E+00
  0.00000000E+00  0.00000000E+00  0.00000000E+00
  0.00000000E+00  0.00000000E+00  0.00000000E+00
  0.00000000E+00  0.00000000E+00  0.00000000E+00
  0.00000000E+00  0.00000000E+00  0.00000000E+00
  0.00000000E+00  0.00000000E+00  0.00000000E+00
  0.00000000E+00  0.00000000E+00  0.00000000E+00
  0.00000000E+00  0.00000000E+00  0.00000000E+00
  0.00000000E+00  0.00000000E+00  0.00000000E+00
  0.00000000E+00  0.00000000E+00  0.00000000E+00
  0.00000000E+00  0.00000000E+00  0.00000000E+00
  0.00000000E+00  0.00000000E+00  0.00000000E+00
  0.00000000E+00  0.00000000E+00  0.00000000E+00
  0.00000000E+00  0.00000000E+00  0.00000000E+00
  0.00000000E+00  0.00000000E+00  0.00000000E+00
  0.00000000E+00  0.00000000E+00  0.00000000E+00
  0.00000000E+00  0.00000000E+00  0.00000000E+00
  0.00000000E+00  0.00000000E+00  0.00000000E+00
  0.00000000E+00  0.00000000E+00  0.00000000E+00
  0.00000000E+00  0.00000000E+00  0.00000000E+00
  0.00000000E+00  0.00000000E+00  0.00000000E+00
  0.00000000E+00  0.00000000E+00  0.00000000E+00
  0.00000000E+00  0.00000000E+00  0.00000000E+00
  0.00000000E+00  0.00000000E+00  0.00000000E+00
