       N       E                     dE             d eps       ncg     rms          rms(c)
DAV:   1     0.134701214394E+05    0.13470E+05   -0.25127E+05 15984   0.239E+03
DAV:   2     0.227654479222E+04   -0.11194E+05   -0.10496E+05 15960   0.797E+02
DAV:   3    -0.473796861948E+03   -0.27503E+04   -0.25143E+04 20528   0.409E+02
DAV:   4    -0.879434759498E+03   -0.40564E+03   -0.38313E+03 26816   0.216E+02
DAV:   5    -0.905596584949E+03   -0.26162E+02   -0.25474E+02 26520   0.686E+01    0.210E+02
DAV:   6    -0.695082580992E+03    0.21051E+03   -0.29643E+02 29072   0.827E+01    0.809E+01
DAV:   7    -0.692781998982E+03    0.23006E+01   -0.25781E+02 27200   0.410E+01    0.465E+01
DAV:   8    -0.691777099311E+03    0.10049E+01   -0.31218E+01 27288   0.191E+01    0.164E+01
DAV:   9    -0.691438478943E+03    0.33862E+00   -0.32756E+00 25792   0.710E+00    0.872E+00
DAV:  10    -0.691373718938E+03    0.64760E-01   -0.49043E-01 26632   0.310E+00    0.690E+00
DAV:  11    -0.691351847576E+03    0.21871E-01   -0.16366E-01 27984   0.178E+00    0.153E+00
DAV:  12    -0.691348525769E+03    0.33218E-02   -0.42930E-02 26352   0.929E-01    0.361E-01
DAV:  13    -0.691348217976E+03    0.30779E-03   -0.72143E-03 25912   0.359E-01    0.179E-01
DAV:  14    -0.691348283511E+03   -0.65534E-04   -0.11092E-03 26896   0.124E-01    0.147E-01
DAV:  15    -0.691348291703E+03   -0.81926E-05   -0.12967E-04 29128   0.501E-02    0.652E-02
DAV:  16    -0.691348278916E+03    0.12788E-04   -0.41863E-05 26656   0.261E-02    0.388E-02
DAV:  17    -0.691348271871E+03    0.70443E-05   -0.86461E-06 20624   0.141E-02    0.805E-03
DAV:  18    -0.691348271791E+03    0.80305E-07   -0.27298E-06 16112   0.657E-03
   1 F= 0.14221517E+03 E0= 0.14221827E+03  d E =0.142215E+03
