generated by phonopy                    
   1.00000000000000     
     0.0000000000000000    3.2873044982918107    3.2873044982918782
     3.2873044982918387    0.0000000000000000    3.2873044982918782
     3.2873044982918387    3.2873044982918107    0.0000000000000000
   Na   Y    Mg   Zr   H 
     1     1     1     1    24
Direct
  0.2500000000000000  0.2500000000000000  0.2500000000000000
  0.7500000000000000  0.7500000000000000  0.7500000000000000
  0.0000000000000000  0.0000000000000000  0.0000000000000000
  0.5000000000000000  0.5000000000000000  0.5000000000000000
  0.1233138830245437  0.8972937264666641  0.6222238125075705
  0.8972937264666641  0.1233138830245437  0.3571685780012217
  0.6222238125075705  0.3571685780012217  0.1233138830245437
  0.3571685780012217  0.6222238125075705  0.8972937264666641
  0.6222238125075705  0.1233138830245437  0.8972937264666641
  0.3571685780012217  0.8972937264666641  0.1233138830245437
  0.1233138830245437  0.6222238125075705  0.3571685780012217
  0.8972937264666641  0.3571685780012217  0.6222238125075705
  0.8972937264666641  0.6222238125075705  0.1233138830245437
  0.1233138830245437  0.3571685780012217  0.8972937264666641
  0.3571685780012217  0.1233138830245437  0.6222238125075705
  0.6222238125075705  0.8972937264666641  0.3571685780012217
  0.1233138830245437  0.3571685780012217  0.6222238125075705
  0.3571685780012217  0.1233138830245437  0.8972937264666641
  0.6222238125075705  0.8972937264666641  0.1233138830245437
  0.8972937264666641  0.6222238125075705  0.3571685780012217
  0.6222238125075705  0.1233138830245437  0.3571685780012217
  0.8972937264666641  0.3571685780012217  0.1233138830245437
  0.1233138830245437  0.6222238125075705  0.8972937264666641
  0.3571685780012217  0.8972937264666641  0.6222238125075705
  0.3571685780012217  0.6222238125075705  0.1233138830245437
  0.1233138830245437  0.8972937264666641  0.3571685780012217
  0.8972937264666641  0.1233138830245437  0.6222238125075705
  0.6222238125075705  0.3571685780012217  0.8972937264666641
 
  0.00000000E+00  0.00000000E+00  0.00000000E+00
  0.00000000E+00  0.00000000E+00  0.00000000E+00
  0.00000000E+00  0.00000000E+00  0.00000000E+00
  0.00000000E+00  0.00000000E+00  0.00000000E+00
  0.00000000E+00  0.00000000E+00  0.00000000E+00
  0.00000000E+00  0.00000000E+00  0.00000000E+00
  0.00000000E+00  0.00000000E+00  0.00000000E+00
  0.00000000E+00  0.00000000E+00  0.00000000E+00
  0.00000000E+00  0.00000000E+00  0.00000000E+00
  0.00000000E+00  0.00000000E+00  0.00000000E+00
  0.00000000E+00  0.00000000E+00  0.00000000E+00
  0.00000000E+00  0.00000000E+00  0.00000000E+00
  0.00000000E+00  0.00000000E+00  0.00000000E+00
  0.00000000E+00  0.00000000E+00  0.00000000E+00
  0.00000000E+00  0.00000000E+00  0.00000000E+00
  0.00000000E+00  0.00000000E+00  0.00000000E+00
  0.00000000E+00  0.00000000E+00  0.00000000E+00
  0.00000000E+00  0.00000000E+00  0.00000000E+00
  0.00000000E+00  0.00000000E+00  0.00000000E+00
  0.00000000E+00  0.00000000E+00  0.00000000E+00
  0.00000000E+00  0.00000000E+00  0.00000000E+00
  0.00000000E+00  0.00000000E+00  0.00000000E+00
  0.00000000E+00  0.00000000E+00  0.00000000E+00
  0.00000000E+00  0.00000000E+00  0.00000000E+00
  0.00000000E+00  0.00000000E+00  0.00000000E+00
  0.00000000E+00  0.00000000E+00  0.00000000E+00
  0.00000000E+00  0.00000000E+00  0.00000000E+00
  0.00000000E+00  0.00000000E+00  0.00000000E+00
