POSCAR                                  
   1.00000000000000     
    10.3417446939708721    0.0236624752243781   -0.0018832966778244
     0.0234478201066270   10.2975367515050920    0.0651676421167134
    -0.0014140155472101    0.0435554767934172    6.8698236079072217
   Sc   Zr   Y    K    H 
     9     9     9     9   216
Direct
  0.1575557511089044  0.1627706386756525  0.2619367363751270
  0.1694594674521267  0.4976764035796881  0.2412846540676624
  0.8362516720049057  0.1685330764826314  0.2378550454805659
  0.6790019229240434  0.3204530699588679  0.4989580240241542
  0.8347467237373551  0.1678714980399980  0.7638996896396979
  0.3311133856719217  0.0052743409311385  0.0134429023916051
  0.0066659015460744  0.6632023201833911  0.4937313958874288
  0.6739998545073480  0.0034829801068179 -0.0017906777047664
  0.0017247797191796  0.0057293775021513  0.0092723394445957
  0.1562658882854597  0.1699043136878549  0.7487632059481762
  0.3222745826904301  0.3237456943743000  0.4969436760300165
  0.5008299871680211  0.1680587225035363  0.7472897405428084
  0.3333892240541853  0.3243817435816789  0.0008455599319944
  0.6621896486869366  0.3360783895334981 -0.0065856476810100
  0.8341818858626316  0.4958260632220208  0.2499487933888664
  0.6650519339744805  0.6765272951482497  0.4972633825524532
  0.4987911487465198  0.8359231169207352  0.7591195722322688
  0.8347772696758371  0.8388718884076699  0.2458927769034020
  0.5034433899722165  0.1612640487905550  0.2616078132241957
  0.1712753226642363  0.8322247440854045  0.2485926467415903
  0.4997284182226058  0.4976608083895871  0.2493621462106005
  0.3343319980431005  0.6730888392262081  0.0076144095214367
  0.8339768961294809  0.5012934917171602  0.7414615296528815
  0.6711263338334520  0.6691949331022412 -0.0019216465415385
  0.0039014788316778  0.3351461168919146 -0.0010185535847533
  0.8429147889872380  0.8444936521107343  0.7386074490627311
  0.0046229766512673  0.6687360247527672 -0.0050486312549504
  0.1688036876213156  0.5068513281414384  0.7424728992313997
  0.3411181485095858  0.6405926971854929  0.5169030522889023
  0.1736814192496069  0.8507081588395805  0.7337624084085667
  0.4974800460157227  0.5023337595007293  0.7387738574917009
  0.5059412467500297  0.8374495796600882  0.2539981262926805
  0.3199015449451239 -0.0166798326639437  0.5195571074638033
 -0.0084444679033421  0.3356998170540510  0.5009591762766075
  0.6551060979065435  0.0046723041114835  0.4908913162627433
 -0.0099714343984722 -0.0073828394705961  0.5110652815524612
  0.1641185969552961  0.0849386113170629  0.0147148443833886
  0.1585723499360502  0.0828581658349451  0.5106586615521257
  0.1728605155326122  0.4187995139783197  0.0012335937035131
  0.4985188246640686  0.0803206986972786  0.0000231527218035
  0.3250240701243550  0.2408050865990486  0.2535568800871089
  0.1621484426928780  0.4080426575858531  0.4878525328625967
  0.4816151201004691  0.0767144788911604  0.5148459607578094
  0.3304428366943078  0.2429764705866437  0.7553717145529624
  0.1676453865924254  0.7634666176047666 -0.0144753732496219
  0.4974235144096679  0.4191069170596741 -0.0096130294064557
  0.3260991506761276  0.5749335842851214  0.2507915344198139
  0.1907955618150554  0.7475076144599953  0.5071339809239535
  0.8340522592678483  0.0845736673766153  0.0137218058233465
  0.6747136415363255  0.2506860724125207  0.2409195159875796
  0.5248998023030073  0.4131814768235320  0.4999974322000089
  0.3351282579371449  0.5774163405371213  0.7814038760364072
  0.8291243586422139  0.0833698337474088  0.4687095270858244
  0.6691215450939354  0.2472882265087843  0.7511592542712275
  0.5026650273761032  0.7550579229784122  0.0078966077187039
  0.3401351321866775  0.9216422085271704  0.2470401443746160
  0.8306989798348741  0.4157294914239875 -0.0012023998801055
  0.6714712357131343  0.5815413694577266  0.2580807438227061
  0.4933774168556404  0.7387702369512577  0.4848317469625288
  0.3422093631484749  0.9223862446757789  0.7866817388089669
 -0.0007084079998045  0.2517998278834604  0.2536350673233598
  0.8221198793361996  0.4154151547916016  0.4929643594714265
  0.6634204616482235  0.5808945042508833  0.7418582327514810
 -0.0074430629609870  0.2511685785070542  0.7505654414732896
  0.8385553615343472  0.7560356753173427 -0.0053187496682099
  0.6721990215493041  0.9238808808592147  0.2350403221200502
 -0.0011430116639508  0.5830752546059764  0.2482620881673072
  0.8311952268740236  0.7485826458711227  0.4910199715967135
  0.6712997128619901  0.9290917822739904  0.7523096715089127
  0.0032006634184671  0.5882469982119025  0.7380342453688723
  0.0023289580323843  0.9179329778582987  0.2484714834776365
  0.0083580656102792  0.9293276693194235  0.7797801708828610
  0.0835572274640017  0.1647358634214992  0.0099819202392482
  0.0699068829948170  0.1638273068040009  0.4899736370697944
  0.0909010820220977  0.5011632595841428  0.0057138647561434
  0.4187269729753786  0.1598642767957170  0.0070676080540338
  0.2447900839770202  0.3265333506117705  0.2477385525515208
  0.0751008236913702  0.5025449568016935  0.4859909995154890
  0.4082778625821785  0.1559581800833902  0.5040391023270273
  0.2492502874909734  0.3316955955449149  0.7593983492763362
  0.0875452557300981  0.8429882953292298 -0.0042757821731706
  0.4147288832007441  0.4885119309194616 -0.0057536524897754
  0.2538764015282203  0.6634101625851864  0.2664369370987285
  0.0813362115037294  0.8243801165469563  0.4946819238725540
  0.7466126417536850  0.1663474032706815 -0.0110438678268053
  0.5861548349376898  0.3311205349479319  0.2658250338218576
  0.4203523722680654  0.4679063152633950  0.4934217301309421
  0.2510530795604400  0.6827478832784495  0.7624950114592367
  0.7498505549614954  0.1640374404573152  0.5259953868151639
  0.5802397156664254  0.3346120571098478  0.7217023018828892
  0.4209695517529517  0.8431255467168828  0.0081308592704037
  0.2436254199810314  0.0085289047908987  0.2555350470176434
  0.7523695915970642  0.4990756614600769 -0.0003163880586598
  0.5856133660089808  0.6661967807680825  0.2501135228673711
  0.4151266178873201  0.8208387659226141  0.5064498490178406
  0.2483235892327364  0.0170045934452521  0.7791694889897238
  0.9155038716293493  0.3283582998755919  0.2461659989454525
  0.7478111323182247  0.5072298280084787  0.4917125505415754
  0.5867066995034921  0.6711449440417402  0.7461268907244675
  0.9145308102077578  0.3255708547414932  0.7538925656132622
  0.7532204604112267  0.8431243946634706 -0.0118901742667668
  0.5881102075750307 -0.0013211422825397  0.2227413576840295
  0.9180400323763412  0.6667838003485503  0.2654207669082260
  0.7449711049325972  0.8420466630295853  0.5027351873251161
  0.5853108118512912 -0.0016434295431263  0.7650197858725404
  0.9179892783387966  0.6723275951144392  0.7241979344770747
  0.9174231632038934  0.0073434902738852  0.2489561062650409
  0.9181579296789938  0.0177329705446550  0.7714557591643437
  0.1669762259074147  0.0108137580665294  0.1267208607777284
  0.1523694639602975  0.0199995550930734  0.6312778083636016
  0.1707331873785795  0.3278191738466592  0.1288097365758876
  0.4985239471520327  0.0008477024903793  0.1174194207458806
  0.3257696572732633  0.1544450354720300  0.3876022038255608
  0.1594024360555325  0.3363128892562610  0.6224054505661017
  0.4907804655822650  0.0006340534871778  0.6334291187174591
  0.3330924954798526  0.1596509074645965  0.8782930616019441
  0.1665623943070008  0.6629962757141973  0.1298146581902171
  0.5003104592551125  0.3277963432429346  0.1257940607630145
  0.3240740129406829  0.4842757415060909  0.3677922646248379
  0.1554850349792074  0.6789666002042837  0.6173651238706066
  0.8356220727925747  0.0039901327203293  0.1163343055857112
  0.6839692491646661  0.1707441032363499  0.3704023093834657
  0.5039445687410276  0.3300121075717522  0.6285349435000096
  0.3325374630448039  0.5083361701430099  0.8713819175529699
  0.8194502256985996  0.0219037317789672  0.6274768114008396
  0.6699302108881392  0.1668991119668982  0.8788811368989246
  0.5052791070265578  0.6703223857326318  0.1290983664372014
  0.3439587138306329  0.8146131356346588  0.3797865966313793
  0.8297804206630777  0.3328616260255449  0.1196501902203710
  0.6712805577148947  0.4897756696654488  0.3728832880309573
  0.5046069264852456  0.6796969975422846  0.6333231921652746
  0.3304943371507632  0.8458599209785064  0.8824258723731861
 -0.0052804919001977  0.1627710047738825  0.3779807353995455
  0.8265007967363598  0.3217814006583170  0.6273385104913699
  0.6650840963652711  0.5014528462028955  0.8626570240179352
 -0.0015262206120637  0.1644959498159940  0.8878379759139730
  0.8383044276289546  0.6677476300565272  0.1258525083719181
  0.6747640591167030  0.8377681200285005  0.3720633962870258
  0.0123081812751223  0.5029097786065359  0.3751204991721421
  0.8380959347033637  0.6740345451695275  0.6099838712114117
  0.6731019454723137  0.8374276452057294  0.8655065911258895
 -0.0000172192140780  0.5054694140191023  0.8647697737303206
 -0.0027866134883996  0.8299872348967220  0.3698647553302332
  0.0098083271625281  0.8301970503286427  0.8597321646530796
  0.0768531893359817  0.0041309989172084  0.2525588513226947
  0.0768524403043212  0.0061285700024217  0.7691243208055258
  0.0817908995304538  0.3280872532356904  0.2551803713604938
  0.4118929973901577 -0.0049830636244976  0.2725890395842284
  0.2424047160147937  0.1528226220308845  0.4978913495831350
  0.0830227502420207  0.3390991214161526  0.7432824413248150
  0.4143264618722940  0.0012895424035028  0.7654719623721421
  0.2492058909469210  0.1621600284803056  0.0027592288842161
  0.0864791458835800  0.6631946909873517  0.2570932209149033
  0.4142258300670668  0.3312183810334989  0.2527105705409060
  0.2335210277882751  0.5000010026058977  0.4804573743233543
  0.0876609393318845  0.6760907301198037  0.7290162479143901
  0.7545321231211285  0.0064361000147431  0.2453789855257052
  0.5855205247326752  0.1788090701202069  0.5120918030510504
  0.4166894595960695  0.3333307204139432  0.7472939587390219
  0.2519733606230687  0.4909821259132751 -0.0055746793738892
  0.7493184029113967  0.0104013248888069  0.7428910895855048
  0.5845004919589389  0.1611645006808728  0.0006721636588226
  0.4176309337561901  0.6665112056489469  0.2566306976400084
  0.2526311189213643  0.8042456280381781  0.4905418859418764
  0.7510494248529225  0.3307425922730493  0.2469626365535915
  0.5863475526870524  0.4705222227010693  0.5017612453629023
  0.4258733270492698  0.6743987439322171  0.7629224166262550
  0.2486105858493054  0.8393896401780870 -0.0114280452287475
  0.9126156392939394  0.1651140901875550  0.5237864527848739
  0.7469308742993374  0.3254652090633761  0.7464201247618516
  0.5779954246074299  0.4994469584899974 -0.0093885921201315
  0.9179386561139800  0.1643266446400189 -0.0038669740385138
  0.7545741225591087  0.6646632531999546  0.2561566602562863
  0.5789140179033251  0.8364997160335874  0.5168675222565916
  0.9182013714551914  0.5113842209883718  0.4857174659843673
  0.7519390119192730  0.6750659424903552  0.7376161488703020
  0.5882849394697861  0.8492020739970110 -0.0033389946664144
  0.9188148202853686  0.5006500887408178  0.0044713833110665
  0.9211622279966813  0.8163744559154283  0.4828195342556928
  0.9207810063858525  0.8447166053046199 -0.0045705671182939
  0.0018152883550674  0.1651791969488330  0.1296430289070425
 -0.0214549695489456  0.1631144944970855  0.6149858825357084
  0.0024859542859092  0.5026207640831366  0.1283762597461507
  0.3279011567723844  0.1589256470133726  0.1378063011098355
  0.1576616912919044  0.3311223913316001  0.3723661702784435
  0.0051347622640224  0.5083592981715336  0.6179526777609831
  0.3271963806853537  0.1606023723551154  0.6305592919715759
  0.1716616227803666  0.3355982583207768  0.8705219293025456
  0.0014279108270464  0.8391543447621265  0.1218744301850649
  0.3279760166891016  0.4925806907044228  0.1270391946945669
  0.1604953861983397  0.6601454354523587  0.3733570869512681
  0.0107266081215944  0.8145491266892810  0.6079080789741886
  0.6684116778035381  0.1699288973549762  0.1242118604285945
  0.5003873245417211  0.3270439471354861  0.3790867686441001
  0.3314429788914563  0.4717018789281689  0.6259641105726773
  0.1699411657484922  0.6760428066733479  0.8678677375789869
  0.6871600421521606  0.1642482718356565  0.6193845333907118
  0.4989060315899252  0.3325606834471861  0.8678817022771005
  0.3405797013075018  0.8420882624275603  0.1291304502145057
  0.1584824239027359 -0.0053596092799619  0.3837580857481168
  0.6681945199114590  0.4945085918995178  0.1292893361464307
  0.4995064998499144  0.6760670242718254  0.3831304855489403
  0.3465923828909481  0.8080527201990829  0.6351877591423051
  0.1644485746618767  0.0094649174666026  0.8864684873325701
  0.8307103237356327  0.3164672150428471  0.3783728673644446
  0.6682243532707566  0.5042595476941830  0.6145893528989477
  0.5036346020455112  0.6662467195162582  0.8736102632865770
  0.8283891334765481  0.3328220846895673  0.8728295808867501
  0.6709068676144149  0.8415828200798380  0.1234910391338911
  0.4793265142520687 -0.0026507263592046  0.3818773632356848
  0.8457638238439713  0.6630179447522804  0.3667183842263255
  0.6784378789686254  0.8377558704932097  0.6146841117146791
  0.5109905090225436  0.0058488241702132  0.8801254719631626
  0.8386457927899466  0.6729120794428114  0.8700237191194400
  0.8259042768050051  0.0222204247818600  0.3822444840480362
  0.8277761572659142  0.0056281568872022  0.8777699292711491
 -0.0093863028149640  0.0803791113180067  0.2587491116576285
 -0.0074048267050850  0.0882749970059528  0.7550368685674167
  0.0080058407722290  0.4197454581931327  0.2521187753637835
  0.3252232860757397  0.0811939584259060  0.2560494553078438
  0.1553902482270579  0.2489503319318812  0.4877360709113465
  0.0029775409023607  0.4181194046986376  0.7467525293777157
  0.3391302104276623  0.0844822702617449  0.7644846965018670
  0.1688788162649246  0.2444150091896093  0.0131090751258255
  0.0010768620154605  0.7464670778523175  0.2458803812962541
  0.3259186305213795  0.4094603156150388  0.2458524869398623
  0.1743480200496165  0.5717063941902218  0.4780776381132751
  0.0123941152426111  0.7657111598034729  0.7590355001699198
  0.6820289396663560  0.0860621988414555  0.2362837902965940
  0.4852860574377833  0.2535263649247233  0.5006990842619661
  0.3309197319108921  0.4115637516088281  0.7386175163780537
  0.1713289608758777  0.5813618975822793  0.0021090570903807
  0.6669301176508637  0.0864047784510046  0.7542117852366228
  0.5017443443795181  0.2438671499676930  0.0028647049079188
  0.3395178880083961  0.7463015256294375  0.2769360137260382
  0.1496525333353923  0.9177135821576314  0.4767834977251356
  0.6669674036427826  0.4127620730630999  0.2654061021243717
  0.5217037391836911  0.5765261835551861  0.4923519468192885
  0.3202106447675247  0.7453952597729873  0.7380688241654373
  0.1618545978463657  0.9266595229855323 -0.0056714498897297
  0.8340502935625898  0.2459502103675001  0.4734815260790000
  0.6650454467704926  0.4123452168299458  0.7341227825486185
  0.5042038169283850  0.5820287953205849 -0.0063098327816136
  0.8309428986396983  0.2521000420530226  0.0076351427606570
  0.6741441462329346  0.7535452677447014  0.2411614510287771
  0.4933458216318051  0.9085401048799461  0.5129663249475207
  0.8201377802700636  0.5859301786069306  0.4912350120395528
  0.6706276984744070  0.7669714214728476  0.7589419226745121
  0.4846591477266080  0.9230671746858812  0.0032045096964386
  0.8364565244559474  0.5828754268884292 -0.0024301212274912
  0.8216584064146688  0.9200035927779739  0.4817411483750347
  0.8403646993962147  0.9254051837897675 -0.0026358244563968
 
  0.00000000E+00  0.00000000E+00  0.00000000E+00
  0.00000000E+00  0.00000000E+00  0.00000000E+00
  0.00000000E+00  0.00000000E+00  0.00000000E+00
  0.00000000E+00  0.00000000E+00  0.00000000E+00
  0.00000000E+00  0.00000000E+00  0.00000000E+00
  0.00000000E+00  0.00000000E+00  0.00000000E+00
  0.00000000E+00  0.00000000E+00  0.00000000E+00
  0.00000000E+00  0.00000000E+00  0.00000000E+00
  0.00000000E+00  0.00000000E+00  0.00000000E+00
  0.00000000E+00  0.00000000E+00  0.00000000E+00
  0.00000000E+00  0.00000000E+00  0.00000000E+00
  0.00000000E+00  0.00000000E+00  0.00000000E+00
  0.00000000E+00  0.00000000E+00  0.00000000E+00
  0.00000000E+00  0.00000000E+00  0.00000000E+00
  0.00000000E+00  0.00000000E+00  0.00000000E+00
  0.00000000E+00  0.00000000E+00  0.00000000E+00
  0.00000000E+00  0.00000000E+00  0.00000000E+00
  0.00000000E+00  0.00000000E+00  0.00000000E+00
  0.00000000E+00  0.00000000E+00  0.00000000E+00
  0.00000000E+00  0.00000000E+00  0.00000000E+00
  0.00000000E+00  0.00000000E+00  0.00000000E+00
  0.00000000E+00  0.00000000E+00  0.00000000E+00
  0.00000000E+00  0.00000000E+00  0.00000000E+00
  0.00000000E+00  0.00000000E+00  0.00000000E+00
  0.00000000E+00  0.00000000E+00  0.00000000E+00
  0.00000000E+00  0.00000000E+00  0.00000000E+00
  0.00000000E+00  0.00000000E+00  0.00000000E+00
  0.00000000E+00  0.00000000E+00  0.00000000E+00
  0.00000000E+00  0.00000000E+00  0.00000000E+00
  0.00000000E+00  0.00000000E+00  0.00000000E+00
  0.00000000E+00  0.00000000E+00  0.00000000E+00
  0.00000000E+00  0.00000000E+00  0.00000000E+00
  0.00000000E+00  0.00000000E+00  0.00000000E+00
  0.00000000E+00  0.00000000E+00  0.00000000E+00
  0.00000000E+00  0.00000000E+00  0.00000000E+00
  0.00000000E+00  0.00000000E+00  0.00000000E+00
  0.00000000E+00  0.00000000E+00  0.00000000E+00
  0.00000000E+00  0.00000000E+00  0.00000000E+00
  0.00000000E+00  0.00000000E+00  0.00000000E+00
  0.00000000E+00  0.00000000E+00  0.00000000E+00
  0.00000000E+00  0.00000000E+00  0.00000000E+00
  0.00000000E+00  0.00000000E+00  0.00000000E+00
  0.00000000E+00  0.00000000E+00  0.00000000E+00
  0.00000000E+00  0.00000000E+00  0.00000000E+00
  0.00000000E+00  0.00000000E+00  0.00000000E+00
  0.00000000E+00  0.00000000E+00  0.00000000E+00
  0.00000000E+00  0.00000000E+00  0.00000000E+00
  0.00000000E+00  0.00000000E+00  0.00000000E+00
  0.00000000E+00  0.00000000E+00  0.00000000E+00
  0.00000000E+00  0.00000000E+00  0.00000000E+00
  0.00000000E+00  0.00000000E+00  0.00000000E+00
  0.00000000E+00  0.00000000E+00  0.00000000E+00
  0.00000000E+00  0.00000000E+00  0.00000000E+00
  0.00000000E+00  0.00000000E+00  0.00000000E+00
  0.00000000E+00  0.00000000E+00  0.00000000E+00
  0.00000000E+00  0.00000000E+00  0.00000000E+00
  0.00000000E+00  0.00000000E+00  0.00000000E+00
  0.00000000E+00  0.00000000E+00  0.00000000E+00
  0.00000000E+00  0.00000000E+00  0.00000000E+00
  0.00000000E+00  0.00000000E+00  0.00000000E+00
  0.00000000E+00  0.00000000E+00  0.00000000E+00
  0.00000000E+00  0.00000000E+00  0.00000000E+00
  0.00000000E+00  0.00000000E+00  0.00000000E+00
  0.00000000E+00  0.00000000E+00  0.00000000E+00
  0.00000000E+00  0.00000000E+00  0.00000000E+00
  0.00000000E+00  0.00000000E+00  0.00000000E+00
  0.00000000E+00  0.00000000E+00  0.00000000E+00
  0.00000000E+00  0.00000000E+00  0.00000000E+00
  0.00000000E+00  0.00000000E+00  0.00000000E+00
  0.00000000E+00  0.00000000E+00  0.00000000E+00
  0.00000000E+00  0.00000000E+00  0.00000000E+00
  0.00000000E+00  0.00000000E+00  0.00000000E+00
  0.00000000E+00  0.00000000E+00  0.00000000E+00
  0.00000000E+00  0.00000000E+00  0.00000000E+00
  0.00000000E+00  0.00000000E+00  0.00000000E+00
  0.00000000E+00  0.00000000E+00  0.00000000E+00
  0.00000000E+00  0.00000000E+00  0.00000000E+00
  0.00000000E+00  0.00000000E+00  0.00000000E+00
  0.00000000E+00  0.00000000E+00  0.00000000E+00
  0.00000000E+00  0.00000000E+00  0.00000000E+00
  0.00000000E+00  0.00000000E+00  0.00000000E+00
  0.00000000E+00  0.00000000E+00  0.00000000E+00
  0.00000000E+00  0.00000000E+00  0.00000000E+00
  0.00000000E+00  0.00000000E+00  0.00000000E+00
  0.00000000E+00  0.00000000E+00  0.00000000E+00
  0.00000000E+00  0.00000000E+00  0.00000000E+00
  0.00000000E+00  0.00000000E+00  0.00000000E+00
  0.00000000E+00  0.00000000E+00  0.00000000E+00
  0.00000000E+00  0.00000000E+00  0.00000000E+00
  0.00000000E+00  0.00000000E+00  0.00000000E+00
  0.00000000E+00  0.00000000E+00  0.00000000E+00
  0.00000000E+00  0.00000000E+00  0.00000000E+00
  0.00000000E+00  0.00000000E+00  0.00000000E+00
  0.00000000E+00  0.00000000E+00  0.00000000E+00
  0.00000000E+00  0.00000000E+00  0.00000000E+00
  0.00000000E+00  0.00000000E+00  0.00000000E+00
  0.00000000E+00  0.00000000E+00  0.00000000E+00
  0.00000000E+00  0.00000000E+00  0.00000000E+00
  0.00000000E+00  0.00000000E+00  0.00000000E+00
  0.00000000E+00  0.00000000E+00  0.00000000E+00
  0.00000000E+00  0.00000000E+00  0.00000000E+00
  0.00000000E+00  0.00000000E+00  0.00000000E+00
  0.00000000E+00  0.00000000E+00  0.00000000E+00
  0.00000000E+00  0.00000000E+00  0.00000000E+00
  0.00000000E+00  0.00000000E+00  0.00000000E+00
  0.00000000E+00  0.00000000E+00  0.00000000E+00
  0.00000000E+00  0.00000000E+00  0.00000000E+00
  0.00000000E+00  0.00000000E+00  0.00000000E+00
  0.00000000E+00  0.00000000E+00  0.00000000E+00
  0.00000000E+00  0.00000000E+00  0.00000000E+00
  0.00000000E+00  0.00000000E+00  0.00000000E+00
  0.00000000E+00  0.00000000E+00  0.00000000E+00
  0.00000000E+00  0.00000000E+00  0.00000000E+00
  0.00000000E+00  0.00000000E+00  0.00000000E+00
  0.00000000E+00  0.00000000E+00  0.00000000E+00
  0.00000000E+00  0.00000000E+00  0.00000000E+00
  0.00000000E+00  0.00000000E+00  0.00000000E+00
  0.00000000E+00  0.00000000E+00  0.00000000E+00
  0.00000000E+00  0.00000000E+00  0.00000000E+00
  0.00000000E+00  0.00000000E+00  0.00000000E+00
  0.00000000E+00  0.00000000E+00  0.00000000E+00
  0.00000000E+00  0.00000000E+00  0.00000000E+00
  0.00000000E+00  0.00000000E+00  0.00000000E+00
  0.00000000E+00  0.00000000E+00  0.00000000E+00
  0.00000000E+00  0.00000000E+00  0.00000000E+00
  0.00000000E+00  0.00000000E+00  0.00000000E+00
  0.00000000E+00  0.00000000E+00  0.00000000E+00
  0.00000000E+00  0.00000000E+00  0.00000000E+00
  0.00000000E+00  0.00000000E+00  0.00000000E+00
  0.00000000E+00  0.00000000E+00  0.00000000E+00
  0.00000000E+00  0.00000000E+00  0.00000000E+00
  0.00000000E+00  0.00000000E+00  0.00000000E+00
  0.00000000E+00  0.00000000E+00  0.00000000E+00
  0.00000000E+00  0.00000000E+00  0.00000000E+00
  0.00000000E+00  0.00000000E+00  0.00000000E+00
  0.00000000E+00  0.00000000E+00  0.00000000E+00
  0.00000000E+00  0.00000000E+00  0.00000000E+00
  0.00000000E+00  0.00000000E+00  0.00000000E+00
  0.00000000E+00  0.00000000E+00  0.00000000E+00
  0.00000000E+00  0.00000000E+00  0.00000000E+00
  0.00000000E+00  0.00000000E+00  0.00000000E+00
  0.00000000E+00  0.00000000E+00  0.00000000E+00
  0.00000000E+00  0.00000000E+00  0.00000000E+00
  0.00000000E+00  0.00000000E+00  0.00000000E+00
  0.00000000E+00  0.00000000E+00  0.00000000E+00
  0.00000000E+00  0.00000000E+00  0.00000000E+00
  0.00000000E+00  0.00000000E+00  0.00000000E+00
  0.00000000E+00  0.00000000E+00  0.00000000E+00
  0.00000000E+00  0.00000000E+00  0.00000000E+00
  0.00000000E+00  0.00000000E+00  0.00000000E+00
  0.00000000E+00  0.00000000E+00  0.00000000E+00
  0.00000000E+00  0.00000000E+00  0.00000000E+00
  0.00000000E+00  0.00000000E+00  0.00000000E+00
  0.00000000E+00  0.00000000E+00  0.00000000E+00
  0.00000000E+00  0.00000000E+00  0.00000000E+00
  0.00000000E+00  0.00000000E+00  0.00000000E+00
  0.00000000E+00  0.00000000E+00  0.00000000E+00
  0.00000000E+00  0.00000000E+00  0.00000000E+00
  0.00000000E+00  0.00000000E+00  0.00000000E+00
  0.00000000E+00  0.00000000E+00  0.00000000E+00
  0.00000000E+00  0.00000000E+00  0.00000000E+00
  0.00000000E+00  0.00000000E+00  0.00000000E+00
  0.00000000E+00  0.00000000E+00  0.00000000E+00
  0.00000000E+00  0.00000000E+00  0.00000000E+00
  0.00000000E+00  0.00000000E+00  0.00000000E+00
  0.00000000E+00  0.00000000E+00  0.00000000E+00
  0.00000000E+00  0.00000000E+00  0.00000000E+00
  0.00000000E+00  0.00000000E+00  0.00000000E+00
  0.00000000E+00  0.00000000E+00  0.00000000E+00
  0.00000000E+00  0.00000000E+00  0.00000000E+00
  0.00000000E+00  0.00000000E+00  0.00000000E+00
  0.00000000E+00  0.00000000E+00  0.00000000E+00
  0.00000000E+00  0.00000000E+00  0.00000000E+00
  0.00000000E+00  0.00000000E+00  0.00000000E+00
  0.00000000E+00  0.00000000E+00  0.00000000E+00
  0.00000000E+00  0.00000000E+00  0.00000000E+00
  0.00000000E+00  0.00000000E+00  0.00000000E+00
  0.00000000E+00  0.00000000E+00  0.00000000E+00
  0.00000000E+00  0.00000000E+00  0.00000000E+00
  0.00000000E+00  0.00000000E+00  0.00000000E+00
  0.00000000E+00  0.00000000E+00  0.00000000E+00
  0.00000000E+00  0.00000000E+00  0.00000000E+00
  0.00000000E+00  0.00000000E+00  0.00000000E+00
  0.00000000E+00  0.00000000E+00  0.00000000E+00
  0.00000000E+00  0.00000000E+00  0.00000000E+00
  0.00000000E+00  0.00000000E+00  0.00000000E+00
  0.00000000E+00  0.00000000E+00  0.00000000E+00
  0.00000000E+00  0.00000000E+00  0.00000000E+00
  0.00000000E+00  0.00000000E+00  0.00000000E+00
  0.00000000E+00  0.00000000E+00  0.00000000E+00
  0.00000000E+00  0.00000000E+00  0.00000000E+00
  0.00000000E+00  0.00000000E+00  0.00000000E+00
  0.00000000E+00  0.00000000E+00  0.00000000E+00
  0.00000000E+00  0.00000000E+00  0.00000000E+00
  0.00000000E+00  0.00000000E+00  0.00000000E+00
  0.00000000E+00  0.00000000E+00  0.00000000E+00
  0.00000000E+00  0.00000000E+00  0.00000000E+00
  0.00000000E+00  0.00000000E+00  0.00000000E+00
  0.00000000E+00  0.00000000E+00  0.00000000E+00
  0.00000000E+00  0.00000000E+00  0.00000000E+00
  0.00000000E+00  0.00000000E+00  0.00000000E+00
  0.00000000E+00  0.00000000E+00  0.00000000E+00
  0.00000000E+00  0.00000000E+00  0.00000000E+00
  0.00000000E+00  0.00000000E+00  0.00000000E+00
  0.00000000E+00  0.00000000E+00  0.00000000E+00
  0.00000000E+00  0.00000000E+00  0.00000000E+00
  0.00000000E+00  0.00000000E+00  0.00000000E+00
  0.00000000E+00  0.00000000E+00  0.00000000E+00
  0.00000000E+00  0.00000000E+00  0.00000000E+00
  0.00000000E+00  0.00000000E+00  0.00000000E+00
  0.00000000E+00  0.00000000E+00  0.00000000E+00
  0.00000000E+00  0.00000000E+00  0.00000000E+00
  0.00000000E+00  0.00000000E+00  0.00000000E+00
  0.00000000E+00  0.00000000E+00  0.00000000E+00
  0.00000000E+00  0.00000000E+00  0.00000000E+00
  0.00000000E+00  0.00000000E+00  0.00000000E+00
  0.00000000E+00  0.00000000E+00  0.00000000E+00
  0.00000000E+00  0.00000000E+00  0.00000000E+00
  0.00000000E+00  0.00000000E+00  0.00000000E+00
  0.00000000E+00  0.00000000E+00  0.00000000E+00
  0.00000000E+00  0.00000000E+00  0.00000000E+00
  0.00000000E+00  0.00000000E+00  0.00000000E+00
  0.00000000E+00  0.00000000E+00  0.00000000E+00
  0.00000000E+00  0.00000000E+00  0.00000000E+00
  0.00000000E+00  0.00000000E+00  0.00000000E+00
  0.00000000E+00  0.00000000E+00  0.00000000E+00
  0.00000000E+00  0.00000000E+00  0.00000000E+00
  0.00000000E+00  0.00000000E+00  0.00000000E+00
  0.00000000E+00  0.00000000E+00  0.00000000E+00
  0.00000000E+00  0.00000000E+00  0.00000000E+00
  0.00000000E+00  0.00000000E+00  0.00000000E+00
  0.00000000E+00  0.00000000E+00  0.00000000E+00
  0.00000000E+00  0.00000000E+00  0.00000000E+00
  0.00000000E+00  0.00000000E+00  0.00000000E+00
  0.00000000E+00  0.00000000E+00  0.00000000E+00
  0.00000000E+00  0.00000000E+00  0.00000000E+00
  0.00000000E+00  0.00000000E+00  0.00000000E+00
  0.00000000E+00  0.00000000E+00  0.00000000E+00
  0.00000000E+00  0.00000000E+00  0.00000000E+00
  0.00000000E+00  0.00000000E+00  0.00000000E+00
  0.00000000E+00  0.00000000E+00  0.00000000E+00
  0.00000000E+00  0.00000000E+00  0.00000000E+00
  0.00000000E+00  0.00000000E+00  0.00000000E+00
  0.00000000E+00  0.00000000E+00  0.00000000E+00
  0.00000000E+00  0.00000000E+00  0.00000000E+00
  0.00000000E+00  0.00000000E+00  0.00000000E+00
  0.00000000E+00  0.00000000E+00  0.00000000E+00
  0.00000000E+00  0.00000000E+00  0.00000000E+00
  0.00000000E+00  0.00000000E+00  0.00000000E+00
  0.00000000E+00  0.00000000E+00  0.00000000E+00
  0.00000000E+00  0.00000000E+00  0.00000000E+00
  0.00000000E+00  0.00000000E+00  0.00000000E+00
