POSCAR                                  
   1.00000000000000     
    10.3267742679333061    0.0200910869083945    0.0030309792241541
     0.0199408338537239   10.2812754008721221    0.0886604892824715
     0.0018067919523501    0.0590426349736607    6.8885796017613368
   Sc   Zr   Y    K    H 
     9     9     9     9   216
Direct
  0.1592511720386138  0.1625858817551219  0.2606571689655167
  0.1689246388418907  0.4974046880796198  0.2425143482080222
  0.8356668289417043  0.1696034267928526  0.2373535584281313
  0.6766379383394009  0.3201021183029640  0.4994894359588841
  0.8353997870693742  0.1690916644926390  0.7638493427993406
  0.3306095941152177  0.0037128294089906  0.0124610504456393
  0.0056176128028406  0.6627095657786325  0.4914697996197233
  0.6729414611802201  0.0041769336193706  0.9982939204031348
  0.0013603250469278  0.0053759187431268  0.0098749212662432
  0.1580883029341606  0.1698893067932469  0.7506351388329174
  0.3237903256455562  0.3231745687345401  0.4960595767486251
  0.5004323476069569  0.1676885190287464  0.7481187710472166
  0.3333362566457603  0.3256513928606368  0.0012185354421261
  0.6622930253338848  0.3355223904461079  0.9936365026060399
  0.8334899314170070  0.4944518149757538  0.2494320063869555
  0.6642227692505693  0.6742081904019284  0.4974806576857453
  0.4998737268815505  0.8358282987560297  0.7589483275968835
  0.8336188333835195  0.8380808818487291  0.2463821051920888
  0.5019786148311984  0.1606122510419223  0.2594126895292451
  0.1708278930484369  0.8317239231355900  0.2481122548969737
  0.4996176898227576  0.4982238840860934  0.2497974244191684
  0.3349543594106492  0.6722357728767735  0.0094327352069665
  0.8348001561598904  0.5017257230733217  0.7409597874526161
  0.6708993234615361  0.6686617023877039  0.9996124637740361
  0.0044244787958427  0.3358196943018933  0.9982786155243436
  0.8415705730575909  0.8445287524287463  0.7384237740655363
  0.0043300253506971  0.6696595561208267  0.9950117360603653
  0.1697463883430625  0.5065330419109337  0.7404007449078366
  0.3396776517566407  0.6412338817613409  0.5194189211625726
  0.1726305388363938  0.8502285059343315  0.7330510507075383
  0.4977413980642738  0.5025128835047316  0.7396533358501679
  0.5038475243640312  0.8383475296808774  0.2550377029603079
  0.3215067589554126  0.9831497064821867  0.5186910322679296
  0.9924852284685060  0.3349354638448095  0.5004335179296698
  0.6575727694216362  0.0040903293224929  0.4913883978213565
  0.9912116039042512  0.9927416835577109  0.5110222279780344
  0.1651083284408352  0.0856448615815471  0.0138339949124013
  0.1585539405971796  0.0818045264177649  0.5113942794543275
  0.1735392283459110  0.4186937112652456  0.0001834800565261
  0.5000115884487677  0.0820336411235796  0.9994375835453202
  0.3265892761874757  0.2413351254156496  0.2530421676659563
  0.1624873755782091  0.4081949147602930  0.4876882407603890
  0.4832371475949540  0.0723412794146778  0.5081343453841987
  0.3312380340807663  0.2435838951102662  0.7536664215210488
  0.1679631984068584  0.7627483049693128  0.9859899089304793
  0.4968094025257017  0.4180228027710455  0.9903057433388534
  0.3254315169868818  0.5750918531702573  0.2549958513745967
  0.1887732473121406  0.7474103931657556  0.5061230502558841
  0.8334455168630802  0.0852544874867359  0.0134429351266744
  0.6745437185985580  0.2513761918727406  0.2426614218213499
  0.5227103709367731  0.4141222066958113  0.5015730523411042
  0.3362206827480959  0.5772119119219931  0.7833751819205516
  0.8302979186290800  0.0837758685661056  0.4666747768557879
  0.6691556612436315  0.2481104703991141  0.7492441824636579
  0.5026676771493298  0.7560552783147664  0.0096793038044106
  0.3382533128961152  0.9209439208063290  0.2500236093146813
  0.8310839152932403  0.4162660758297153  0.9977722056338630
  0.6713197166906407  0.5812239750187665  0.2570284668679453
  0.4925828310427915  0.7398761490826428  0.4856669320233805
  0.3426675587236831  0.9225131228872521  0.7837355846233163
  0.9983900233413773  0.2517186318717135  0.2531758896861264
  0.8218928829931545  0.4143920577559678  0.4935227223039701
  0.6637318772341024  0.5804465377050316  0.7438713933808409
  0.9945109620073505  0.2511993461125607  0.7503176740139264
  0.8375833061242847  0.7558510541063279  0.9949612331693783
  0.6709564435555885  0.9239756384954524  0.2347103630773630
  0.9986808452336599  0.5829128772656261  0.2467485532863101
  0.8316934907985973  0.7493040102357637  0.4891920966348886
  0.6700981698788857  0.9296233161517811  0.7524542910861581
  0.0043117338355745  0.5892364162625575  0.7397665297024626
  0.0008760526834616  0.9181262169126632  0.2486172709117895
  0.0072866076653084  0.9308001748273300  0.7792822707201793
  0.0822683533102198  0.1639647956288942  0.0096275346462964
  0.0715049199032454  0.1631974511387023  0.4888370173357873
  0.0905353943677448  0.5029967627794338  0.0044956131302594
  0.4172087326779371  0.1596844587536840  0.0033407907537952
  0.2437909784351149  0.3285629798576780  0.2472704614083220
  0.0759678198748572  0.5025022299971303  0.4845993218191873
  0.4102859739400395  0.1576078677909988  0.5057007770621980
  0.2491271807569684  0.3323302114550763  0.7596495363985525
  0.0867580052096800  0.8427891256517983  0.9939766297295473
  0.4161510571275447  0.4901161491360917  0.9952010986749479
  0.2532360994712186  0.6616110714425184  0.2686527971816959
  0.0800692158423731  0.8246464818553869  0.4948648551521702
  0.7479475007115678  0.1659581656030880  0.9895538497877697
  0.5866680378205896  0.3309274882084836  0.2621127659635486
  0.4200835321228565  0.4694269746301561  0.4939393586290050
  0.2517145499574265  0.6836103229940774  0.7647948308168242
  0.7495181050306808  0.1636162489103028  0.5278512416306239
  0.5806221851667424  0.3343970822050377  0.7272694038746421
  0.4214829606597004  0.8423264956205115  0.0054882132772963
  0.2435150355198142  0.0075946479105459  0.2558792766641594
  0.7518024870933914  0.4980116321950062  0.9981731970457152
  0.5856928597954068  0.6672864130808697  0.2530509455877202
  0.4156296646318162  0.8186532060846549  0.5109580140706463
  0.2494336094797555  0.0152009953301005  0.7791617594487480
  0.9170910546188854  0.3279096455585938  0.2468023453051346
  0.7484357637889971  0.5089465440970505  0.4910219711021465
  0.5871273541591828  0.6710205885770654  0.7463745063333869
  0.9157088839771502  0.3265696715634432  0.7524500648346115
  0.7530025701078198  0.8446535419813752  0.9905400568008246
  0.5886561428614324  0.9991181138487752  0.2251175584224282
  0.9173331407724367  0.6662023450465194  0.2635771112137658
  0.7469236203546614  0.8381844504937912  0.4988762481766868
  0.5862547797940288  0.9999468131957185  0.7639763180635117
  0.9181703591041772  0.6731881615842242  0.7256279223160121
  0.9174433533786389  0.0068941924283720  0.2486469036915971
  0.9182277600706030  0.0178757752473447  0.7707468309736114
  0.1647036379266776  0.0102496571742003  0.1274870416476762
  0.1544322379274129  0.0207162755781348  0.6294749470055906
  0.1709747175526197  0.3283066226397981  0.1291628505747531
  0.4968794036557182  0.9993397152692169  0.1160045560000910
  0.3233398297417321  0.1530946865540940  0.3848467162160284
  0.1609213610424220  0.3352731380032760  0.6209917303156517
  0.4929391986960010  0.0025726792663043  0.6346531304172636
  0.3306347164166359  0.1605642500172096  0.8820371460424414
  0.1657889656405305  0.6631065657936167  0.1282829812964751
  0.4994211768867375  0.3287049750215155  0.1277317178497911
  0.3251365734867268  0.4847629990757333  0.3682774209349562
  0.1536536247926777  0.6796879198743779  0.6181586124015608
  0.8365328089957477  0.0046581010789812  0.1166518297055753
  0.6837273351697151  0.1703291483502548  0.3701336693222608
  0.5019959727896341  0.3295323723527703  0.6275698876451018
  0.3325746155798768  0.5090627139067484  0.8697401889205343
  0.8212736461765238  0.0222303382551088  0.6287064027597690
  0.6692549623052610  0.1673813416722819  0.8782727624281567
  0.5053973816742665  0.6714029345210010  0.1284129700704050
  0.3399235638761490  0.8163006038356793  0.3785490865996097
  0.8309013073848910  0.3329154070824522  0.1183833307833715
  0.6708757575537724  0.4895490062003167  0.3750373982669327
  0.5043665462424413  0.6793403704865664  0.6355888395099721
  0.3299950866975104  0.8441782389203975  0.8829714369085939
  0.9959239744480843  0.1623717923925058  0.3777235849355706
  0.8261201364135797  0.3228075755595701  0.6264882331522919
  0.6663278901327403  0.5015877666930060  0.8626605355799896
  0.9996439974180784  0.1644612130470771  0.8877785324345606
  0.8381944269312156  0.6664098839211090  0.1256792233136349
  0.6718380295673693  0.8363787385218482  0.3744863904229974
  0.0099682875758578  0.5024030595336665  0.3741110097729511
  0.8391067321728729  0.6729468961318041  0.6112970577636255
  0.6724576096879236  0.8372064501548084  0.8682404181929898
  0.0010653538266866  0.5065780394383151  0.8625178624665938
  0.9976311565801884  0.8298377233225528  0.3695007283198872
  0.0088385113640740  0.8322569237758467  0.8595687835601022
  0.0772347875292580  0.0045313909841876  0.2531995309552527
  0.0772190771623834  0.0067649932116582  0.7697386949537358
  0.0820433394680836  0.3285457328503836  0.2548945928931955
  0.4078421655121143  0.9959805872343734  0.2620184195579774
  0.2453906850126412  0.1534623403514406  0.4983692912889990
  0.0842435365722466  0.3379759206075200  0.7419809442571909
  0.4137908242029368  0.0015310807073133  0.7675809362992747
  0.2495085246246298  0.1611874457136873  0.0044676821401022
  0.0861754149248012  0.6623267676583453  0.2582882147771518
  0.4155274503593446  0.3315495139048538  0.2507566651946961
  0.2348006094701628  0.4976713793001739  0.4799891705697142
  0.0883669755950121  0.6748204581618592  0.7261644019882171
  0.7529131909843768  0.0062730894416891  0.2440345908569560
  0.5835069981631724  0.1759287728929970  0.5109021692286791
  0.4175113719754282  0.3335242610591462  0.7509692159632541
  0.2508828031305936  0.4931685694774806  0.9949011743927541
  0.7488302720141194  0.0113621881941664  0.7439816631356612
  0.5833944822185479  0.1611128107351183 -0.0001814134866601
  0.4163844274100675  0.6681118229545193  0.2606691175013667
  0.2523133443506260  0.8042132138841023  0.4896634562413190
  0.7495324398412440  0.3303813003555690  0.2475420319156718
  0.5860080829995498  0.4712322910638772  0.5015068321331672
  0.4253756335948405  0.6749897913877189  0.7616406133019642
  0.2489503210483630  0.8387251878776908  0.9857906356630852
  0.9135057954062413  0.1645664155538487  0.5243697979268321
  0.7472386845251950  0.3257890362382145  0.7446107437241437
  0.5791157447594699  0.4992676715813720  0.9924049413066579
  0.9182988945917822  0.1654654479240670  0.9958577490010257
  0.7535621621100529  0.6642422265879980  0.2570969369178918
  0.5794903064270327  0.8374605999276681  0.5131043925141118
  0.9185578117823707  0.5096224704464908  0.4838711919865121
  0.7524810701141846  0.6768202383763302  0.7382490046790723
  0.5868752636869663  0.8481076604455223  0.9980019070034568
  0.9191429066191864  0.5010555899251921  0.0047136628613298
  0.9199790722479816  0.8166231945327085  0.4848622515903351
  0.9207060282881600  0.8454467191728690  0.9945501369641329
  0.0029758235433796  0.1652724153068901  0.1296231226051716
  0.9791001766771187  0.1627820965774052  0.6142217552786947
  0.0028152398531624  0.5028554643431744  0.1269869282773575
  0.3258447179557732  0.1589568262282930  0.1360835120304869
  0.1588096789493892  0.3289424023188008  0.3724360124129733
  0.0054955096798621  0.5077457013914476  0.6160881583300136
  0.3278332998818411  0.1592185266657330  0.6304289018660880
  0.1723743005192623  0.3359547417911347  0.8686116727466089
  0.0004206382489650  0.8399009437438715  0.1248135661329387
  0.3286215951091108  0.4914229936403777  0.1272188233694490
  0.1620669107953401  0.6589399605689227  0.3724042845327169
  0.0104996271610765  0.8135755987780005  0.6068329308420208
  0.6683401398326945  0.1703883111805634  0.1240642284155133
  0.4986505553469581  0.3262846758788319  0.3798670756288496
  0.3325828192893351  0.4709947489335545  0.6251713870770441
  0.1696381782955102  0.6740871905461225  0.8704689492194322
  0.6870118644817939  0.1635200483034231  0.6199168549435216
  0.4989606522054648  0.3333391779098911  0.8664431265794434
  0.3392773677431973  0.8412625128969999  0.1288744240618604
  0.1592672468164362  0.9944022686572714  0.3840566700772995
  0.6687793687770758  0.4941594960816885  0.1291886773294302
  0.4984597623322685  0.6757279602184021  0.3838781870518810
  0.3470450057438357  0.8090302642859115  0.6353995410343496
  0.1657791249136113  0.0073544771927216  0.8848899294379207
  0.8302871847896948  0.3171576681655942  0.3790734174848296
  0.6681222074538988  0.5038966531175124  0.6160399741234255
  0.5045529143504278  0.6664501039240625  0.8766295779019813
  0.8288474034610874  0.3334111031794691  0.8717153801152123
  0.6697611641000411  0.8411397947073560  0.1254865410225377
  0.4829549622201532  0.9997657702528566  0.3888498219686021
  0.8463842376796563  0.6638616672115023  0.3674723451955844
  0.6727893736533074  0.8351811179781400  0.6183354045690708
  0.5080722959107840  0.0048690745659795  0.8776456293013828
  0.8384255002978671  0.6729301200487819  0.8686031109955299
  0.8276977525644014  0.0227985694402048  0.3818547587963991
  0.8292603267033927  0.0061822796854177  0.8780376242644726
  0.9910911167586852  0.0809092219968659  0.2585735539372540
  0.9935820438550373  0.0887822488362712  0.7544234815728504
  0.0078434081831189  0.4190844874959858  0.2506322225550850
  0.3245157347331054  0.0809137347258039  0.2603623576103947
  0.1563119230355282  0.2482667640201621  0.4875009518743457
  0.0036207689639653  0.4189779070565756  0.7455359140003311
  0.3374125868979741  0.0838507657342326  0.7612583360938836
  0.1688971729788764  0.2460604590032953  0.0139681978750752
  0.0004130146572539  0.7474687267675548  0.2458094796974644
  0.3266480526337645  0.4100642441091495  0.2479746751500091
  0.1737496789135480  0.5707308652719182  0.4767871031865248
  0.0098003395765947  0.7667151457570803  0.7593944000051227
  0.6815865437093572  0.0863193222325913  0.2375237779600722
  0.4912329017288330  0.2555280324515422  0.5001076877025253
  0.3319881592426891  0.4117224969100231  0.7390600069288941
  0.1709551593341122  0.5806893822938044  0.9990700662808508
  0.6658288409289734  0.0863860773881087  0.7533932231376393
  0.5009568415331181  0.2457142459687239  0.0035342052744534
  0.3396487780677160  0.7444309918892072  0.2766961528830573
  0.1509515277575661  0.9170560915500547  0.4760338745218478
  0.6676904687521261  0.4130019116306988  0.2680934703290227
  0.5187556726374241  0.5770301251100455  0.4925177710096997
  0.3188996578903631  0.7444570579904767  0.7413829952957752
  0.1635314030804139  0.9263993561278386  0.9934234859878130
  0.8330381970523106  0.2461371829904419  0.4743082471842102
  0.6654863928904580  0.4130279127022010  0.7337316436140325
  0.5038815054448140  0.5818600082174905  0.9924817480899947
  0.8307961198703849  0.2522533632002532  0.0062945814539862
  0.6718343774024266  0.7541364532171742  0.2432909999374074
  0.4956355988681504  0.9077128970024944  0.5112550773207331
  0.8232289111661854  0.5864580360991635  0.4906621760965418
  0.6717460664622978  0.7660592958633293  0.7603972571403755
  0.4884819165538574  0.9250867453209596  0.0062070460037198
  0.8369441679493791  0.5841507266085515  0.9969175498810207
  0.8225355276464341  0.9198532487779220  0.4818584779353771
  0.8377430063577208  0.9256244139174192  0.9975714222753832
 
  0.00000000E+00  0.00000000E+00  0.00000000E+00
  0.00000000E+00  0.00000000E+00  0.00000000E+00
  0.00000000E+00  0.00000000E+00  0.00000000E+00
  0.00000000E+00  0.00000000E+00  0.00000000E+00
  0.00000000E+00  0.00000000E+00  0.00000000E+00
  0.00000000E+00  0.00000000E+00  0.00000000E+00
  0.00000000E+00  0.00000000E+00  0.00000000E+00
  0.00000000E+00  0.00000000E+00  0.00000000E+00
  0.00000000E+00  0.00000000E+00  0.00000000E+00
  0.00000000E+00  0.00000000E+00  0.00000000E+00
  0.00000000E+00  0.00000000E+00  0.00000000E+00
  0.00000000E+00  0.00000000E+00  0.00000000E+00
  0.00000000E+00  0.00000000E+00  0.00000000E+00
  0.00000000E+00  0.00000000E+00  0.00000000E+00
  0.00000000E+00  0.00000000E+00  0.00000000E+00
  0.00000000E+00  0.00000000E+00  0.00000000E+00
  0.00000000E+00  0.00000000E+00  0.00000000E+00
  0.00000000E+00  0.00000000E+00  0.00000000E+00
  0.00000000E+00  0.00000000E+00  0.00000000E+00
  0.00000000E+00  0.00000000E+00  0.00000000E+00
  0.00000000E+00  0.00000000E+00  0.00000000E+00
  0.00000000E+00  0.00000000E+00  0.00000000E+00
  0.00000000E+00  0.00000000E+00  0.00000000E+00
  0.00000000E+00  0.00000000E+00  0.00000000E+00
  0.00000000E+00  0.00000000E+00  0.00000000E+00
  0.00000000E+00  0.00000000E+00  0.00000000E+00
  0.00000000E+00  0.00000000E+00  0.00000000E+00
  0.00000000E+00  0.00000000E+00  0.00000000E+00
  0.00000000E+00  0.00000000E+00  0.00000000E+00
  0.00000000E+00  0.00000000E+00  0.00000000E+00
  0.00000000E+00  0.00000000E+00  0.00000000E+00
  0.00000000E+00  0.00000000E+00  0.00000000E+00
  0.00000000E+00  0.00000000E+00  0.00000000E+00
  0.00000000E+00  0.00000000E+00  0.00000000E+00
  0.00000000E+00  0.00000000E+00  0.00000000E+00
  0.00000000E+00  0.00000000E+00  0.00000000E+00
  0.00000000E+00  0.00000000E+00  0.00000000E+00
  0.00000000E+00  0.00000000E+00  0.00000000E+00
  0.00000000E+00  0.00000000E+00  0.00000000E+00
  0.00000000E+00  0.00000000E+00  0.00000000E+00
  0.00000000E+00  0.00000000E+00  0.00000000E+00
  0.00000000E+00  0.00000000E+00  0.00000000E+00
  0.00000000E+00  0.00000000E+00  0.00000000E+00
  0.00000000E+00  0.00000000E+00  0.00000000E+00
  0.00000000E+00  0.00000000E+00  0.00000000E+00
  0.00000000E+00  0.00000000E+00  0.00000000E+00
  0.00000000E+00  0.00000000E+00  0.00000000E+00
  0.00000000E+00  0.00000000E+00  0.00000000E+00
  0.00000000E+00  0.00000000E+00  0.00000000E+00
  0.00000000E+00  0.00000000E+00  0.00000000E+00
  0.00000000E+00  0.00000000E+00  0.00000000E+00
  0.00000000E+00  0.00000000E+00  0.00000000E+00
  0.00000000E+00  0.00000000E+00  0.00000000E+00
  0.00000000E+00  0.00000000E+00  0.00000000E+00
  0.00000000E+00  0.00000000E+00  0.00000000E+00
  0.00000000E+00  0.00000000E+00  0.00000000E+00
  0.00000000E+00  0.00000000E+00  0.00000000E+00
  0.00000000E+00  0.00000000E+00  0.00000000E+00
  0.00000000E+00  0.00000000E+00  0.00000000E+00
  0.00000000E+00  0.00000000E+00  0.00000000E+00
  0.00000000E+00  0.00000000E+00  0.00000000E+00
  0.00000000E+00  0.00000000E+00  0.00000000E+00
  0.00000000E+00  0.00000000E+00  0.00000000E+00
  0.00000000E+00  0.00000000E+00  0.00000000E+00
  0.00000000E+00  0.00000000E+00  0.00000000E+00
  0.00000000E+00  0.00000000E+00  0.00000000E+00
  0.00000000E+00  0.00000000E+00  0.00000000E+00
  0.00000000E+00  0.00000000E+00  0.00000000E+00
  0.00000000E+00  0.00000000E+00  0.00000000E+00
  0.00000000E+00  0.00000000E+00  0.00000000E+00
  0.00000000E+00  0.00000000E+00  0.00000000E+00
  0.00000000E+00  0.00000000E+00  0.00000000E+00
  0.00000000E+00  0.00000000E+00  0.00000000E+00
  0.00000000E+00  0.00000000E+00  0.00000000E+00
  0.00000000E+00  0.00000000E+00  0.00000000E+00
  0.00000000E+00  0.00000000E+00  0.00000000E+00
  0.00000000E+00  0.00000000E+00  0.00000000E+00
  0.00000000E+00  0.00000000E+00  0.00000000E+00
  0.00000000E+00  0.00000000E+00  0.00000000E+00
  0.00000000E+00  0.00000000E+00  0.00000000E+00
  0.00000000E+00  0.00000000E+00  0.00000000E+00
  0.00000000E+00  0.00000000E+00  0.00000000E+00
  0.00000000E+00  0.00000000E+00  0.00000000E+00
  0.00000000E+00  0.00000000E+00  0.00000000E+00
  0.00000000E+00  0.00000000E+00  0.00000000E+00
  0.00000000E+00  0.00000000E+00  0.00000000E+00
  0.00000000E+00  0.00000000E+00  0.00000000E+00
  0.00000000E+00  0.00000000E+00  0.00000000E+00
  0.00000000E+00  0.00000000E+00  0.00000000E+00
  0.00000000E+00  0.00000000E+00  0.00000000E+00
  0.00000000E+00  0.00000000E+00  0.00000000E+00
  0.00000000E+00  0.00000000E+00  0.00000000E+00
  0.00000000E+00  0.00000000E+00  0.00000000E+00
  0.00000000E+00  0.00000000E+00  0.00000000E+00
  0.00000000E+00  0.00000000E+00  0.00000000E+00
  0.00000000E+00  0.00000000E+00  0.00000000E+00
  0.00000000E+00  0.00000000E+00  0.00000000E+00
  0.00000000E+00  0.00000000E+00  0.00000000E+00
  0.00000000E+00  0.00000000E+00  0.00000000E+00
  0.00000000E+00  0.00000000E+00  0.00000000E+00
  0.00000000E+00  0.00000000E+00  0.00000000E+00
  0.00000000E+00  0.00000000E+00  0.00000000E+00
  0.00000000E+00  0.00000000E+00  0.00000000E+00
  0.00000000E+00  0.00000000E+00  0.00000000E+00
  0.00000000E+00  0.00000000E+00  0.00000000E+00
  0.00000000E+00  0.00000000E+00  0.00000000E+00
  0.00000000E+00  0.00000000E+00  0.00000000E+00
  0.00000000E+00  0.00000000E+00  0.00000000E+00
  0.00000000E+00  0.00000000E+00  0.00000000E+00
  0.00000000E+00  0.00000000E+00  0.00000000E+00
  0.00000000E+00  0.00000000E+00  0.00000000E+00
  0.00000000E+00  0.00000000E+00  0.00000000E+00
  0.00000000E+00  0.00000000E+00  0.00000000E+00
  0.00000000E+00  0.00000000E+00  0.00000000E+00
  0.00000000E+00  0.00000000E+00  0.00000000E+00
  0.00000000E+00  0.00000000E+00  0.00000000E+00
  0.00000000E+00  0.00000000E+00  0.00000000E+00
  0.00000000E+00  0.00000000E+00  0.00000000E+00
  0.00000000E+00  0.00000000E+00  0.00000000E+00
  0.00000000E+00  0.00000000E+00  0.00000000E+00
  0.00000000E+00  0.00000000E+00  0.00000000E+00
  0.00000000E+00  0.00000000E+00  0.00000000E+00
  0.00000000E+00  0.00000000E+00  0.00000000E+00
  0.00000000E+00  0.00000000E+00  0.00000000E+00
  0.00000000E+00  0.00000000E+00  0.00000000E+00
  0.00000000E+00  0.00000000E+00  0.00000000E+00
  0.00000000E+00  0.00000000E+00  0.00000000E+00
  0.00000000E+00  0.00000000E+00  0.00000000E+00
  0.00000000E+00  0.00000000E+00  0.00000000E+00
  0.00000000E+00  0.00000000E+00  0.00000000E+00
  0.00000000E+00  0.00000000E+00  0.00000000E+00
  0.00000000E+00  0.00000000E+00  0.00000000E+00
  0.00000000E+00  0.00000000E+00  0.00000000E+00
  0.00000000E+00  0.00000000E+00  0.00000000E+00
  0.00000000E+00  0.00000000E+00  0.00000000E+00
  0.00000000E+00  0.00000000E+00  0.00000000E+00
  0.00000000E+00  0.00000000E+00  0.00000000E+00
  0.00000000E+00  0.00000000E+00  0.00000000E+00
  0.00000000E+00  0.00000000E+00  0.00000000E+00
  0.00000000E+00  0.00000000E+00  0.00000000E+00
  0.00000000E+00  0.00000000E+00  0.00000000E+00
  0.00000000E+00  0.00000000E+00  0.00000000E+00
  0.00000000E+00  0.00000000E+00  0.00000000E+00
  0.00000000E+00  0.00000000E+00  0.00000000E+00
  0.00000000E+00  0.00000000E+00  0.00000000E+00
  0.00000000E+00  0.00000000E+00  0.00000000E+00
  0.00000000E+00  0.00000000E+00  0.00000000E+00
  0.00000000E+00  0.00000000E+00  0.00000000E+00
  0.00000000E+00  0.00000000E+00  0.00000000E+00
  0.00000000E+00  0.00000000E+00  0.00000000E+00
  0.00000000E+00  0.00000000E+00  0.00000000E+00
  0.00000000E+00  0.00000000E+00  0.00000000E+00
  0.00000000E+00  0.00000000E+00  0.00000000E+00
  0.00000000E+00  0.00000000E+00  0.00000000E+00
  0.00000000E+00  0.00000000E+00  0.00000000E+00
  0.00000000E+00  0.00000000E+00  0.00000000E+00
  0.00000000E+00  0.00000000E+00  0.00000000E+00
  0.00000000E+00  0.00000000E+00  0.00000000E+00
  0.00000000E+00  0.00000000E+00  0.00000000E+00
  0.00000000E+00  0.00000000E+00  0.00000000E+00
  0.00000000E+00  0.00000000E+00  0.00000000E+00
  0.00000000E+00  0.00000000E+00  0.00000000E+00
  0.00000000E+00  0.00000000E+00  0.00000000E+00
  0.00000000E+00  0.00000000E+00  0.00000000E+00
  0.00000000E+00  0.00000000E+00  0.00000000E+00
  0.00000000E+00  0.00000000E+00  0.00000000E+00
  0.00000000E+00  0.00000000E+00  0.00000000E+00
  0.00000000E+00  0.00000000E+00  0.00000000E+00
  0.00000000E+00  0.00000000E+00  0.00000000E+00
  0.00000000E+00  0.00000000E+00  0.00000000E+00
  0.00000000E+00  0.00000000E+00  0.00000000E+00
  0.00000000E+00  0.00000000E+00  0.00000000E+00
  0.00000000E+00  0.00000000E+00  0.00000000E+00
  0.00000000E+00  0.00000000E+00  0.00000000E+00
  0.00000000E+00  0.00000000E+00  0.00000000E+00
  0.00000000E+00  0.00000000E+00  0.00000000E+00
  0.00000000E+00  0.00000000E+00  0.00000000E+00
  0.00000000E+00  0.00000000E+00  0.00000000E+00
  0.00000000E+00  0.00000000E+00  0.00000000E+00
  0.00000000E+00  0.00000000E+00  0.00000000E+00
  0.00000000E+00  0.00000000E+00  0.00000000E+00
  0.00000000E+00  0.00000000E+00  0.00000000E+00
  0.00000000E+00  0.00000000E+00  0.00000000E+00
  0.00000000E+00  0.00000000E+00  0.00000000E+00
  0.00000000E+00  0.00000000E+00  0.00000000E+00
  0.00000000E+00  0.00000000E+00  0.00000000E+00
  0.00000000E+00  0.00000000E+00  0.00000000E+00
  0.00000000E+00  0.00000000E+00  0.00000000E+00
  0.00000000E+00  0.00000000E+00  0.00000000E+00
  0.00000000E+00  0.00000000E+00  0.00000000E+00
  0.00000000E+00  0.00000000E+00  0.00000000E+00
  0.00000000E+00  0.00000000E+00  0.00000000E+00
  0.00000000E+00  0.00000000E+00  0.00000000E+00
  0.00000000E+00  0.00000000E+00  0.00000000E+00
  0.00000000E+00  0.00000000E+00  0.00000000E+00
  0.00000000E+00  0.00000000E+00  0.00000000E+00
  0.00000000E+00  0.00000000E+00  0.00000000E+00
  0.00000000E+00  0.00000000E+00  0.00000000E+00
  0.00000000E+00  0.00000000E+00  0.00000000E+00
  0.00000000E+00  0.00000000E+00  0.00000000E+00
  0.00000000E+00  0.00000000E+00  0.00000000E+00
  0.00000000E+00  0.00000000E+00  0.00000000E+00
  0.00000000E+00  0.00000000E+00  0.00000000E+00
  0.00000000E+00  0.00000000E+00  0.00000000E+00
  0.00000000E+00  0.00000000E+00  0.00000000E+00
  0.00000000E+00  0.00000000E+00  0.00000000E+00
  0.00000000E+00  0.00000000E+00  0.00000000E+00
  0.00000000E+00  0.00000000E+00  0.00000000E+00
  0.00000000E+00  0.00000000E+00  0.00000000E+00
  0.00000000E+00  0.00000000E+00  0.00000000E+00
  0.00000000E+00  0.00000000E+00  0.00000000E+00
  0.00000000E+00  0.00000000E+00  0.00000000E+00
  0.00000000E+00  0.00000000E+00  0.00000000E+00
  0.00000000E+00  0.00000000E+00  0.00000000E+00
  0.00000000E+00  0.00000000E+00  0.00000000E+00
  0.00000000E+00  0.00000000E+00  0.00000000E+00
  0.00000000E+00  0.00000000E+00  0.00000000E+00
  0.00000000E+00  0.00000000E+00  0.00000000E+00
  0.00000000E+00  0.00000000E+00  0.00000000E+00
  0.00000000E+00  0.00000000E+00  0.00000000E+00
  0.00000000E+00  0.00000000E+00  0.00000000E+00
  0.00000000E+00  0.00000000E+00  0.00000000E+00
  0.00000000E+00  0.00000000E+00  0.00000000E+00
  0.00000000E+00  0.00000000E+00  0.00000000E+00
  0.00000000E+00  0.00000000E+00  0.00000000E+00
  0.00000000E+00  0.00000000E+00  0.00000000E+00
  0.00000000E+00  0.00000000E+00  0.00000000E+00
  0.00000000E+00  0.00000000E+00  0.00000000E+00
  0.00000000E+00  0.00000000E+00  0.00000000E+00
  0.00000000E+00  0.00000000E+00  0.00000000E+00
  0.00000000E+00  0.00000000E+00  0.00000000E+00
  0.00000000E+00  0.00000000E+00  0.00000000E+00
  0.00000000E+00  0.00000000E+00  0.00000000E+00
  0.00000000E+00  0.00000000E+00  0.00000000E+00
  0.00000000E+00  0.00000000E+00  0.00000000E+00
  0.00000000E+00  0.00000000E+00  0.00000000E+00
  0.00000000E+00  0.00000000E+00  0.00000000E+00
  0.00000000E+00  0.00000000E+00  0.00000000E+00
  0.00000000E+00  0.00000000E+00  0.00000000E+00
  0.00000000E+00  0.00000000E+00  0.00000000E+00
  0.00000000E+00  0.00000000E+00  0.00000000E+00
  0.00000000E+00  0.00000000E+00  0.00000000E+00
  0.00000000E+00  0.00000000E+00  0.00000000E+00
  0.00000000E+00  0.00000000E+00  0.00000000E+00
  0.00000000E+00  0.00000000E+00  0.00000000E+00
  0.00000000E+00  0.00000000E+00  0.00000000E+00
  0.00000000E+00  0.00000000E+00  0.00000000E+00
  0.00000000E+00  0.00000000E+00  0.00000000E+00
  0.00000000E+00  0.00000000E+00  0.00000000E+00
  0.00000000E+00  0.00000000E+00  0.00000000E+00
  0.00000000E+00  0.00000000E+00  0.00000000E+00
  0.00000000E+00  0.00000000E+00  0.00000000E+00
