POSCAR                                  
   1.00000000000000     
    10.3267828656609701    0.0197883654481376    0.0015786222522373
     0.0196269258558578   10.2813303093449946    0.0894698368452848
     0.0008354594809613    0.0595870025503388    6.8885649487365317
   Sc   Zr   Y    K    H 
     9     9     9     9   216
Direct
  0.1591877246834294  0.1629455627838384  0.2607961626819577
  0.1691527884600836  0.4971278076779801  0.2428271939237102
  0.8354787260050618  0.1697141995727071  0.2373280655558857
  0.6766438077607211  0.3203729766682063  0.4992356914993203
  0.8351264591820123  0.1691455598439241  0.7637109539645760
  0.3304902312827085  0.0037438237549311  0.0127284803601115
  0.0060292373718314  0.6628385316787070  0.4913215216543423
  0.6732069474948431  0.0039415918782518  0.9977058943144852
  0.0013788296591284  0.0053759614725876  0.0099156039853185
  0.1578996680845007  0.1697317467671093  0.7508854634565546
  0.3236267278850740  0.3228778877463905  0.4965695391097641
  0.5004655994081895  0.1676158806209880  0.7479843938661292
  0.3336672157994555  0.3255788124201559  0.0010175954556816
  0.6621825862582680  0.3354925276742695  0.9938265276239980
  0.8335220153735050  0.4945460467396155  0.2493536537827138
  0.6643473154897455  0.6741728588714208  0.4974908775221228
  0.4999358585193484  0.8358875696796340  0.7589145286308075
  0.8338824586552415  0.8379812559172348  0.2466188266965486
  0.5020894752889616  0.1604513239202122  0.2592977338744318
  0.1711206427913195  0.8319375608358746  0.2482260365064472
  0.4994775217690937  0.4982578091148872  0.2498912979873821
  0.3350688925828939  0.6721766480352092  0.0095646282339123
  0.8347217007894558  0.5018409388307338  0.7407577717538193
  0.6711632420343538  0.6685928372950870  0.9993272596487780
  0.0043297343909546  0.3359283351480414  0.9982083305527611
  0.8416821232653972  0.8446119315279671  0.7384724380881049
  0.0045931551819994  0.6696074723921502  0.9952573137075947
  0.1694501580660661  0.5063156873763547  0.7411140049793697
  0.3400191551777461  0.6412659669678565  0.5193461186297879
  0.1728476502802141  0.8500925964613263  0.7331155863097105
  0.4975014721574373  0.5024808075708135  0.7394065688747119
  0.5043417103698752  0.8382256578971296  0.2546563048977472
  0.3209490713125918  0.9831049189912294  0.5191955407395389
  0.9923388152818948  0.3350107880157682  0.5005824955039716
  0.6569576542807719  0.0041481453055412  0.4905697794411156
  0.9907761041290543  0.9928398000436175  0.5108864339660395
  0.1649529900772881  0.0859202270984985  0.0134534794166509
  0.1581928196666811  0.0819132955845113  0.5114983713126932
  0.1736961847836977  0.4184513578076033  0.0005060413855004
  0.5008721730428972  0.0820903338806120 -0.0011357190708380
  0.3262284177893802  0.2411776106624329  0.2529153790899046
  0.1624284192444476  0.4077982820563300  0.4889649447929450
  0.4827376176092465  0.0725553216209135  0.5091432186690247
  0.3312020588743835  0.2432775763942679  0.7539031393736569
  0.1680625149368317  0.7627330707512446  0.9858294859335305
  0.4968320705642421  0.4180863623043647  0.9902999356413330
  0.3253335055745168  0.5751618604142349  0.2551851106586820
  0.1888972375521236  0.7474180973419835  0.5055561847400010
  0.8331230774459044  0.0853924032543034  0.0135016329052475
  0.6745045623935011  0.2515591212466227  0.2428728062256446
  0.5225744801007443  0.4139758916582320  0.5014397692347822
  0.3357141032557254  0.5771505946795913  0.7832744085520879
  0.8297568804642620  0.0837694962715152  0.4665606992388029
  0.6693206798619457  0.2484421224198979  0.7494673562751886
  0.5029419177553864  0.7558361013774084  0.0092451410836714
  0.3384926065547655  0.9207465411717303  0.2502592159882321
  0.8312680646679174  0.4163150268054858  0.9977528514260438
  0.6711184170749244  0.5810219876065298  0.2564480994357533
  0.4933592250253958  0.7397091948744923  0.4857659042306113
  0.3427356506909373  0.9223032518781464  0.7843412901453731
  0.9984104081639354  0.2519419365408010  0.2530370241203170
  0.8219147304497071  0.4147123156820332  0.4930568953174421
  0.6635006142311765  0.5802575697699816  0.7446436942347142
  0.9941964410712604  0.2511061122833173  0.7504439346563735
  0.8379565018545104  0.7558861688993307  0.9953062379779212
  0.6713359232970384  0.9240659800062444  0.2340059969609086
  0.9988409627317185  0.5830922423786749  0.2467101454407703
  0.8313535990837281  0.7494585613809270  0.4896087061407800
  0.6702451551917172  0.9295495050944943  0.7515447432525624
  0.0044321216267730  0.5896341535623273  0.7395924193687203
  0.0011631519677830  0.9182670707686511  0.2482381278759126
  0.0074440461144485  0.9307793038665167  0.7792236338435328
  0.0819851014089284  0.1640758562195518  0.0095378706934178
  0.0712895836214379  0.1633588061750836  0.4891424543331075
  0.0904995006599196  0.5029276201187770  0.0053591174029316
  0.4171871033441146  0.1594227899115472  0.0033563405989316
  0.2437516990312806  0.3289355392698320  0.2476093431340468
  0.0759896520763473  0.5025243687879891  0.4846170723734718
  0.4101152214185914  0.1572957702486094  0.5054345758247519
  0.2490630388345730  0.3318687473091451  0.7594973035305864
  0.0868750244984336  0.8427098423505205  0.9943568178930083
  0.4161775375902077  0.4903425671865062  0.9950001348793082
  0.2535260547749102  0.6618316563201214  0.2689111210514889
  0.0804380012583719  0.8249860202635757  0.4948800078634511
  0.7478246196088378  0.1660946241484978  0.9895293106168692
  0.5862712357585317  0.3309402853612072  0.2628998131887972
  0.4195931332141091  0.4692139029190361  0.4940154218018446
  0.2520350277676108  0.6835528505363296  0.7646924242045097
  0.7491597326832917  0.1637297375274720  0.5279879593150116
  0.5804785468937780  0.3344993949303258  0.7268406412689982
  0.4216227002263917  0.8420666829982694  0.0056555099461522
  0.2434936294523382  0.0079207167737523  0.2560814864209829
  0.7515314899255509  0.4977717344553432  0.9981760583725005
  0.5860385544010447  0.6672636072582945  0.2527774925119322
  0.4155632488842972  0.8193423100274769  0.5095250935817732
  0.2492754870272232  0.0152869153192605  0.7794927804013250
  0.9170336401978768  0.3278668405658746  0.2466351282108138
  0.7481548107934035  0.5085822888931522  0.4910471743597309
  0.5872772956017548  0.6709958352379568  0.7462829402625024
  0.9154852862105191  0.3265520743541218  0.7524762339842455
  0.7532635307716846  0.8444320830763195  0.9905551325815366
  0.5888298830190067  0.9990529829486678  0.2241229303554551
  0.9174987190840262  0.6663084949334556  0.2637772803560476
  0.7465951248466386  0.8385028807045941  0.4990154525170187
  0.5863119496773818  0.9997742417559471  0.7630826178074455
  0.9181833059203178  0.6733851200074829  0.7248537586543288
  0.9174341158827156  0.0071769131420138  0.2484201486328720
  0.9180928449302255  0.0180045123901682  0.7707612650881398
  0.1647053539114613  0.0105265776670356  0.1277995357270630
  0.1538018703281480  0.0205835477195835  0.6296830294262389
  0.1709899831586844  0.3282229636662932  0.1291970162214842
  0.4958067706411066 -0.0008446160205925  0.1161214923233721
  0.3237337720746032  0.1530587242522738  0.3851344963081764
  0.1607377462063931  0.3352802066073923  0.6212952740629778
  0.4925907696531507  0.0024857602733512  0.6341407467040884
  0.3303257715210163  0.1603606986143876  0.8821204565798532
  0.1661849529244298  0.6630812254723274  0.1285304983807463
  0.4995437967889116  0.3286469896843807  0.1278070555117473
  0.3253019560824121  0.4843044828585665  0.3687071978314985
  0.1540817907290194  0.6793273672637926  0.6183892543737437
  0.8365496769889080  0.0046283190060553  0.1167689666644917
  0.6837620492512301  0.1705961566395295  0.3701040784946408
  0.5025226162341485  0.3294087177242895  0.6274281454162400
  0.3325164339063142  0.5092476692345398  0.8695582574900118
  0.8207135169456212  0.0223407892370481  0.6282617229511395
  0.6690997987495210  0.1675600029831119  0.8781647157073117
  0.5057809471242259  0.6712732346644911  0.1280160602552474
  0.3409601275317147  0.8163234487408958  0.3791762697846991
  0.8307776321132001  0.3330298506920878  0.1181943730779517
  0.6707920216674289  0.4901546165803158  0.3750789069408090
  0.5040525761593663  0.6795381061426476  0.6355983717956551
  0.3306324661832486  0.8438079274968632  0.8826265302098536
  0.9957601230678540  0.1625455336151406  0.3776100149240031
  0.8259114495172281  0.3228451842406999  0.6269102207295476
  0.6660568164539832  0.5015099706603179  0.8621995689855908
  0.9993491451820986  0.1645352577418282  0.8879587497273513
  0.8383958902162496  0.6663925986927417  0.1252225056864884
  0.6724782547925466  0.8361511286218130  0.3739933480385333
  0.0100910298970554  0.5024084042325229  0.3743452984760553
  0.8396404330630075  0.6731668104509945  0.6114696894335137
  0.6728490402031544  0.8370210372719817  0.8678891177542358
  0.0007368583615702  0.5068545526791791  0.8624354796820685
  0.9977414470930847  0.8296692264809190  0.3697038634396168
  0.0090956033553576  0.8318230444045481  0.8593248362617135
  0.0772448771448306  0.0049453228592037  0.2534558950435202
  0.0771439936370403  0.0065269258288825  0.7694323178960132
  0.0818901613058697  0.3286104209799666  0.2550131486312544
  0.4082275478002384  0.9956173804520614  0.2636127562310127
  0.2450827685676965  0.1532949238791594  0.4983125496408028
  0.0840506922628643  0.3377734232763615  0.7422906373190903
  0.4135093561971058  0.0013291695829029  0.7679118044130813
  0.2493467305779922  0.1612254304397398  0.0047522910076249
  0.0866948285783214  0.6620960948583885  0.2582220645470263
  0.4153185510058656  0.3313586189297272  0.2507560502311988
  0.2347367506349895  0.4980345720096588  0.4808552630045996
  0.0884324697849956  0.6745104416490187  0.7255646267334921
  0.7528966811539523  0.0061587169337703  0.2438278111986206
  0.5835007636591825  0.1764008455072712  0.5106059122981856
  0.4176086758035728  0.3333444847860429  0.7505657693081886
  0.2507781153841056  0.4933276078482228  0.9954099192620781
  0.7488741091214780  0.0114420768114200  0.7429250158987813
  0.5834688013190241  0.1607352852781296  0.0000953781531056
  0.4167777440943229  0.6681923096258823  0.2609752800491232
  0.2525886603571197  0.8039869513116542  0.4897649414618733
  0.7495204207154508  0.3306936735542855  0.2477051889927905
  0.5856220942187850  0.4711648442133854  0.5013021080566933
  0.4255868744431884  0.6751058314366640  0.7617823833375869
  0.2490879830518565  0.8385578222553803  0.9863903916136560
  0.9132285050876655  0.1645857858616945  0.5243478016976181
  0.7470439779635560  0.3260663858341747  0.7446262712899910
  0.5791492357141337  0.4991658391004633  0.9921832065570075
  0.9181450338447743  0.1655122624132552  0.9957406868628748
  0.7536251786891573  0.6640388299843856  0.2571222004951264
  0.5793421000639049  0.8372205082954053  0.5133650913021371
  0.9186753467967748  0.5099859427483995  0.4838076298269053
  0.7528198609114244  0.6766492957048017  0.7378688109847078
  0.5870611480005059  0.8480892027858653  0.9979444224176565
  0.9189569298440301  0.5011062085003860  0.0045668964224115
  0.9203044445795749  0.8165371724745170  0.4850577322217489
  0.9210589720322880  0.8454933022472864  0.9946337436809018
  0.0028821624179160  0.1653559094310660  0.1296606424829113
  0.9789750571804271  0.1628717112883191  0.6141919116168204
  0.0028505765918420  0.5029405322748163  0.1272270051549410
  0.3258242694636065  0.1590429549331387  0.1361172483417014
  0.1587446681746764  0.3297204060308217  0.3726152889584068
  0.0053762660072927  0.5079232315649052  0.6160906009529824
  0.3278126700320526  0.1588147663200861  0.6303996081982586
  0.1724799404047010  0.3356916749408827  0.8691485729101333
  0.0007236138253999  0.8401065485879444  0.1248356591588373
  0.3286104014648637  0.4909094235105909  0.1272617900780331
  0.1622189403594076  0.6592763356498261  0.3723043150109535
  0.0105139856210508  0.8137304565312972  0.6066819503010812
  0.6683361653318035  0.1706481701207699  0.1241784250202429
  0.4973464523588859  0.3263144059748139  0.3796086019156740
  0.3320437631240941  0.4710072766897572  0.6251406579726578
  0.1699531063196056  0.6740591480235254  0.8710345549412598
  0.6864258884713954  0.1637625303360786  0.6198558506383135
  0.4993109263692117  0.3332904821378943  0.8662374364238405
  0.3396998459981373  0.8413427589913851  0.1288881917103584
  0.1588951088284555  0.9948813685902193  0.3837105282386666
  0.6685696806521156  0.4943764718503817  0.1295354842553341
  0.4984862969624698  0.6757580780665206  0.3830970110616707
  0.3473536089480153  0.8088971385754860  0.6350619580934659
  0.1654121810804345  0.0070347605672200  0.8851920445347466
  0.8302161631607378  0.3168274141950473  0.3793953436933440
  0.6681152878208548  0.5041355018388541  0.6158074005123886
  0.5047601152175020  0.6661683651384990  0.8769581802049166
  0.8285631219591445  0.3336590762522272  0.8717961329218636
  0.6702058860651271  0.8406567380205268  0.1254967175350255
  0.4820270350857979  0.9994218757157584  0.3879434420666515
  0.8466457171844946  0.6642876582263813  0.3672164044451569
  0.6729878293204669  0.8353741598775174  0.6179547762095673
  0.5082657991019123  0.0048748334509984  0.8777779407522820
  0.8387991915863867  0.6728852207452730  0.8686207056286777
  0.8273113720983748  0.0227916997709281  0.3817064649905546
  0.8296787983999673  0.0061399408723102  0.8777640915526206
  0.9909808509482027  0.0810973103647851  0.2586022904930623
  0.9934361036002779  0.0886906688977991  0.7546027332490506
  0.0075384145015429  0.4191958148395549  0.2508017610661953
  0.3246629623790419  0.0807170284428504  0.2604079382491929
  0.1560286377168378  0.2482278920096920  0.4878217012744758
  0.0033674702471737  0.4189150598904123  0.7454657258797835
  0.3375385895204419  0.0835831681673676  0.7617659974787964
  0.1689534443327729  0.2464063602833801  0.0148069759121619
  0.0008391260004786  0.7478672009602236  0.2453716621835607
  0.3268800269054331  0.4099972533167961  0.2475102378408084
  0.1742937003118777  0.5702552747707511  0.4774697603163197
  0.0101105422877739  0.7667300377499926  0.7599700881110392
  0.6817226141522890  0.0862086132581041  0.2365858808832781
  0.4908411191648137  0.2552899046482278  0.5001362137422756
  0.3318174887295400  0.4117140450052417  0.7395037838652476
  0.1712877995331164  0.5804411784318657 -0.0002642737586997
  0.6659181411014269  0.0862163821898504  0.7532890172036649
  0.5009872694040536  0.2454051767166765  0.0032096076287340
  0.3398026326153342  0.7443730769532058  0.2764084696381499
  0.1504164646183090  0.9172537264475321  0.4761803615638028
  0.6675220276319654  0.4129931183253425  0.2672848701297600
  0.5190074543217534  0.5769489398680897  0.4926477776124797
  0.3192088374251219  0.7445167071210208  0.7412482734011970
  0.1637535538439057  0.9263751812546606  0.9932719314996771
  0.8328719905457462  0.2461710203536208  0.4745606881186396
  0.6652521771341582  0.4130824650637083  0.7341479955456093
  0.5042070119885355  0.5818665595966870  0.9921676552558175
  0.8307632863933343  0.2523232701650666  0.0061696113739510
  0.6721302763730442  0.7539928725548779  0.2430589128757948
  0.4948388652392013  0.9076135857963158  0.5109792677537578
  0.8234607060711798  0.5866274022712737  0.4903961461837208
  0.6719212717776604  0.7659369208953113  0.7601608700598768
  0.4885255278695644  0.9252508231413454  0.0060236520675731
  0.8371872089592902  0.5841800837705177  0.9967063167078879
  0.8221340008850336  0.9199352926876695  0.4821128008971050
  0.8371624014461615  0.9257396408286471  0.9981720780726070
 
  0.00000000E+00  0.00000000E+00  0.00000000E+00
  0.00000000E+00  0.00000000E+00  0.00000000E+00
  0.00000000E+00  0.00000000E+00  0.00000000E+00
  0.00000000E+00  0.00000000E+00  0.00000000E+00
  0.00000000E+00  0.00000000E+00  0.00000000E+00
  0.00000000E+00  0.00000000E+00  0.00000000E+00
  0.00000000E+00  0.00000000E+00  0.00000000E+00
  0.00000000E+00  0.00000000E+00  0.00000000E+00
  0.00000000E+00  0.00000000E+00  0.00000000E+00
  0.00000000E+00  0.00000000E+00  0.00000000E+00
  0.00000000E+00  0.00000000E+00  0.00000000E+00
  0.00000000E+00  0.00000000E+00  0.00000000E+00
  0.00000000E+00  0.00000000E+00  0.00000000E+00
  0.00000000E+00  0.00000000E+00  0.00000000E+00
  0.00000000E+00  0.00000000E+00  0.00000000E+00
  0.00000000E+00  0.00000000E+00  0.00000000E+00
  0.00000000E+00  0.00000000E+00  0.00000000E+00
  0.00000000E+00  0.00000000E+00  0.00000000E+00
  0.00000000E+00  0.00000000E+00  0.00000000E+00
  0.00000000E+00  0.00000000E+00  0.00000000E+00
  0.00000000E+00  0.00000000E+00  0.00000000E+00
  0.00000000E+00  0.00000000E+00  0.00000000E+00
  0.00000000E+00  0.00000000E+00  0.00000000E+00
  0.00000000E+00  0.00000000E+00  0.00000000E+00
  0.00000000E+00  0.00000000E+00  0.00000000E+00
  0.00000000E+00  0.00000000E+00  0.00000000E+00
  0.00000000E+00  0.00000000E+00  0.00000000E+00
  0.00000000E+00  0.00000000E+00  0.00000000E+00
  0.00000000E+00  0.00000000E+00  0.00000000E+00
  0.00000000E+00  0.00000000E+00  0.00000000E+00
  0.00000000E+00  0.00000000E+00  0.00000000E+00
  0.00000000E+00  0.00000000E+00  0.00000000E+00
  0.00000000E+00  0.00000000E+00  0.00000000E+00
  0.00000000E+00  0.00000000E+00  0.00000000E+00
  0.00000000E+00  0.00000000E+00  0.00000000E+00
  0.00000000E+00  0.00000000E+00  0.00000000E+00
  0.00000000E+00  0.00000000E+00  0.00000000E+00
  0.00000000E+00  0.00000000E+00  0.00000000E+00
  0.00000000E+00  0.00000000E+00  0.00000000E+00
  0.00000000E+00  0.00000000E+00  0.00000000E+00
  0.00000000E+00  0.00000000E+00  0.00000000E+00
  0.00000000E+00  0.00000000E+00  0.00000000E+00
  0.00000000E+00  0.00000000E+00  0.00000000E+00
  0.00000000E+00  0.00000000E+00  0.00000000E+00
  0.00000000E+00  0.00000000E+00  0.00000000E+00
  0.00000000E+00  0.00000000E+00  0.00000000E+00
  0.00000000E+00  0.00000000E+00  0.00000000E+00
  0.00000000E+00  0.00000000E+00  0.00000000E+00
  0.00000000E+00  0.00000000E+00  0.00000000E+00
  0.00000000E+00  0.00000000E+00  0.00000000E+00
  0.00000000E+00  0.00000000E+00  0.00000000E+00
  0.00000000E+00  0.00000000E+00  0.00000000E+00
  0.00000000E+00  0.00000000E+00  0.00000000E+00
  0.00000000E+00  0.00000000E+00  0.00000000E+00
  0.00000000E+00  0.00000000E+00  0.00000000E+00
  0.00000000E+00  0.00000000E+00  0.00000000E+00
  0.00000000E+00  0.00000000E+00  0.00000000E+00
  0.00000000E+00  0.00000000E+00  0.00000000E+00
  0.00000000E+00  0.00000000E+00  0.00000000E+00
  0.00000000E+00  0.00000000E+00  0.00000000E+00
  0.00000000E+00  0.00000000E+00  0.00000000E+00
  0.00000000E+00  0.00000000E+00  0.00000000E+00
  0.00000000E+00  0.00000000E+00  0.00000000E+00
  0.00000000E+00  0.00000000E+00  0.00000000E+00
  0.00000000E+00  0.00000000E+00  0.00000000E+00
  0.00000000E+00  0.00000000E+00  0.00000000E+00
  0.00000000E+00  0.00000000E+00  0.00000000E+00
  0.00000000E+00  0.00000000E+00  0.00000000E+00
  0.00000000E+00  0.00000000E+00  0.00000000E+00
  0.00000000E+00  0.00000000E+00  0.00000000E+00
  0.00000000E+00  0.00000000E+00  0.00000000E+00
  0.00000000E+00  0.00000000E+00  0.00000000E+00
  0.00000000E+00  0.00000000E+00  0.00000000E+00
  0.00000000E+00  0.00000000E+00  0.00000000E+00
  0.00000000E+00  0.00000000E+00  0.00000000E+00
  0.00000000E+00  0.00000000E+00  0.00000000E+00
  0.00000000E+00  0.00000000E+00  0.00000000E+00
  0.00000000E+00  0.00000000E+00  0.00000000E+00
  0.00000000E+00  0.00000000E+00  0.00000000E+00
  0.00000000E+00  0.00000000E+00  0.00000000E+00
  0.00000000E+00  0.00000000E+00  0.00000000E+00
  0.00000000E+00  0.00000000E+00  0.00000000E+00
  0.00000000E+00  0.00000000E+00  0.00000000E+00
  0.00000000E+00  0.00000000E+00  0.00000000E+00
  0.00000000E+00  0.00000000E+00  0.00000000E+00
  0.00000000E+00  0.00000000E+00  0.00000000E+00
  0.00000000E+00  0.00000000E+00  0.00000000E+00
  0.00000000E+00  0.00000000E+00  0.00000000E+00
  0.00000000E+00  0.00000000E+00  0.00000000E+00
  0.00000000E+00  0.00000000E+00  0.00000000E+00
  0.00000000E+00  0.00000000E+00  0.00000000E+00
  0.00000000E+00  0.00000000E+00  0.00000000E+00
  0.00000000E+00  0.00000000E+00  0.00000000E+00
  0.00000000E+00  0.00000000E+00  0.00000000E+00
  0.00000000E+00  0.00000000E+00  0.00000000E+00
  0.00000000E+00  0.00000000E+00  0.00000000E+00
  0.00000000E+00  0.00000000E+00  0.00000000E+00
  0.00000000E+00  0.00000000E+00  0.00000000E+00
  0.00000000E+00  0.00000000E+00  0.00000000E+00
  0.00000000E+00  0.00000000E+00  0.00000000E+00
  0.00000000E+00  0.00000000E+00  0.00000000E+00
  0.00000000E+00  0.00000000E+00  0.00000000E+00
  0.00000000E+00  0.00000000E+00  0.00000000E+00
  0.00000000E+00  0.00000000E+00  0.00000000E+00
  0.00000000E+00  0.00000000E+00  0.00000000E+00
  0.00000000E+00  0.00000000E+00  0.00000000E+00
  0.00000000E+00  0.00000000E+00  0.00000000E+00
  0.00000000E+00  0.00000000E+00  0.00000000E+00
  0.00000000E+00  0.00000000E+00  0.00000000E+00
  0.00000000E+00  0.00000000E+00  0.00000000E+00
  0.00000000E+00  0.00000000E+00  0.00000000E+00
  0.00000000E+00  0.00000000E+00  0.00000000E+00
  0.00000000E+00  0.00000000E+00  0.00000000E+00
  0.00000000E+00  0.00000000E+00  0.00000000E+00
  0.00000000E+00  0.00000000E+00  0.00000000E+00
  0.00000000E+00  0.00000000E+00  0.00000000E+00
  0.00000000E+00  0.00000000E+00  0.00000000E+00
  0.00000000E+00  0.00000000E+00  0.00000000E+00
  0.00000000E+00  0.00000000E+00  0.00000000E+00
  0.00000000E+00  0.00000000E+00  0.00000000E+00
  0.00000000E+00  0.00000000E+00  0.00000000E+00
  0.00000000E+00  0.00000000E+00  0.00000000E+00
  0.00000000E+00  0.00000000E+00  0.00000000E+00
  0.00000000E+00  0.00000000E+00  0.00000000E+00
  0.00000000E+00  0.00000000E+00  0.00000000E+00
  0.00000000E+00  0.00000000E+00  0.00000000E+00
  0.00000000E+00  0.00000000E+00  0.00000000E+00
  0.00000000E+00  0.00000000E+00  0.00000000E+00
  0.00000000E+00  0.00000000E+00  0.00000000E+00
  0.00000000E+00  0.00000000E+00  0.00000000E+00
  0.00000000E+00  0.00000000E+00  0.00000000E+00
  0.00000000E+00  0.00000000E+00  0.00000000E+00
  0.00000000E+00  0.00000000E+00  0.00000000E+00
  0.00000000E+00  0.00000000E+00  0.00000000E+00
  0.00000000E+00  0.00000000E+00  0.00000000E+00
  0.00000000E+00  0.00000000E+00  0.00000000E+00
  0.00000000E+00  0.00000000E+00  0.00000000E+00
  0.00000000E+00  0.00000000E+00  0.00000000E+00
  0.00000000E+00  0.00000000E+00  0.00000000E+00
  0.00000000E+00  0.00000000E+00  0.00000000E+00
  0.00000000E+00  0.00000000E+00  0.00000000E+00
  0.00000000E+00  0.00000000E+00  0.00000000E+00
  0.00000000E+00  0.00000000E+00  0.00000000E+00
  0.00000000E+00  0.00000000E+00  0.00000000E+00
  0.00000000E+00  0.00000000E+00  0.00000000E+00
  0.00000000E+00  0.00000000E+00  0.00000000E+00
  0.00000000E+00  0.00000000E+00  0.00000000E+00
  0.00000000E+00  0.00000000E+00  0.00000000E+00
  0.00000000E+00  0.00000000E+00  0.00000000E+00
  0.00000000E+00  0.00000000E+00  0.00000000E+00
  0.00000000E+00  0.00000000E+00  0.00000000E+00
  0.00000000E+00  0.00000000E+00  0.00000000E+00
  0.00000000E+00  0.00000000E+00  0.00000000E+00
  0.00000000E+00  0.00000000E+00  0.00000000E+00
  0.00000000E+00  0.00000000E+00  0.00000000E+00
  0.00000000E+00  0.00000000E+00  0.00000000E+00
  0.00000000E+00  0.00000000E+00  0.00000000E+00
  0.00000000E+00  0.00000000E+00  0.00000000E+00
  0.00000000E+00  0.00000000E+00  0.00000000E+00
  0.00000000E+00  0.00000000E+00  0.00000000E+00
  0.00000000E+00  0.00000000E+00  0.00000000E+00
  0.00000000E+00  0.00000000E+00  0.00000000E+00
  0.00000000E+00  0.00000000E+00  0.00000000E+00
  0.00000000E+00  0.00000000E+00  0.00000000E+00
  0.00000000E+00  0.00000000E+00  0.00000000E+00
  0.00000000E+00  0.00000000E+00  0.00000000E+00
  0.00000000E+00  0.00000000E+00  0.00000000E+00
  0.00000000E+00  0.00000000E+00  0.00000000E+00
  0.00000000E+00  0.00000000E+00  0.00000000E+00
  0.00000000E+00  0.00000000E+00  0.00000000E+00
  0.00000000E+00  0.00000000E+00  0.00000000E+00
  0.00000000E+00  0.00000000E+00  0.00000000E+00
  0.00000000E+00  0.00000000E+00  0.00000000E+00
  0.00000000E+00  0.00000000E+00  0.00000000E+00
  0.00000000E+00  0.00000000E+00  0.00000000E+00
  0.00000000E+00  0.00000000E+00  0.00000000E+00
  0.00000000E+00  0.00000000E+00  0.00000000E+00
  0.00000000E+00  0.00000000E+00  0.00000000E+00
  0.00000000E+00  0.00000000E+00  0.00000000E+00
  0.00000000E+00  0.00000000E+00  0.00000000E+00
  0.00000000E+00  0.00000000E+00  0.00000000E+00
  0.00000000E+00  0.00000000E+00  0.00000000E+00
  0.00000000E+00  0.00000000E+00  0.00000000E+00
  0.00000000E+00  0.00000000E+00  0.00000000E+00
  0.00000000E+00  0.00000000E+00  0.00000000E+00
  0.00000000E+00  0.00000000E+00  0.00000000E+00
  0.00000000E+00  0.00000000E+00  0.00000000E+00
  0.00000000E+00  0.00000000E+00  0.00000000E+00
  0.00000000E+00  0.00000000E+00  0.00000000E+00
  0.00000000E+00  0.00000000E+00  0.00000000E+00
  0.00000000E+00  0.00000000E+00  0.00000000E+00
  0.00000000E+00  0.00000000E+00  0.00000000E+00
  0.00000000E+00  0.00000000E+00  0.00000000E+00
  0.00000000E+00  0.00000000E+00  0.00000000E+00
  0.00000000E+00  0.00000000E+00  0.00000000E+00
  0.00000000E+00  0.00000000E+00  0.00000000E+00
  0.00000000E+00  0.00000000E+00  0.00000000E+00
  0.00000000E+00  0.00000000E+00  0.00000000E+00
  0.00000000E+00  0.00000000E+00  0.00000000E+00
  0.00000000E+00  0.00000000E+00  0.00000000E+00
  0.00000000E+00  0.00000000E+00  0.00000000E+00
  0.00000000E+00  0.00000000E+00  0.00000000E+00
  0.00000000E+00  0.00000000E+00  0.00000000E+00
  0.00000000E+00  0.00000000E+00  0.00000000E+00
  0.00000000E+00  0.00000000E+00  0.00000000E+00
  0.00000000E+00  0.00000000E+00  0.00000000E+00
  0.00000000E+00  0.00000000E+00  0.00000000E+00
  0.00000000E+00  0.00000000E+00  0.00000000E+00
  0.00000000E+00  0.00000000E+00  0.00000000E+00
  0.00000000E+00  0.00000000E+00  0.00000000E+00
  0.00000000E+00  0.00000000E+00  0.00000000E+00
  0.00000000E+00  0.00000000E+00  0.00000000E+00
  0.00000000E+00  0.00000000E+00  0.00000000E+00
  0.00000000E+00  0.00000000E+00  0.00000000E+00
  0.00000000E+00  0.00000000E+00  0.00000000E+00
  0.00000000E+00  0.00000000E+00  0.00000000E+00
  0.00000000E+00  0.00000000E+00  0.00000000E+00
  0.00000000E+00  0.00000000E+00  0.00000000E+00
  0.00000000E+00  0.00000000E+00  0.00000000E+00
  0.00000000E+00  0.00000000E+00  0.00000000E+00
  0.00000000E+00  0.00000000E+00  0.00000000E+00
  0.00000000E+00  0.00000000E+00  0.00000000E+00
  0.00000000E+00  0.00000000E+00  0.00000000E+00
  0.00000000E+00  0.00000000E+00  0.00000000E+00
  0.00000000E+00  0.00000000E+00  0.00000000E+00
  0.00000000E+00  0.00000000E+00  0.00000000E+00
  0.00000000E+00  0.00000000E+00  0.00000000E+00
  0.00000000E+00  0.00000000E+00  0.00000000E+00
  0.00000000E+00  0.00000000E+00  0.00000000E+00
  0.00000000E+00  0.00000000E+00  0.00000000E+00
  0.00000000E+00  0.00000000E+00  0.00000000E+00
  0.00000000E+00  0.00000000E+00  0.00000000E+00
  0.00000000E+00  0.00000000E+00  0.00000000E+00
  0.00000000E+00  0.00000000E+00  0.00000000E+00
  0.00000000E+00  0.00000000E+00  0.00000000E+00
  0.00000000E+00  0.00000000E+00  0.00000000E+00
  0.00000000E+00  0.00000000E+00  0.00000000E+00
  0.00000000E+00  0.00000000E+00  0.00000000E+00
  0.00000000E+00  0.00000000E+00  0.00000000E+00
  0.00000000E+00  0.00000000E+00  0.00000000E+00
  0.00000000E+00  0.00000000E+00  0.00000000E+00
  0.00000000E+00  0.00000000E+00  0.00000000E+00
  0.00000000E+00  0.00000000E+00  0.00000000E+00
  0.00000000E+00  0.00000000E+00  0.00000000E+00
  0.00000000E+00  0.00000000E+00  0.00000000E+00
  0.00000000E+00  0.00000000E+00  0.00000000E+00
  0.00000000E+00  0.00000000E+00  0.00000000E+00
  0.00000000E+00  0.00000000E+00  0.00000000E+00
  0.00000000E+00  0.00000000E+00  0.00000000E+00
  0.00000000E+00  0.00000000E+00  0.00000000E+00
  0.00000000E+00  0.00000000E+00  0.00000000E+00
  0.00000000E+00  0.00000000E+00  0.00000000E+00
