POSCAR                                  
   1.00000000000000     
    10.3267742679333061    0.0200910869083945    0.0030309792241541
     0.0199408338537239   10.2812754008721221    0.0886604892824715
     0.0018067919523501    0.0590426349736607    6.8885796017613368
   Sc   Zr   Y    K    H 
     9     9     9     9   216
Direct
  0.1592511720386156  0.1625858817551205  0.2606571689655155
  0.1689246388418937  0.4974046880796195  0.2425143482080188
  0.8356668289417044  0.1696034267928539  0.2373535584281328
  0.6766379383394039  0.3201021183029624  0.4994894359588855
  0.8353997870693775  0.1690916644926403  0.7638493427993396
  0.3306095941152165  0.0037128294089896  0.0124610504456371
  0.0056176128028440  0.6627095657786342  0.4914697996197219
  0.6729414611802227  0.0041769336193695  0.9982939204031354
  0.0013603250469245  0.0053759187431268  0.0098749212662455
  0.1580883029341607  0.1698893067932445  0.7506351388329193
  0.3237903256455539  0.3231745687345366  0.4960595767486282
  0.5004323476069601  0.1676885190287436  0.7481187710472170
  0.3333362566457581  0.3256513928606353  0.0012185354421277
  0.6622930253338879  0.3355223904461084  0.9936365026060372
  0.8334899314170059  0.4944518149757542  0.2494320063869537
  0.6642227692505713  0.6742081904019273  0.4974806576857418
  0.4998737268815532  0.8358282987560273  0.7589483275968831
  0.8336188333835182  0.8380808818487324  0.2463821051920903
  0.5019786148311951  0.1606122510419254  0.2594126895292419
  0.1708278930484397  0.8317239231355913  0.2481122548969736
  0.4996176898227560  0.4982238840860944  0.2497974244191710
  0.3349543594106521  0.6722357728767747  0.0094327352069641
  0.8348001561598934  0.5017257230733208  0.7409597874526170
  0.6708993234615335  0.6686617023877020  0.9996124637740351
  0.0044244787958405  0.3358196943018967  0.9982786155243417
  0.8415705730575880  0.8445287524287437  0.7384237740655379
  0.0043300253506970  0.6696595561208269  0.9950117360603628
  0.1697463883430643  0.5065330419109344  0.7404007449078378
  0.3396776517566380  0.6412338817613374  0.5194189211625755
  0.1726305388363940  0.8502285059343322  0.7330510507075374
  0.4977413980642709  0.5025128835047283  0.7396533358501713
  0.5038475243640335  0.8383475296808740  0.2550377029603084
  0.3215067589554153  0.9831497064821875  0.5186910322679310
  0.9924852284685031  0.3349354638448077  0.5004335179296717
  0.6575727694216340  0.0040903293224943  0.4913883978213534
  0.9912116039042544  0.9927416835577105  0.5110222279780317
  0.1651083284408372  0.0856448615815495  0.0138339949124031
  0.1585539405971801  0.0818045264177627  0.5113942794543291
  0.1735392283459092  0.4186937112652487  0.0001834800565277
  0.5000115884487712  0.0820336411235800  0.9994375835453226
  0.3265892761874767  0.2413351254156524  0.2530421676659529
  0.1624873755782090  0.4081949147602941  0.4876882407603915
  0.4832371475949557  0.0723412794146796  0.5081343453841995
  0.3312380340807692  0.2435838951102696  0.7536664215210465
  0.1679631984068592  0.7627483049693140  0.9859899089304776
  0.4968094025256988  0.4180228027710484  0.9903057433388511
  0.3254315169868818  0.5750918531702567  0.2549958513745949
  0.1887732473121417  0.7474103931657581  0.5061230502558871
  0.8334455168630797  0.0852544874867363  0.0134429351266760
  0.6745437185985566  0.2513761918727440  0.2426614218213530
  0.5227103709367711  0.4141222066958079  0.5015730523411008
  0.3362206827480989  0.5772119119219923  0.7833751819205546
  0.8302979186290784  0.0837758685661072  0.4666747768557897
  0.6691556612436287  0.2481104703991122  0.7492441824636558
  0.5026676771493328  0.7560552783147685  0.0096793038044112
  0.3382533128961143  0.9209439208063301  0.2500236093146810
  0.8310839152932417  0.4162660758297179  0.9977722056338649
  0.6713197166906397  0.5812239750187658  0.2570284668679435
  0.4925828310427889  0.7398761490826402  0.4856669320233777
  0.3426675587236829  0.9225131228872527  0.7837355846233152
  0.9983900233413792  0.2517186318717108  0.2531758896861263
  0.8218928829931542  0.4143920577559683  0.4935227223039718
  0.6637318772340990  0.5804465377050292  0.7438713933808430
  0.9945109620073538  0.2511993461125641  0.7503176740139281
  0.8375833061242872  0.7558510541063299  0.9949612331693771
  0.6709564435555890  0.9239756384954489  0.2347103630773617
  0.9986808452336575  0.5829128772656276  0.2467485532863094
  0.8316934907985996  0.7493040102357611  0.4891920966348877
  0.6700981698788837  0.9296233161517833  0.7524542910861598
  0.0043117338355714  0.5892364162625583  0.7397665297024645
  0.0008760526834592  0.9181262169126612  0.2486172709117866
  0.0072866076653071  0.9308001748273327  0.7792822707201807
  0.0822683533102193  0.1639647956288925  0.0096275346462988
  0.0715049199032478  0.1631974511387000  0.4888370173357899
  0.0905353943677483  0.5029967627794321  0.0044956131302598
  0.4172087326779348  0.1596844587536808  0.0033407907537963
  0.2437909784351149  0.3285629798576792  0.2472704614083199
  0.0759678198748546  0.5025022299971269  0.4845993218191893
  0.4102859739400415  0.1576078677910004  0.5057007770621951
  0.2491271807569717  0.3323302114550728  0.7596495363985554
  0.0867580052096812  0.8427891256517981  0.9939766297295449
  0.4161510571275429  0.4901161491360924  0.9952010986749471
  0.2532360994712164  0.6616110714425218  0.2686527971816943
  0.0800692158423715  0.8246464818553889  0.4948648551521728
  0.7479475007115681  0.1659581656030866  0.9895538497877681
  0.5866680378205871  0.3309274882084807  0.2621127659635505
  0.4200835321228595  0.4694269746301529  0.4939393586290066
  0.2517145499574269  0.6836103229940775  0.7647948308168253
  0.7495181050306812  0.1636162489103015  0.5278512416306214
  0.5806221851667459  0.3343970822050366  0.7272694038746437
  0.4214829606597021  0.8423264956205117  0.0054882132772960
  0.2435150355198132  0.0075946479105440  0.2558792766641602
  0.7518024870933928  0.4980116321950092  0.9981731970457162
  0.5856928597954081  0.6672864130808662  0.2530509455877237
  0.4156296646318154  0.8186532060846545  0.5109580140706456
  0.2494336094797589  0.0152009953300976  0.7791617594487477
  0.9170910546188864  0.3279096455585915  0.2468023453051345
  0.7484357637889971  0.5089465440970500  0.4910219711021497
  0.5871273541591862  0.6710205885770648  0.7463745063333889
  0.9157088839771532  0.3265696715634405  0.7524500648346120
  0.7530025701078173  0.8446535419813728  0.9905400568008247
  0.5886561428614314  0.9991181138487732  0.2251175584224256
  0.9173331407724348  0.6662023450465213  0.2635771112137633
  0.7469236203546643  0.8381844504937916  0.4988762481766855
  0.5862547797940323  0.9999468131957201  0.7639763180635128
  0.9181703591041739  0.6731881615842212  0.7256279223160149
  0.9174433533786370  0.0068941924283692  0.2486469036916006
  0.9182277600706001  0.0178757752473473  0.7707468309736143
  0.1647036379266780  0.0102496571741995  0.1274870416476759
  0.1544322379274163  0.0207162755781383  0.6294749470055905
  0.1709747175526175  0.3283066226398006  0.1291628505747511
  0.4968794036557185  0.9993397152692154  0.1160045560000924
  0.3233398297417338  0.1530946865540912  0.3848467162160318
  0.1609213610424192  0.3352731380032736  0.6209917303156516
  0.4929391986959999  0.0025726792663008  0.6346531304172629
  0.3306347164166326  0.1605642500172095  0.8820371460424425
  0.1657889656405303  0.6631065657936190  0.1282829812964721
  0.4994211768867345  0.3287049750215161  0.1277317178497910
  0.3251365734867235  0.4847629990757341  0.3682774209349589
  0.1536536247926747  0.6796879198743753  0.6181586124015581
  0.8365328089957487  0.0046581010789808  0.1166518297055745
  0.6837273351697135  0.1703291483502554  0.3701336693222643
  0.5019959727896364  0.3295323723527730  0.6275698876451017
  0.3325746155798797  0.5090627139067507  0.8697401889205310
  0.8212736461765218  0.0222303382551061  0.6287064027597680
  0.6692549623052599  0.1673813416722822  0.8782727624281534
  0.5053973816742641  0.6714029345209980  0.1284129700704071
  0.3399235638761482  0.8163006038356784  0.3785490865996124
  0.8309013073848917  0.3329154070824529  0.1183833307833737
  0.6708757575537732  0.4895490062003134  0.3750373982669331
  0.5043665462424443  0.6793403704865639  0.6355888395099711
  0.3299950866975081  0.8441782389203993  0.8829714369085906
  0.9959239744480826  0.1623717923925057  0.3777235849355733
  0.8261201364135786  0.3228075755595725  0.6264882331522941
  0.6663278901327416  0.5015877666930066  0.8626605355799910
  0.9996439974180760  0.1644612130470762  0.8877785324345595
  0.8381944269312172  0.6664098839211121  0.1256792233136323
  0.6718380295673683  0.8363787385218515  0.3744863904229945
  0.0099682875758589  0.5024030595336697  0.3741110097729532
  0.8391067321728727  0.6729468961318048  0.6112970577636290
  0.6724576096879247  0.8372064501548095  0.8682404181929897
  0.0010653538266894  0.5065780394383168  0.8625178624665963
  0.9976311565801907  0.8298377233225551  0.3695007283198848
  0.0088385113640754  0.8322569237758444  0.8595687835600998
  0.0772347875292567  0.0045313909841909  0.2531995309552499
  0.0772190771623826  0.0067649932116609  0.7697386949537375
  0.0820433394680862  0.3285457328503867  0.2548945928931943
  0.4078421655121147  0.9959805872343708  0.2620184195579753
  0.2453906850126444  0.1534623403514388  0.4983692912890021
  0.0842435365722451  0.3379759206075192  0.7419809442571932
  0.4137908242029340  0.0015310807073163  0.7675809362992752
  0.2495085246246305  0.1611874457136864  0.0044676821401026
  0.0861754149248029  0.6623267676583424  0.2582882147771528
  0.4155274503593418  0.3315495139048537  0.2507566651946931
  0.2348006094701631  0.4976713793001721  0.4799891705697164
  0.0883669755950152  0.6748204581618609  0.7261644019882141
  0.7529131909843798  0.0062730894416916  0.2440345908569554
  0.5835069981631733  0.1759287728929948  0.5109021692286788
  0.4175113719754293  0.3335242610591465  0.7509692159632522
  0.2508828031305939  0.4931685694774828  0.9949011743927514
  0.7488302720141178  0.0113621881941697  0.7439816631356635
  0.5833944822185515  0.1611128107351192  0.9998185865133422
  0.4163844274100654  0.6681118229545220  0.2606691175013651
  0.2523133443506254  0.8042132138841041  0.4896634562413169
  0.7495324398412464  0.3303813003555689  0.2475420319156711
  0.5860080829995482  0.4712322910638775  0.5015068321331668
  0.4253756335948395  0.6749897913877163  0.7616406133019638
  0.2489503210483619  0.8387251878776922  0.9857906356630863
  0.9135057954062447  0.1645664155538498  0.5243697979268305
  0.7472386845251933  0.3257890362382128  0.7446107437241452
  0.5791157447594699  0.4992676715813715  0.9924049413066598
  0.9182988945917856  0.1654654479240705  0.9958577490010256
  0.7535621621100503  0.6642422265880015  0.2570969369178897
  0.5794903064270329  0.8374605999276667  0.5131043925141086
  0.9185578117823709  0.5096224704464873  0.4838711919865091
  0.7524810701141860  0.6768202383763295  0.7382490046790693
  0.5868752636869630  0.8481076604455211  0.9980019070034558
  0.9191429066191859  0.5010555899251941  0.0047136628613274
  0.9199790722479833  0.8166231945327098  0.4848622515903358
  0.9207060282881585  0.8454467191728696  0.9945501369641363
  0.0029758235433803  0.1652724153068874  0.1296231226051745
  0.9791001766771217  0.1627820965774021  0.6142217552786917
  0.0028152398531631  0.5028554643431775  0.1269869282773541
  0.3258447179557749  0.1589568262282910  0.1360835120304884
  0.1588096789493889  0.3289424023188019  0.3724360124129760
  0.0054955096798608  0.5077457013914497  0.6160881583300153
  0.3278332998818385  0.1592185266657324  0.6304289018660896
  0.1723743005192588  0.3359547417911344  0.8686116727466100
  0.0004206382489684  0.8399009437438707  0.1248135661329357
  0.3286215951091123  0.4914229936403771  0.1272188233694465
  0.1620669107953390  0.6589399605689223  0.3724042845327205
  0.0104996271610744  0.8135755987780016  0.6068329308420175
  0.6683401398326936  0.1703883111805666  0.1240642284155129
  0.4986505553469556  0.3262846758788314  0.3798670756288516
  0.3325828192893354  0.4709947489335562  0.6251713870770459
  0.1696381782955072  0.6740871905461248  0.8704689492194291
  0.6870118644817964  0.1635200483034254  0.6199168549435186
  0.4989606522054615  0.3333391779098918  0.8664431265794406
  0.3392773677432004  0.8412625128970035  0.1288744240618627
  0.1592672468164338  0.9944022686572680  0.3840566700772996
  0.6687793687770736  0.4941594960816857  0.1291886773294308
  0.4984597623322671  0.6757279602184028  0.3838781870518844
  0.3470450057438370  0.8090302642859086  0.6353995410343529
  0.1657791249136125  0.0073544771927203  0.8848899294379180
  0.8302871847896967  0.3171576681655921  0.3790734174848325
  0.6681222074538979  0.5038966531175149  0.6160399741234244
  0.5045529143504268  0.6664501039240633  0.8766295779019799
  0.8288474034610900  0.3334111031794720  0.8717153801152122
  0.6697611641000378  0.8411397947073596  0.1254865410225392
  0.4829549622201554  0.9997657702528571  0.3888498219686056
  0.8463842376796578  0.6638616672114992  0.3674723451955870
  0.6727893736533090  0.8351811179781379  0.6183354045690734
  0.5080722959107860  0.0048690745659812  0.8776456293013837
  0.8384255002978662  0.6729301200487825  0.8686031109955294
  0.8276977525644043  0.0227985694402051  0.3818547587964005
  0.8292603267033911  0.0061822796854187  0.8780376242644721
  0.9910911167586818  0.0809092219968690  0.2585735539372536
  0.9935820438550351  0.0887822488362744  0.7544234815728501
  0.0078434081831205  0.4190844874959865  0.2506322225550832
  0.3245157347331045  0.0809137347258044  0.2603623576103971
  0.1563119230355312  0.2482667640201655  0.4875009518743454
  0.0036207689639625  0.4189779070565791  0.7455359140003281
  0.3374125868979760  0.0838507657342333  0.7612583360938814
  0.1688971729788733  0.2460604590032958  0.0139681978750730
  0.0004130146572550  0.7474687267675577  0.2458094796974635
  0.3266480526337645  0.4100642441091509  0.2479746751500116
  0.1737496789135449  0.5707308652719192  0.4767871031865241
  0.0098003395765929  0.7667151457570824  0.7593944000051209
  0.6815865437093578  0.0863193222325904  0.2375237779600710
  0.4912329017288357  0.2555280324515437  0.5001076877025241
  0.3319881592426910  0.4117224969100235  0.7390600069288951
  0.1709551593341132  0.5806893822938051  0.9990700662808507
  0.6658288409289739  0.0863860773881058  0.7533932231376426
  0.5009568415331174  0.2457142459687205  0.0035342052744554
  0.3396487780677191  0.7444309918892102  0.2766961528830549
  0.1509515277575630  0.9170560915500516  0.4760338745218462
  0.6676904687521272  0.4130019116307011  0.2680934703290205
  0.5187556726374254  0.5770301251100420  0.4925177710097017
  0.3188996578903627  0.7444570579904735  0.7413829952957727
  0.1635314030804125  0.9263993561278383  0.9934234859878117
  0.8330381970523106  0.2461371829904451  0.4743082471842115
  0.6654863928904575  0.4130279127021979  0.7337316436140355
  0.5038815054448165  0.5818600082174896  0.9924817480899932
  0.8307961198703850  0.2522533632002535  0.0062945814539859
  0.6718343774024262  0.7541364532171713  0.2432909999374075
  0.4956355988681480  0.9077128970024972  0.5112550773207332
  0.8232289111661828  0.5864580360991667  0.4906621760965422
  0.6717460664622976  0.7660592958633288  0.7603972571403759
  0.4884819165538588  0.9250867453209608  0.0062070460037233
  0.8369441679493761  0.5841507266085486  0.9969175498810188
  0.8225355276464370  0.9198532487779190  0.4818584779353756
  0.8377430063577194  0.9256244139174186  0.9975714222753851
 
  0.00000000E+00  0.00000000E+00  0.00000000E+00
  0.00000000E+00  0.00000000E+00  0.00000000E+00
  0.00000000E+00  0.00000000E+00  0.00000000E+00
  0.00000000E+00  0.00000000E+00  0.00000000E+00
  0.00000000E+00  0.00000000E+00  0.00000000E+00
  0.00000000E+00  0.00000000E+00  0.00000000E+00
  0.00000000E+00  0.00000000E+00  0.00000000E+00
  0.00000000E+00  0.00000000E+00  0.00000000E+00
  0.00000000E+00  0.00000000E+00  0.00000000E+00
  0.00000000E+00  0.00000000E+00  0.00000000E+00
  0.00000000E+00  0.00000000E+00  0.00000000E+00
  0.00000000E+00  0.00000000E+00  0.00000000E+00
  0.00000000E+00  0.00000000E+00  0.00000000E+00
  0.00000000E+00  0.00000000E+00  0.00000000E+00
  0.00000000E+00  0.00000000E+00  0.00000000E+00
  0.00000000E+00  0.00000000E+00  0.00000000E+00
  0.00000000E+00  0.00000000E+00  0.00000000E+00
  0.00000000E+00  0.00000000E+00  0.00000000E+00
  0.00000000E+00  0.00000000E+00  0.00000000E+00
  0.00000000E+00  0.00000000E+00  0.00000000E+00
  0.00000000E+00  0.00000000E+00  0.00000000E+00
  0.00000000E+00  0.00000000E+00  0.00000000E+00
  0.00000000E+00  0.00000000E+00  0.00000000E+00
  0.00000000E+00  0.00000000E+00  0.00000000E+00
  0.00000000E+00  0.00000000E+00  0.00000000E+00
  0.00000000E+00  0.00000000E+00  0.00000000E+00
  0.00000000E+00  0.00000000E+00  0.00000000E+00
  0.00000000E+00  0.00000000E+00  0.00000000E+00
  0.00000000E+00  0.00000000E+00  0.00000000E+00
  0.00000000E+00  0.00000000E+00  0.00000000E+00
  0.00000000E+00  0.00000000E+00  0.00000000E+00
  0.00000000E+00  0.00000000E+00  0.00000000E+00
  0.00000000E+00  0.00000000E+00  0.00000000E+00
  0.00000000E+00  0.00000000E+00  0.00000000E+00
  0.00000000E+00  0.00000000E+00  0.00000000E+00
  0.00000000E+00  0.00000000E+00  0.00000000E+00
  0.00000000E+00  0.00000000E+00  0.00000000E+00
  0.00000000E+00  0.00000000E+00  0.00000000E+00
  0.00000000E+00  0.00000000E+00  0.00000000E+00
  0.00000000E+00  0.00000000E+00  0.00000000E+00
  0.00000000E+00  0.00000000E+00  0.00000000E+00
  0.00000000E+00  0.00000000E+00  0.00000000E+00
  0.00000000E+00  0.00000000E+00  0.00000000E+00
  0.00000000E+00  0.00000000E+00  0.00000000E+00
  0.00000000E+00  0.00000000E+00  0.00000000E+00
  0.00000000E+00  0.00000000E+00  0.00000000E+00
  0.00000000E+00  0.00000000E+00  0.00000000E+00
  0.00000000E+00  0.00000000E+00  0.00000000E+00
  0.00000000E+00  0.00000000E+00  0.00000000E+00
  0.00000000E+00  0.00000000E+00  0.00000000E+00
  0.00000000E+00  0.00000000E+00  0.00000000E+00
  0.00000000E+00  0.00000000E+00  0.00000000E+00
  0.00000000E+00  0.00000000E+00  0.00000000E+00
  0.00000000E+00  0.00000000E+00  0.00000000E+00
  0.00000000E+00  0.00000000E+00  0.00000000E+00
  0.00000000E+00  0.00000000E+00  0.00000000E+00
  0.00000000E+00  0.00000000E+00  0.00000000E+00
  0.00000000E+00  0.00000000E+00  0.00000000E+00
  0.00000000E+00  0.00000000E+00  0.00000000E+00
  0.00000000E+00  0.00000000E+00  0.00000000E+00
  0.00000000E+00  0.00000000E+00  0.00000000E+00
  0.00000000E+00  0.00000000E+00  0.00000000E+00
  0.00000000E+00  0.00000000E+00  0.00000000E+00
  0.00000000E+00  0.00000000E+00  0.00000000E+00
  0.00000000E+00  0.00000000E+00  0.00000000E+00
  0.00000000E+00  0.00000000E+00  0.00000000E+00
  0.00000000E+00  0.00000000E+00  0.00000000E+00
  0.00000000E+00  0.00000000E+00  0.00000000E+00
  0.00000000E+00  0.00000000E+00  0.00000000E+00
  0.00000000E+00  0.00000000E+00  0.00000000E+00
  0.00000000E+00  0.00000000E+00  0.00000000E+00
  0.00000000E+00  0.00000000E+00  0.00000000E+00
  0.00000000E+00  0.00000000E+00  0.00000000E+00
  0.00000000E+00  0.00000000E+00  0.00000000E+00
  0.00000000E+00  0.00000000E+00  0.00000000E+00
  0.00000000E+00  0.00000000E+00  0.00000000E+00
  0.00000000E+00  0.00000000E+00  0.00000000E+00
  0.00000000E+00  0.00000000E+00  0.00000000E+00
  0.00000000E+00  0.00000000E+00  0.00000000E+00
  0.00000000E+00  0.00000000E+00  0.00000000E+00
  0.00000000E+00  0.00000000E+00  0.00000000E+00
  0.00000000E+00  0.00000000E+00  0.00000000E+00
  0.00000000E+00  0.00000000E+00  0.00000000E+00
  0.00000000E+00  0.00000000E+00  0.00000000E+00
  0.00000000E+00  0.00000000E+00  0.00000000E+00
  0.00000000E+00  0.00000000E+00  0.00000000E+00
  0.00000000E+00  0.00000000E+00  0.00000000E+00
  0.00000000E+00  0.00000000E+00  0.00000000E+00
  0.00000000E+00  0.00000000E+00  0.00000000E+00
  0.00000000E+00  0.00000000E+00  0.00000000E+00
  0.00000000E+00  0.00000000E+00  0.00000000E+00
  0.00000000E+00  0.00000000E+00  0.00000000E+00
  0.00000000E+00  0.00000000E+00  0.00000000E+00
  0.00000000E+00  0.00000000E+00  0.00000000E+00
  0.00000000E+00  0.00000000E+00  0.00000000E+00
  0.00000000E+00  0.00000000E+00  0.00000000E+00
  0.00000000E+00  0.00000000E+00  0.00000000E+00
  0.00000000E+00  0.00000000E+00  0.00000000E+00
  0.00000000E+00  0.00000000E+00  0.00000000E+00
  0.00000000E+00  0.00000000E+00  0.00000000E+00
  0.00000000E+00  0.00000000E+00  0.00000000E+00
  0.00000000E+00  0.00000000E+00  0.00000000E+00
  0.00000000E+00  0.00000000E+00  0.00000000E+00
  0.00000000E+00  0.00000000E+00  0.00000000E+00
  0.00000000E+00  0.00000000E+00  0.00000000E+00
  0.00000000E+00  0.00000000E+00  0.00000000E+00
  0.00000000E+00  0.00000000E+00  0.00000000E+00
  0.00000000E+00  0.00000000E+00  0.00000000E+00
  0.00000000E+00  0.00000000E+00  0.00000000E+00
  0.00000000E+00  0.00000000E+00  0.00000000E+00
  0.00000000E+00  0.00000000E+00  0.00000000E+00
  0.00000000E+00  0.00000000E+00  0.00000000E+00
  0.00000000E+00  0.00000000E+00  0.00000000E+00
  0.00000000E+00  0.00000000E+00  0.00000000E+00
  0.00000000E+00  0.00000000E+00  0.00000000E+00
  0.00000000E+00  0.00000000E+00  0.00000000E+00
  0.00000000E+00  0.00000000E+00  0.00000000E+00
  0.00000000E+00  0.00000000E+00  0.00000000E+00
  0.00000000E+00  0.00000000E+00  0.00000000E+00
  0.00000000E+00  0.00000000E+00  0.00000000E+00
  0.00000000E+00  0.00000000E+00  0.00000000E+00
  0.00000000E+00  0.00000000E+00  0.00000000E+00
  0.00000000E+00  0.00000000E+00  0.00000000E+00
  0.00000000E+00  0.00000000E+00  0.00000000E+00
  0.00000000E+00  0.00000000E+00  0.00000000E+00
  0.00000000E+00  0.00000000E+00  0.00000000E+00
  0.00000000E+00  0.00000000E+00  0.00000000E+00
  0.00000000E+00  0.00000000E+00  0.00000000E+00
  0.00000000E+00  0.00000000E+00  0.00000000E+00
  0.00000000E+00  0.00000000E+00  0.00000000E+00
  0.00000000E+00  0.00000000E+00  0.00000000E+00
  0.00000000E+00  0.00000000E+00  0.00000000E+00
  0.00000000E+00  0.00000000E+00  0.00000000E+00
  0.00000000E+00  0.00000000E+00  0.00000000E+00
  0.00000000E+00  0.00000000E+00  0.00000000E+00
  0.00000000E+00  0.00000000E+00  0.00000000E+00
  0.00000000E+00  0.00000000E+00  0.00000000E+00
  0.00000000E+00  0.00000000E+00  0.00000000E+00
  0.00000000E+00  0.00000000E+00  0.00000000E+00
  0.00000000E+00  0.00000000E+00  0.00000000E+00
  0.00000000E+00  0.00000000E+00  0.00000000E+00
  0.00000000E+00  0.00000000E+00  0.00000000E+00
  0.00000000E+00  0.00000000E+00  0.00000000E+00
  0.00000000E+00  0.00000000E+00  0.00000000E+00
  0.00000000E+00  0.00000000E+00  0.00000000E+00
  0.00000000E+00  0.00000000E+00  0.00000000E+00
  0.00000000E+00  0.00000000E+00  0.00000000E+00
  0.00000000E+00  0.00000000E+00  0.00000000E+00
  0.00000000E+00  0.00000000E+00  0.00000000E+00
  0.00000000E+00  0.00000000E+00  0.00000000E+00
  0.00000000E+00  0.00000000E+00  0.00000000E+00
  0.00000000E+00  0.00000000E+00  0.00000000E+00
  0.00000000E+00  0.00000000E+00  0.00000000E+00
  0.00000000E+00  0.00000000E+00  0.00000000E+00
  0.00000000E+00  0.00000000E+00  0.00000000E+00
  0.00000000E+00  0.00000000E+00  0.00000000E+00
  0.00000000E+00  0.00000000E+00  0.00000000E+00
  0.00000000E+00  0.00000000E+00  0.00000000E+00
  0.00000000E+00  0.00000000E+00  0.00000000E+00
  0.00000000E+00  0.00000000E+00  0.00000000E+00
  0.00000000E+00  0.00000000E+00  0.00000000E+00
  0.00000000E+00  0.00000000E+00  0.00000000E+00
  0.00000000E+00  0.00000000E+00  0.00000000E+00
  0.00000000E+00  0.00000000E+00  0.00000000E+00
  0.00000000E+00  0.00000000E+00  0.00000000E+00
  0.00000000E+00  0.00000000E+00  0.00000000E+00
  0.00000000E+00  0.00000000E+00  0.00000000E+00
  0.00000000E+00  0.00000000E+00  0.00000000E+00
  0.00000000E+00  0.00000000E+00  0.00000000E+00
  0.00000000E+00  0.00000000E+00  0.00000000E+00
  0.00000000E+00  0.00000000E+00  0.00000000E+00
  0.00000000E+00  0.00000000E+00  0.00000000E+00
  0.00000000E+00  0.00000000E+00  0.00000000E+00
  0.00000000E+00  0.00000000E+00  0.00000000E+00
  0.00000000E+00  0.00000000E+00  0.00000000E+00
  0.00000000E+00  0.00000000E+00  0.00000000E+00
  0.00000000E+00  0.00000000E+00  0.00000000E+00
  0.00000000E+00  0.00000000E+00  0.00000000E+00
  0.00000000E+00  0.00000000E+00  0.00000000E+00
  0.00000000E+00  0.00000000E+00  0.00000000E+00
  0.00000000E+00  0.00000000E+00  0.00000000E+00
  0.00000000E+00  0.00000000E+00  0.00000000E+00
  0.00000000E+00  0.00000000E+00  0.00000000E+00
  0.00000000E+00  0.00000000E+00  0.00000000E+00
  0.00000000E+00  0.00000000E+00  0.00000000E+00
  0.00000000E+00  0.00000000E+00  0.00000000E+00
  0.00000000E+00  0.00000000E+00  0.00000000E+00
  0.00000000E+00  0.00000000E+00  0.00000000E+00
  0.00000000E+00  0.00000000E+00  0.00000000E+00
  0.00000000E+00  0.00000000E+00  0.00000000E+00
  0.00000000E+00  0.00000000E+00  0.00000000E+00
  0.00000000E+00  0.00000000E+00  0.00000000E+00
  0.00000000E+00  0.00000000E+00  0.00000000E+00
  0.00000000E+00  0.00000000E+00  0.00000000E+00
  0.00000000E+00  0.00000000E+00  0.00000000E+00
  0.00000000E+00  0.00000000E+00  0.00000000E+00
  0.00000000E+00  0.00000000E+00  0.00000000E+00
  0.00000000E+00  0.00000000E+00  0.00000000E+00
  0.00000000E+00  0.00000000E+00  0.00000000E+00
  0.00000000E+00  0.00000000E+00  0.00000000E+00
  0.00000000E+00  0.00000000E+00  0.00000000E+00
  0.00000000E+00  0.00000000E+00  0.00000000E+00
  0.00000000E+00  0.00000000E+00  0.00000000E+00
  0.00000000E+00  0.00000000E+00  0.00000000E+00
  0.00000000E+00  0.00000000E+00  0.00000000E+00
  0.00000000E+00  0.00000000E+00  0.00000000E+00
  0.00000000E+00  0.00000000E+00  0.00000000E+00
  0.00000000E+00  0.00000000E+00  0.00000000E+00
  0.00000000E+00  0.00000000E+00  0.00000000E+00
  0.00000000E+00  0.00000000E+00  0.00000000E+00
  0.00000000E+00  0.00000000E+00  0.00000000E+00
  0.00000000E+00  0.00000000E+00  0.00000000E+00
  0.00000000E+00  0.00000000E+00  0.00000000E+00
  0.00000000E+00  0.00000000E+00  0.00000000E+00
  0.00000000E+00  0.00000000E+00  0.00000000E+00
  0.00000000E+00  0.00000000E+00  0.00000000E+00
  0.00000000E+00  0.00000000E+00  0.00000000E+00
  0.00000000E+00  0.00000000E+00  0.00000000E+00
  0.00000000E+00  0.00000000E+00  0.00000000E+00
  0.00000000E+00  0.00000000E+00  0.00000000E+00
  0.00000000E+00  0.00000000E+00  0.00000000E+00
  0.00000000E+00  0.00000000E+00  0.00000000E+00
  0.00000000E+00  0.00000000E+00  0.00000000E+00
  0.00000000E+00  0.00000000E+00  0.00000000E+00
  0.00000000E+00  0.00000000E+00  0.00000000E+00
  0.00000000E+00  0.00000000E+00  0.00000000E+00
  0.00000000E+00  0.00000000E+00  0.00000000E+00
  0.00000000E+00  0.00000000E+00  0.00000000E+00
  0.00000000E+00  0.00000000E+00  0.00000000E+00
  0.00000000E+00  0.00000000E+00  0.00000000E+00
  0.00000000E+00  0.00000000E+00  0.00000000E+00
  0.00000000E+00  0.00000000E+00  0.00000000E+00
  0.00000000E+00  0.00000000E+00  0.00000000E+00
  0.00000000E+00  0.00000000E+00  0.00000000E+00
  0.00000000E+00  0.00000000E+00  0.00000000E+00
  0.00000000E+00  0.00000000E+00  0.00000000E+00
  0.00000000E+00  0.00000000E+00  0.00000000E+00
  0.00000000E+00  0.00000000E+00  0.00000000E+00
  0.00000000E+00  0.00000000E+00  0.00000000E+00
  0.00000000E+00  0.00000000E+00  0.00000000E+00
  0.00000000E+00  0.00000000E+00  0.00000000E+00
  0.00000000E+00  0.00000000E+00  0.00000000E+00
  0.00000000E+00  0.00000000E+00  0.00000000E+00
  0.00000000E+00  0.00000000E+00  0.00000000E+00
  0.00000000E+00  0.00000000E+00  0.00000000E+00
  0.00000000E+00  0.00000000E+00  0.00000000E+00
  0.00000000E+00  0.00000000E+00  0.00000000E+00
  0.00000000E+00  0.00000000E+00  0.00000000E+00
  0.00000000E+00  0.00000000E+00  0.00000000E+00
  0.00000000E+00  0.00000000E+00  0.00000000E+00
  0.00000000E+00  0.00000000E+00  0.00000000E+00
  0.00000000E+00  0.00000000E+00  0.00000000E+00
