       N       E                     dE             d eps       ncg     rms          rms(c)
DAV:   1     0.106158910406E+05    0.10616E+05   -0.27156E+05 17616   0.170E+03
DAV:   2     0.124965274791E+04   -0.93662E+04   -0.87476E+04 24016   0.781E+02
DAV:   3    -0.480897108725E+03   -0.17305E+04   -0.16024E+04 29488   0.353E+02
DAV:   4    -0.732968928257E+03   -0.25207E+03   -0.24003E+03 32528   0.173E+02
DAV:   5    -0.760107527823E+03   -0.27139E+02   -0.26248E+02 32528   0.744E+01    0.289E+02
DAV:   6    -0.642123321616E+03    0.11798E+03   -0.22142E+02 30248   0.555E+01    0.169E+02
DAV:   7    -0.647687743503E+03   -0.55644E+01   -0.23391E+02 29304   0.471E+01    0.545E+01
DAV:   8    -0.643718305184E+03    0.39694E+01   -0.59616E+01 28752   0.384E+01    0.208E+01
DAV:   9    -0.641822890580E+03    0.18954E+01   -0.18479E+01 30072   0.212E+01    0.814E+00
DAV:  10    -0.641514700699E+03    0.30819E+00   -0.63398E+00 30232   0.100E+01    0.823E+00
DAV:  11    -0.641531525993E+03   -0.16825E-01   -0.11876E+00 30472   0.424E+00    0.602E+00
DAV:  12    -0.641516336253E+03    0.15190E-01   -0.28413E-01 30584   0.222E+00    0.261E+00
DAV:  13    -0.641499929403E+03    0.16407E-01   -0.13497E-01 27844   0.148E+00    0.148E+00
DAV:  14    -0.641494724224E+03    0.52052E-02   -0.40610E-02 28528   0.912E-01    0.766E-01
DAV:  15    -0.641495845548E+03   -0.11213E-02   -0.12290E-02 30380   0.333E-01    0.605E-01
DAV:  16    -0.641495341216E+03    0.50433E-03   -0.20637E-03 29272   0.192E-01    0.114E-01
DAV:  17    -0.641495346647E+03   -0.54305E-05   -0.80369E-04 30856   0.905E-02    0.101E-01
DAV:  18    -0.641495340509E+03    0.61374E-05   -0.16237E-04 28880   0.550E-02    0.232E-02
DAV:  19    -0.641495340235E+03    0.27455E-06   -0.33481E-05 31944   0.186E-02    0.205E-02
DAV:  20    -0.641495340605E+03   -0.37045E-06   -0.38441E-06 18168   0.106E-02
   1 F= 0.27141264E+03 E0= 0.27140857E+03  d E =0.271413E+03
