opt                                     
           1
    10.326774    0.020091    0.003031
     0.019941   10.281275    0.088660
     0.001807    0.059043    6.888580
   Sc   Zr   Y    K    H 
   9   9   9   9 216
Direct configuration=     1
   0.15925117  0.16258588  0.26065717
   0.16892464  0.49740469  0.24251435
   0.83566683  0.16960343  0.23735356
   0.67663794  0.32010212  0.49948944
   0.83539979  0.16909166  0.76384934
   0.33060959  0.00371283  0.01246105
   0.00561761  0.66270957  0.49146980
   0.67294146  0.00417693  0.99829392
   0.00136033  0.00537592  0.00987492
   0.15808830  0.16988931  0.75063514
   0.32379033  0.32317457  0.49605958
   0.50043235  0.16768852  0.74811877
   0.33333626  0.32565139  0.00121854
   0.66229303  0.33552239  0.99363650
   0.83348993  0.49445181  0.24943201
   0.66422277  0.67420819  0.49748066
   0.49987373  0.83582830  0.75894833
   0.83361883  0.83808088  0.24638211
   0.50197861  0.16061225  0.25941269
   0.17082789  0.83172392  0.24811225
   0.49961769  0.49822388  0.24979742
   0.33495436  0.67223577  0.00943274
   0.83480016  0.50172572  0.74095979
   0.67089932  0.66866170  0.99961246
   0.00442448  0.33581969  0.99827862
   0.84157057  0.84452875  0.73842377
   0.00433003  0.66965956  0.99501174
   0.16974639  0.50653304  0.74040074
   0.33967765  0.64123388  0.51941892
   0.17263054  0.85022851  0.73305105
   0.49774140  0.50251288  0.73965334
   0.50384752  0.83834753  0.25503770
   0.32150676  0.98314971  0.51869103
   0.99248523  0.33493546  0.50043352
   0.65757277  0.00409033  0.49138840
   0.99121160  0.99274168  0.51102223
   0.16510833  0.08564486  0.01383399
   0.15855394  0.08180453  0.51139428
   0.17353923  0.41869371  0.00018348
   0.50001159  0.08203364  0.99943758
   0.32658928  0.24133513  0.25304217
   0.16248738  0.40819491  0.48768824
   0.48323715  0.07234128  0.50813435
   0.33123803  0.24358390  0.75366642
   0.16796320  0.76274830  0.98598991
   0.49680940  0.41802280  0.99030574
   0.32543152  0.57509185  0.25499585
   0.18877325  0.74741039  0.50612305
   0.83344552  0.08525449  0.01344294
   0.67454372  0.25137619  0.24266142
   0.52271037  0.41412221  0.50157305
   0.33622068  0.57721191  0.78337518
   0.83029792  0.08377587  0.46667478
   0.66915566  0.24811047  0.74924418
   0.50266768  0.75605528  0.00967930
   0.33825331  0.92094392  0.25002361
   0.83108392  0.41626608  0.99777221
   0.67131972  0.58122398  0.25702847
   0.49258283  0.73987615  0.48566693
   0.34266756  0.92251312  0.78373558
   0.99839002  0.25171863  0.25317589
   0.82189288  0.41439206  0.49352272
   0.66373188  0.58044654  0.74387139
   0.99451096  0.25119935  0.75031767
   0.83758331  0.75585105  0.99496123
   0.67095644  0.92397564  0.23471036
   0.99868085  0.58291288  0.24674855
   0.83169349  0.74930401  0.48919210
   0.67009817  0.92962332  0.75245429
   0.00431173  0.58923642  0.73976653
   0.00087605  0.91812622  0.24861727
   0.00728661  0.93080017  0.77928227
   0.08226835  0.16396480  0.00962753
   0.07150492  0.16319745  0.48883702
   0.09053539  0.50299676  0.00449561
   0.41720873  0.15968446  0.00334079
   0.24379098  0.32856298  0.24727046
   0.07596782  0.50250223  0.48459932
   0.41028597  0.15760787  0.50570078
   0.24912718  0.33233021  0.75964954
   0.08675801  0.84278913  0.99397663
   0.41615106  0.49011615  0.99520110
   0.25323610  0.66161107  0.26865280
   0.08006922  0.82464648  0.49486486
   0.74794750  0.16595817  0.98955385
   0.58666804  0.33092749  0.26211277
   0.42008353  0.46942697  0.49393936
   0.25171455  0.68361032  0.76479483
   0.74951811  0.16361625  0.52785124
   0.58062219  0.33439708  0.72726940
   0.42148296  0.84232650  0.00548821
   0.24351504  0.00759465  0.25587928
   0.75180249  0.49801163  0.99817320
   0.58569286  0.66728641  0.25305095
   0.41562966  0.81865321  0.51095801
   0.24943361  0.01520100  0.77916176
   0.91709105  0.32790965  0.24680235
   0.74843576  0.50894654  0.49102197
   0.58712735  0.67102059  0.74637451
   0.91570888  0.32656967  0.75245006
   0.75300257  0.84465354  0.99054006
   0.58865614  0.99911811  0.22511756
   0.91733314  0.66620235  0.26357711
   0.74692362  0.83818445  0.49887625
   0.58625478  0.99994681  0.76397632
   0.91817036  0.67318816  0.72562792
   0.91744335  0.00689419  0.24864690
   0.91822776  0.01787578  0.77074683
   0.16470364  0.01024966  0.12748704
   0.15443224  0.02071628  0.62947495
   0.17097472  0.32830662  0.12916285
   0.49687940  0.99933972  0.11600456
   0.32333983  0.15309469  0.38484672
   0.16092136  0.33527314  0.62099173
   0.49293920  0.00257268  0.63465313
   0.33063472  0.16056425  0.88203715
   0.16578897  0.66310657  0.12828298
   0.49942118  0.32870498  0.12773172
   0.32513657  0.48476300  0.36827742
   0.15365362  0.67968792  0.61815861
   0.83653281  0.00465810  0.11665183
   0.68372734  0.17032915  0.37013367
   0.50199597  0.32953237  0.62756989
   0.33257462  0.50906271  0.86974019
   0.82127365  0.02223034  0.62870640
   0.66925496  0.16738134  0.87827276
   0.50539738  0.67140293  0.12841297
   0.33992356  0.81630060  0.37854909
   0.83090131  0.33291541  0.11838333
   0.67087576  0.48954901  0.37503740
   0.50436655  0.67934037  0.63558884
   0.32999509  0.84417824  0.88297144
   0.99592397  0.16237179  0.37772358
   0.82612014  0.32280758  0.62648823
   0.66632789  0.50158777  0.86266054
   0.99964400  0.16446121  0.88777853
   0.83819443  0.66640988  0.12567922
   0.67183803  0.83637874  0.37448639
   0.00996829  0.50240306  0.37411101
   0.83910673  0.67294690  0.61129706
   0.67245761  0.83720645  0.86824042
   0.00106535  0.50657804  0.86251786
   0.99763116  0.82983772  0.36950073
   0.00883851  0.83225692  0.85956878
   0.07723479  0.00453139  0.25319953
   0.07721908  0.00676499  0.76973869
   0.08204334  0.32854573  0.25489459
   0.40784217  0.99598059  0.26201842
   0.24539069  0.15346234  0.49836929
   0.08424354  0.33797592  0.74198094
   0.41379082  0.00153108  0.76758094
   0.24950852  0.16118745  0.00446768
   0.08617541  0.66232677  0.25828821
   0.41552745  0.33154951  0.25075667
   0.23480061  0.49767138  0.47998917
   0.08836698  0.67482046  0.72616440
   0.75291319  0.00627309  0.24403459
   0.58350700  0.17592877  0.51090217
   0.41751137  0.33352426  0.75096922
   0.25088280  0.49316857  0.99490117
   0.74883027  0.01136219  0.74398166
   0.58339448  0.16111281  0.99981859
   0.41638443  0.66811182  0.26066912
   0.25231334  0.80421321  0.48966346
   0.74953244  0.33038130  0.24754203
   0.58600808  0.47123229  0.50150683
   0.42537563  0.67498979  0.76164061
   0.24895032  0.83872519  0.98579064
   0.91350580  0.16456642  0.52436980
   0.74723868  0.32578904  0.74461074
   0.57911574  0.49926767  0.99240494
   0.91829889  0.16546545  0.99585775
   0.75356216  0.66424223  0.25709694
   0.57949031  0.83746060  0.51310439
   0.91855781  0.50962247  0.48387119
   0.75248107  0.67682024  0.73824900
   0.58687526  0.84810766  0.99800191
   0.91914291  0.50105559  0.00471366
   0.91997907  0.81662319  0.48486225
   0.92070603  0.84544672  0.99455014
   0.00297582  0.16527242  0.12962312
   0.97910018  0.16278210  0.61422176
   0.00281524  0.50285546  0.12698693
   0.32584472  0.15895683  0.13608351
   0.15880968  0.32894240  0.37243601
   0.00549551  0.50774570  0.61608816
   0.32783330  0.15921853  0.63042890
   0.17237430  0.33595474  0.86861167
   0.00042064  0.83990094  0.12481357
   0.32862160  0.49142299  0.12721882
   0.16206691  0.65893996  0.37240428
   0.01049963  0.81357560  0.60683293
   0.66834014  0.17038831  0.12406423
   0.49865056  0.32628468  0.37986708
   0.33258282  0.47099475  0.62517139
   0.16963818  0.67408719  0.87046895
   0.68701186  0.16352005  0.61991685
   0.49896065  0.33333918  0.86644313
   0.33927737  0.84126251  0.12887442
   0.15926725  0.99440227  0.38405667
   0.66877937  0.49415950  0.12918868
   0.49845976  0.67572796  0.38387819
   0.34704501  0.80903026  0.63539954
   0.16577912  0.00735448  0.88488993
   0.83028718  0.31715767  0.37907342
   0.66812221  0.50389665  0.61603997
   0.50455291  0.66645010  0.87662958
   0.82884740  0.33341110  0.87171538
   0.66976116  0.84113979  0.12548654
   0.48295496  0.99976577  0.38884982
   0.84638424  0.66386167  0.36747235
   0.67278937  0.83518112  0.61833540
   0.50807230  0.00486907  0.87764563
   0.83842550  0.67293012  0.86860311
   0.82769775  0.02279857  0.38185476
   0.82926033  0.00618228  0.87803762
   0.99109112  0.08090922  0.25857355
   0.99358204  0.08878225  0.75442348
   0.00784341  0.41908449  0.25063222
   0.32451573  0.08091373  0.26036236
   0.15631192  0.24826676  0.48750095
   0.00362077  0.41897791  0.74553591
   0.33741259  0.08385077  0.76125834
   0.16889717  0.24606046  0.01396820
   0.00041301  0.74746873  0.24580948
   0.32664805  0.41006424  0.24797468
   0.17374968  0.57073087  0.47678710
   0.00980034  0.76671515  0.75939440
   0.68158654  0.08631932  0.23752378
   0.49123290  0.25552803  0.50010769
   0.33198816  0.41172250  0.73906001
   0.17095516  0.58068938  0.99907007
   0.66582884  0.08638608  0.75339322
   0.50095684  0.24571425  0.00353421
   0.33964878  0.74443099  0.27669615
   0.15095153  0.91705609  0.47603387
   0.66769047  0.41300191  0.26809347
   0.51875567  0.57703013  0.49251777
   0.31889966  0.74445706  0.74138300
   0.16353140  0.92639936  0.99342349
   0.83303820  0.24613718  0.47430825
   0.66548639  0.41302791  0.73373164
   0.50388151  0.58186001  0.99248175
   0.83079612  0.25225336  0.00629458
   0.67183438  0.75413645  0.24329100
   0.49563560  0.90771290  0.51125508
   0.82322891  0.58645804  0.49066218
   0.67174607  0.76605930  0.76039726
   0.48848192  0.92508675  0.00620705
   0.83694417  0.58415073  0.99691755
   0.82253553  0.91985325  0.48185848
   0.83774301  0.92562441  0.99757142
