generated by phonopy                    
   1.00000000000000     
     0.0000000000000000    3.3529726920025253    3.3529726920026057
     3.3529726920025564    0.0000000000000000    3.3529726920026057
     3.3529726920025564    3.3529726920025253    0.0000000000000000
   K    Y    Zr   Ce   H 
     1     1     1     1    24
Direct
  0.2500000000000000  0.2500000000000000  0.2500000000000000
  0.7500000000000000  0.7500000000000000  0.7500000000000000
  0.0000000000000000  0.0000000000000000  0.0000000000000000
  0.5000000000000000  0.5000000000000000  0.5000000000000000
  0.1243934864713552  0.8833795784088068  0.6235714747356980
  0.8833795784088068  0.1243934864713552  0.3686554603841401
  0.6235714747356980  0.3686554603841401  0.1243934864713552
  0.3686554603841401  0.6235714747356980  0.8833795784088068
  0.6235714747356980  0.1243934864713552  0.8833795784088068
  0.3686554603841401  0.8833795784088068  0.1243934864713552
  0.1243934864713552  0.6235714747356980  0.3686554603841401
  0.8833795784088068  0.3686554603841401  0.6235714747356980
  0.8833795784088068  0.6235714747356980  0.1243934864713552
  0.1243934864713552  0.3686554603841401  0.8833795784088068
  0.3686554603841401  0.1243934864713552  0.6235714747356980
  0.6235714747356980  0.8833795784088068  0.3686554603841401
  0.1243934864713552  0.3686554603841401  0.6235714747356980
  0.3686554603841401  0.1243934864713552  0.8833795784088068
  0.6235714747356980  0.8833795784088068  0.1243934864713552
  0.8833795784088068  0.6235714747356980  0.3686554603841401
  0.6235714747356980  0.1243934864713552  0.3686554603841401
  0.8833795784088068  0.3686554603841401  0.1243934864713552
  0.1243934864713552  0.6235714747356980  0.8833795784088068
  0.3686554603841401  0.8833795784088068  0.6235714747356980
  0.3686554603841401  0.6235714747356980  0.1243934864713552
  0.1243934864713552  0.8833795784088068  0.3686554603841401
  0.8833795784088068  0.1243934864713552  0.6235714747356980
  0.6235714747356980  0.3686554603841401  0.8833795784088068
 
  0.00000000E+00  0.00000000E+00  0.00000000E+00
  0.00000000E+00  0.00000000E+00  0.00000000E+00
  0.00000000E+00  0.00000000E+00  0.00000000E+00
  0.00000000E+00  0.00000000E+00  0.00000000E+00
  0.00000000E+00  0.00000000E+00  0.00000000E+00
  0.00000000E+00  0.00000000E+00  0.00000000E+00
  0.00000000E+00  0.00000000E+00  0.00000000E+00
  0.00000000E+00  0.00000000E+00  0.00000000E+00
  0.00000000E+00  0.00000000E+00  0.00000000E+00
  0.00000000E+00  0.00000000E+00  0.00000000E+00
  0.00000000E+00  0.00000000E+00  0.00000000E+00
  0.00000000E+00  0.00000000E+00  0.00000000E+00
  0.00000000E+00  0.00000000E+00  0.00000000E+00
  0.00000000E+00  0.00000000E+00  0.00000000E+00
  0.00000000E+00  0.00000000E+00  0.00000000E+00
  0.00000000E+00  0.00000000E+00  0.00000000E+00
  0.00000000E+00  0.00000000E+00  0.00000000E+00
  0.00000000E+00  0.00000000E+00  0.00000000E+00
  0.00000000E+00  0.00000000E+00  0.00000000E+00
  0.00000000E+00  0.00000000E+00  0.00000000E+00
  0.00000000E+00  0.00000000E+00  0.00000000E+00
  0.00000000E+00  0.00000000E+00  0.00000000E+00
  0.00000000E+00  0.00000000E+00  0.00000000E+00
  0.00000000E+00  0.00000000E+00  0.00000000E+00
  0.00000000E+00  0.00000000E+00  0.00000000E+00
  0.00000000E+00  0.00000000E+00  0.00000000E+00
  0.00000000E+00  0.00000000E+00  0.00000000E+00
  0.00000000E+00  0.00000000E+00  0.00000000E+00
