generated by phonopy                    
   1.00000000000000     
     0.0000000000000000    3.4491335226513087    3.4491335226514308
     3.4491335226513615    0.0000000000000000    3.4491335226514308
     3.4491335226513615    3.4491335226513087    0.0000000000000000
   Sr   Y    Zr   Ce   H 
     1     1     1     1    24
Direct
  0.2500000000000000  0.2500000000000000  0.2500000000000000
  0.7500000000000000  0.7500000000000000  0.7500000000000000
  0.0000000000000000  0.0000000000000000  0.0000000000000000
  0.5000000000000000  0.5000000000000000  0.5000000000000000
  0.1209615478801354  0.8764416873874552  0.6298582989804942
  0.8764416873874552  0.1209615478801354  0.3727384657519295
  0.6298582989804942  0.3727384657519295  0.1209615478801354
  0.3727384657519295  0.6298582989804942  0.8764416873874552
  0.6298582989804942  0.1209615478801354  0.8764416873874552
  0.3727384657519295  0.8764416873874552  0.1209615478801354
  0.1209615478801354  0.6298582989804942  0.3727384657519295
  0.8764416873874552  0.3727384657519295  0.6298582989804942
  0.8764416873874552  0.6298582989804942  0.1209615478801354
  0.1209615478801354  0.3727384657519295  0.8764416873874552
  0.3727384657519295  0.1209615478801354  0.6298582989804942
  0.6298582989804942  0.8764416873874552  0.3727384657519295
  0.1209615478801354  0.3727384657519295  0.6298582989804942
  0.3727384657519295  0.1209615478801354  0.8764416873874552
  0.6298582989804942  0.8764416873874552  0.1209615478801354
  0.8764416873874552  0.6298582989804942  0.3727384657519295
  0.6298582989804942  0.1209615478801354  0.3727384657519295
  0.8764416873874552  0.3727384657519295  0.1209615478801354
  0.1209615478801354  0.6298582989804942  0.8764416873874552
  0.3727384657519295  0.8764416873874552  0.6298582989804942
  0.3727384657519295  0.6298582989804942  0.1209615478801354
  0.1209615478801354  0.8764416873874552  0.3727384657519295
  0.8764416873874552  0.1209615478801354  0.6298582989804942
  0.6298582989804942  0.3727384657519295  0.8764416873874552
 
  0.00000000E+00  0.00000000E+00  0.00000000E+00
  0.00000000E+00  0.00000000E+00  0.00000000E+00
  0.00000000E+00  0.00000000E+00  0.00000000E+00
  0.00000000E+00  0.00000000E+00  0.00000000E+00
  0.00000000E+00  0.00000000E+00  0.00000000E+00
  0.00000000E+00  0.00000000E+00  0.00000000E+00
  0.00000000E+00  0.00000000E+00  0.00000000E+00
  0.00000000E+00  0.00000000E+00  0.00000000E+00
  0.00000000E+00  0.00000000E+00  0.00000000E+00
  0.00000000E+00  0.00000000E+00  0.00000000E+00
  0.00000000E+00  0.00000000E+00  0.00000000E+00
  0.00000000E+00  0.00000000E+00  0.00000000E+00
  0.00000000E+00  0.00000000E+00  0.00000000E+00
  0.00000000E+00  0.00000000E+00  0.00000000E+00
  0.00000000E+00  0.00000000E+00  0.00000000E+00
  0.00000000E+00  0.00000000E+00  0.00000000E+00
  0.00000000E+00  0.00000000E+00  0.00000000E+00
  0.00000000E+00  0.00000000E+00  0.00000000E+00
  0.00000000E+00  0.00000000E+00  0.00000000E+00
  0.00000000E+00  0.00000000E+00  0.00000000E+00
  0.00000000E+00  0.00000000E+00  0.00000000E+00
  0.00000000E+00  0.00000000E+00  0.00000000E+00
  0.00000000E+00  0.00000000E+00  0.00000000E+00
  0.00000000E+00  0.00000000E+00  0.00000000E+00
  0.00000000E+00  0.00000000E+00  0.00000000E+00
  0.00000000E+00  0.00000000E+00  0.00000000E+00
  0.00000000E+00  0.00000000E+00  0.00000000E+00
  0.00000000E+00  0.00000000E+00  0.00000000E+00
