generated by phonopy                    
   1.00000000000000     
     0.0000000000000000    3.3350720019487308    3.3350720019488107
     3.3350720019487605    0.0000000000000000    3.3350720019488107
     3.3350720019487605    3.3350720019487308    0.0000000000000000
   Ca   Y    Ti   Th   H 
     1     1     1     1    24
Direct
  0.2500000000000000  0.2500000000000000  0.2500000000000000
  0.7500000000000000  0.7500000000000000  0.7500000000000000
  0.0000000000000000  0.0000000000000000  0.0000000000000000
  0.5000000000000000  0.5000000000000000  0.5000000000000000
  0.1186706486430040  0.8905566054087330  0.6338156763298812
  0.8905566054087330  0.1186706486430040  0.3569570696183675
  0.6338156763298812  0.3569570696183675  0.1186706486430040
  0.3569570696183675  0.6338156763298812  0.8905566054087330
  0.6338156763298812  0.1186706486430040  0.8905566054087330
  0.3569570696183675  0.8905566054087330  0.1186706486430040
  0.1186706486430040  0.6338156763298812  0.3569570696183675
  0.8905566054087330  0.3569570696183675  0.6338156763298812
  0.8905566054087330  0.6338156763298812  0.1186706486430040
  0.1186706486430040  0.3569570696183675  0.8905566054087330
  0.3569570696183675  0.1186706486430040  0.6338156763298812
  0.6338156763298812  0.8905566054087330  0.3569570696183675
  0.1186706486430040  0.3569570696183675  0.6338156763298812
  0.3569570696183675  0.1186706486430040  0.8905566054087330
  0.6338156763298812  0.8905566054087330  0.1186706486430040
  0.8905566054087330  0.6338156763298812  0.3569570696183675
  0.6338156763298812  0.1186706486430040  0.3569570696183675
  0.8905566054087330  0.3569570696183675  0.1186706486430040
  0.1186706486430040  0.6338156763298812  0.8905566054087330
  0.3569570696183675  0.8905566054087330  0.6338156763298812
  0.3569570696183675  0.6338156763298812  0.1186706486430040
  0.1186706486430040  0.8905566054087330  0.3569570696183675
  0.8905566054087330  0.1186706486430040  0.6338156763298812
  0.6338156763298812  0.3569570696183675  0.8905566054087330
 
  0.00000000E+00  0.00000000E+00  0.00000000E+00
  0.00000000E+00  0.00000000E+00  0.00000000E+00
  0.00000000E+00  0.00000000E+00  0.00000000E+00
  0.00000000E+00  0.00000000E+00  0.00000000E+00
  0.00000000E+00  0.00000000E+00  0.00000000E+00
  0.00000000E+00  0.00000000E+00  0.00000000E+00
  0.00000000E+00  0.00000000E+00  0.00000000E+00
  0.00000000E+00  0.00000000E+00  0.00000000E+00
  0.00000000E+00  0.00000000E+00  0.00000000E+00
  0.00000000E+00  0.00000000E+00  0.00000000E+00
  0.00000000E+00  0.00000000E+00  0.00000000E+00
  0.00000000E+00  0.00000000E+00  0.00000000E+00
  0.00000000E+00  0.00000000E+00  0.00000000E+00
  0.00000000E+00  0.00000000E+00  0.00000000E+00
  0.00000000E+00  0.00000000E+00  0.00000000E+00
  0.00000000E+00  0.00000000E+00  0.00000000E+00
  0.00000000E+00  0.00000000E+00  0.00000000E+00
  0.00000000E+00  0.00000000E+00  0.00000000E+00
  0.00000000E+00  0.00000000E+00  0.00000000E+00
  0.00000000E+00  0.00000000E+00  0.00000000E+00
  0.00000000E+00  0.00000000E+00  0.00000000E+00
  0.00000000E+00  0.00000000E+00  0.00000000E+00
  0.00000000E+00  0.00000000E+00  0.00000000E+00
  0.00000000E+00  0.00000000E+00  0.00000000E+00
  0.00000000E+00  0.00000000E+00  0.00000000E+00
  0.00000000E+00  0.00000000E+00  0.00000000E+00
  0.00000000E+00  0.00000000E+00  0.00000000E+00
  0.00000000E+00  0.00000000E+00  0.00000000E+00
