generated by phonopy                    
   1.00000000000000     
     0.0000000000000000    3.2157577767581973    3.2157577767582821
     3.2157577767582319    0.0000000000000000    3.2157577767582821
     3.2157577767582319    3.2157577767581973    0.0000000000000000
   Na   Zr   Ca   Sc   H 
     1     1     1     1    24
Direct
  0.2500000000000000  0.2500000000000000  0.2500000000000000
  0.7500000000000000  0.7500000000000000  0.7500000000000000
  0.0000000000000000  0.0000000000000000  0.0000000000000000
  0.5000000000000000  0.5000000000000000  0.5000000000000000
  0.1370322721991499  0.8867593589367573  0.6131594367844713
  0.8867593589367573  0.1370322721991499  0.3630489320796286
  0.6131594367844713  0.3630489320796286  0.1370322721991499
  0.3630489320796286  0.6131594367844713  0.8867593589367573
  0.6131594367844713  0.1370322721991499  0.8867593589367573
  0.3630489320796286  0.8867593589367573  0.1370322721991499
  0.1370322721991499  0.6131594367844713  0.3630489320796286
  0.8867593589367573  0.3630489320796286  0.6131594367844713
  0.8867593589367573  0.6131594367844713  0.1370322721991499
  0.1370322721991499  0.3630489320796286  0.8867593589367573
  0.3630489320796286  0.1370322721991499  0.6131594367844713
  0.6131594367844713  0.8867593589367573  0.3630489320796286
  0.1370322721991499  0.3630489320796286  0.6131594367844713
  0.3630489320796286  0.1370322721991499  0.8867593589367573
  0.6131594367844713  0.8867593589367573  0.1370322721991499
  0.8867593589367573  0.6131594367844713  0.3630489320796286
  0.6131594367844713  0.1370322721991499  0.3630489320796286
  0.8867593589367573  0.3630489320796286  0.1370322721991499
  0.1370322721991499  0.6131594367844713  0.8867593589367573
  0.3630489320796286  0.8867593589367573  0.6131594367844713
  0.3630489320796286  0.6131594367844713  0.1370322721991499
  0.1370322721991499  0.8867593589367573  0.3630489320796286
  0.8867593589367573  0.1370322721991499  0.6131594367844713
  0.6131594367844713  0.3630489320796286  0.8867593589367573
 
  0.00000000E+00  0.00000000E+00  0.00000000E+00
  0.00000000E+00  0.00000000E+00  0.00000000E+00
  0.00000000E+00  0.00000000E+00  0.00000000E+00
  0.00000000E+00  0.00000000E+00  0.00000000E+00
  0.00000000E+00  0.00000000E+00  0.00000000E+00
  0.00000000E+00  0.00000000E+00  0.00000000E+00
  0.00000000E+00  0.00000000E+00  0.00000000E+00
  0.00000000E+00  0.00000000E+00  0.00000000E+00
  0.00000000E+00  0.00000000E+00  0.00000000E+00
  0.00000000E+00  0.00000000E+00  0.00000000E+00
  0.00000000E+00  0.00000000E+00  0.00000000E+00
  0.00000000E+00  0.00000000E+00  0.00000000E+00
  0.00000000E+00  0.00000000E+00  0.00000000E+00
  0.00000000E+00  0.00000000E+00  0.00000000E+00
  0.00000000E+00  0.00000000E+00  0.00000000E+00
  0.00000000E+00  0.00000000E+00  0.00000000E+00
  0.00000000E+00  0.00000000E+00  0.00000000E+00
  0.00000000E+00  0.00000000E+00  0.00000000E+00
  0.00000000E+00  0.00000000E+00  0.00000000E+00
  0.00000000E+00  0.00000000E+00  0.00000000E+00
  0.00000000E+00  0.00000000E+00  0.00000000E+00
  0.00000000E+00  0.00000000E+00  0.00000000E+00
  0.00000000E+00  0.00000000E+00  0.00000000E+00
  0.00000000E+00  0.00000000E+00  0.00000000E+00
  0.00000000E+00  0.00000000E+00  0.00000000E+00
  0.00000000E+00  0.00000000E+00  0.00000000E+00
  0.00000000E+00  0.00000000E+00  0.00000000E+00
  0.00000000E+00  0.00000000E+00  0.00000000E+00
