generated by phonopy                    
   1.00000000000000     
     0.0000000000000000    3.2310878931932439    3.2310878931933296
     3.2310878931932776    0.0000000000000000    3.2310878931933296
     3.2310878931932776    3.2310878931932439    0.0000000000000000
   Na   Sr   Mg   Zr   H 
     1     1     1     1    24
Direct
  0.2500000000000000  0.2500000000000000  0.2500000000000000
  0.7500000000000000  0.7500000000000000  0.7500000000000000
  0.0000000000000000  0.0000000000000000  0.0000000000000000
  0.5000000000000000  0.5000000000000000  0.5000000000000000
  0.1229522523361197  0.9007815574665230  0.6211215067983318
  0.9007815574665230  0.1229522523361197  0.3551446833990255
  0.6211215067983318  0.3551446833990255  0.1229522523361197
  0.3551446833990255  0.6211215067983318  0.9007815574665230
  0.6211215067983318  0.1229522523361197  0.9007815574665230
  0.3551446833990255  0.9007815574665230  0.1229522523361197
  0.1229522523361197  0.6211215067983318  0.3551446833990255
  0.9007815574665230  0.3551446833990255  0.6211215067983318
  0.9007815574665230  0.6211215067983318  0.1229522523361197
  0.1229522523361197  0.3551446833990255  0.9007815574665230
  0.3551446833990255  0.1229522523361197  0.6211215067983318
  0.6211215067983318  0.9007815574665230  0.3551446833990255
  0.1229522523361197  0.3551446833990255  0.6211215067983318
  0.3551446833990255  0.1229522523361197  0.9007815574665230
  0.6211215067983318  0.9007815574665230  0.1229522523361197
  0.9007815574665230  0.6211215067983318  0.3551446833990255
  0.6211215067983318  0.1229522523361197  0.3551446833990255
  0.9007815574665230  0.3551446833990255  0.1229522523361197
  0.1229522523361197  0.6211215067983318  0.9007815574665230
  0.3551446833990255  0.9007815574665230  0.6211215067983318
  0.3551446833990255  0.6211215067983318  0.1229522523361197
  0.1229522523361197  0.9007815574665230  0.3551446833990255
  0.9007815574665230  0.1229522523361197  0.6211215067983318
  0.6211215067983318  0.3551446833990255  0.9007815574665230
 
  0.00000000E+00  0.00000000E+00  0.00000000E+00
  0.00000000E+00  0.00000000E+00  0.00000000E+00
  0.00000000E+00  0.00000000E+00  0.00000000E+00
  0.00000000E+00  0.00000000E+00  0.00000000E+00
  0.00000000E+00  0.00000000E+00  0.00000000E+00
  0.00000000E+00  0.00000000E+00  0.00000000E+00
  0.00000000E+00  0.00000000E+00  0.00000000E+00
  0.00000000E+00  0.00000000E+00  0.00000000E+00
  0.00000000E+00  0.00000000E+00  0.00000000E+00
  0.00000000E+00  0.00000000E+00  0.00000000E+00
  0.00000000E+00  0.00000000E+00  0.00000000E+00
  0.00000000E+00  0.00000000E+00  0.00000000E+00
  0.00000000E+00  0.00000000E+00  0.00000000E+00
  0.00000000E+00  0.00000000E+00  0.00000000E+00
  0.00000000E+00  0.00000000E+00  0.00000000E+00
  0.00000000E+00  0.00000000E+00  0.00000000E+00
  0.00000000E+00  0.00000000E+00  0.00000000E+00
  0.00000000E+00  0.00000000E+00  0.00000000E+00
  0.00000000E+00  0.00000000E+00  0.00000000E+00
  0.00000000E+00  0.00000000E+00  0.00000000E+00
  0.00000000E+00  0.00000000E+00  0.00000000E+00
  0.00000000E+00  0.00000000E+00  0.00000000E+00
  0.00000000E+00  0.00000000E+00  0.00000000E+00
  0.00000000E+00  0.00000000E+00  0.00000000E+00
  0.00000000E+00  0.00000000E+00  0.00000000E+00
  0.00000000E+00  0.00000000E+00  0.00000000E+00
  0.00000000E+00  0.00000000E+00  0.00000000E+00
  0.00000000E+00  0.00000000E+00  0.00000000E+00
