POSCAR                                  
   1.00000000000000     
    10.2764747242797725    0.0373300905319285    0.0629499680066225
     0.0373837761386277   10.2565691089834861    0.0404650708431656
     0.0418281911400140    0.0267702406042924    6.8786068699393557
   Y    Ca   La   Zr   H 
     9     9     9     9   216
Direct
  0.1620628308436451  0.1618702079091250  0.2413380484435734
  0.1628675559797728  0.8377399467676483  0.2467362059219980
  0.3391799566927034  0.6705029689092470  0.5057685379469135
  0.8363572697633472  0.1691801391018402  0.7490210708324057
  0.8261825400504890  0.4992389889217392  0.2496560083058412
  0.4995105517030609  0.8315553861743297  0.7620527647753832
  0.3299957215940381  0.0034687781562610  0.9903542637635638
  0.6757157887008134  0.9989636053561028  0.5023815090155281
  0.6730217070939446  0.9972063367768271  0.9987164986482426
  0.1713461214718066  0.1652169914866519  0.7416057834838270
  0.1702570365813330  0.8388552876116222  0.7505806820195957
  0.5019845043196938  0.4991684959409355  0.7617728590318791
  0.3357446591484674  0.6686446304385214  0.9971367802997619
  0.6662277803282066  0.3325569375794188  0.9979768655985453
  0.6616389778061205  0.6608005988261425  0.0137796026387207
  0.9922729737317795  0.3238152000608636  0.9900822809518459
  0.8348045055316149  0.8293785646099323  0.2510092520433602
  0.0014701841814784  0.0011010604325961  0.9945905821178442
  0.1536943545780005  0.4991316165374400  0.2530767979875890
  0.3380855960272129  0.3445466964711201  0.4889939628356643
  0.1625208983986894  0.5054617528340160  0.7587777947892604
  0.4958380196558849  0.4928117048841045  0.2608825839347091
  0.4958864123234008  0.8401899835807711  0.2587889292592322
  0.3386342366327710  0.9976580046633572  0.4881487425279474
  0.0034778006029939  0.3372980384444517  0.4896719894244299
  0.8358810861476513  0.8310816792929003  0.7598717067490668
  0.0034873478775665  0.6631358458703005  0.9973273772369922
  0.5100492198439994  0.1663402367267395  0.2410714571762753
  0.5030033974584782  0.1694077129916991  0.7479233536259926
  0.3352205242845940  0.3268770407565640  0.9911505822301905
  0.8340100206964038  0.1640313436201666  0.2410752446499416
  0.6706338890984043  0.3291775981140290  0.5046355152209756
  0.6642222762402739  0.6678145316415609  0.5083242156486634
  0.8223472242544574  0.4975688286804854  0.7559497388302674
  0.9946439828357825  0.6752866590793545  0.5010173568638976
  0.0002358413568828  0.0026657918142590  0.5003939026098365
  0.1631995175647418  0.0837491666606098  0.9873308335138091
  0.1643212796926221  0.0803958183748392  0.4999622476319772
  0.1669493308982481  0.4074547784985469  0.0033034736922559
  0.4993204140358358  0.0858357833297987  0.9892420115901146
  0.3292588700922821  0.2487728630634152  0.2356093342568002
  0.1679649462776567  0.4256250668804284  0.5112916687123601
  0.5112137382252016  0.0869416275758113  0.5093678417515548
  0.3349314244685289  0.2533318703227820  0.7442678114588190
  0.1766078054120186  0.7567347566779645  0.9958605668423530
  0.4986781085512817  0.4127577211857627  0.9988342274874853
  0.3264429821257622  0.5827627305833474  0.2343076743751098
  0.1678314235635483  0.7593179705203994  0.5063182331764224
  0.8388029691417387  0.0825895306688338  0.9995264525129812
  0.6703046889331929  0.2472421624268435  0.2426198853371488
  0.5161032001235810  0.4184958379336976  0.5261062907170242
  0.3399461189031285  0.5839085872334380  0.7590646121717342
  0.8373364046050185  0.0850602069938731  0.4932803060463087
  0.6674079989119548  0.2521325365663003  0.7543069152234168
  0.5010802583092442  0.7479425693451063  0.0097552302032113
  0.3238238616896112  0.9184788155405883  0.2292695728276897
  0.8281558916724947  0.4104713354990679  0.0033954847647379
  0.6640054641360535  0.5815729459320380  0.2602453926266861
  0.5059737365813319  0.7496631682169976  0.5134302309110055
  0.3328598787651558  0.9167098112117102  0.7493658740732627
  0.9935092149183902  0.2451186806117320  0.2358101453037236
  0.8278703438518491  0.4216097817232196  0.5064824917440163
  0.6604262402225842  0.5808916453581290  0.7645381591279090
  0.0052534491412004  0.2466128462106170  0.7463645866617696
  0.8231100973237204  0.7417584952075700  0.0144432879868077
  0.6750756829093589  0.9135371244146384  0.2526578490154279
  0.9866493302276780  0.5889924054148921  0.2622518966568492
  0.8304571571248687  0.7488655140805918  0.4958757764456294
  0.6611754230135247  0.9139147678979000  0.7504816248800168
  0.9864769152873620  0.5819846964153754  0.7354552101751395
  0.9937561277881883  0.9174702106939918  0.2445271269755622
  0.0098805180596173  0.9204567007240172  0.7496010155453661
  0.0842782650265121  0.1673863655921153  0.9865578368426355
  0.0838620061805102  0.1600748885222316  0.5026689829064352
  0.0755600538547867  0.4775236613542830  0.0032018259266025
  0.4175974585312332  0.1660173114761818  0.0028909748480288
  0.2481061276040322  0.3237314172047903  0.2315520518095724
  0.0736167937949972  0.5172414653968502  0.5121667474497116
  0.4210922770655685  0.1713821287284816  0.4877469272574615
  0.2518230202098977  0.3275689384326199  0.7510382348493465
  0.0885813632018468  0.8410664607730709  0.9940915914335378
  0.4180642986237473  0.5047814593532181  0.9980443103752563
  0.2469629181824118  0.6710446514357287  0.2511514752370374
  0.0861826826992669  0.8365199707674336  0.5050618879378632
  0.7474150810539868  0.1688765889871959  0.0000800873119644
  0.5868238657985287  0.3241908738496946  0.2373162451198567
  0.4256165131959335  0.5113062333523004  0.5281466800929948
  0.2545521911990747  0.6780574452947761  0.7556075202605470
  0.7532663610505494  0.1669156975193786  0.4914976259411077
  0.5843605335136672  0.3370892126009366  0.7574265181167021
  0.4112117575508449  0.8317797595130685  0.0029722627979183
  0.2451807448534069  0.0017281322068214  0.2382424060419623
  0.7428672943438670  0.4952787431410641  0.0048376988031862
  0.5803717282573686  0.6662125078650405  0.2576169109463606
  0.4215594032648298  0.8278040227432513  0.5204038105241011
  0.2496639414934094  0.0018830840051436  0.7426266803853778
  0.9110062161502981  0.3293639561596535  0.2357820848196752
  0.7475292130215294  0.5029859023990042  0.5018119597161572
  0.5820821769151507  0.6584500803838296  0.7657597695415319
  0.9159133101547212  0.3377481523570509  0.7474966091296125
  0.7497413515626690  0.8237412092418310  0.0175400398524701
  0.5922071271050626  0.0063048617102410  0.2460009143180741
  0.9101592722853482  0.6656858014188245  0.2576715270377505
  0.7565184520393302  0.8282339521494606  0.4947340138611622
  0.5829811132532186  0.0048088705130738  0.7535041883827063
  0.9115572261584290  0.6570395086399046  0.7437337362061314
  0.9166283895939529  0.9976027146003759  0.2407440648658863
  0.9231427282537155  0.0044289330331111  0.7508375706690842
  0.1606642642217579  0.0008440544245261  0.1158644298496583
  0.1656592939528494  0.9998769725019301  0.6243759207875073
  0.1636159858494040  0.3264185266201309  0.1091066838759787
  0.5029493259099809  0.0081386686955298  0.1147328980615825
  0.3381061474295564  0.1717932406302651  0.3669500890896913
  0.1698049022043264  0.3307998887231420  0.6340989206879115
  0.5080880477501921  0.0068438621470435  0.6278198312876242
  0.3367360761945264  0.1674561758924327  0.8668471839417009
  0.1765362289007086  0.6720237333101835  0.1319462012830712
  0.5059952387290778  0.3248821182595023  0.1189900985463979
  0.3225347052715222  0.5183139462179156  0.3709315352753535
  0.1647382490066036  0.6785533777927242  0.6218709489284038
  0.8414834670502174  0.9929332297817695  0.1237126997461147
  0.6706467697282932  0.1670361071585376  0.3760444673362002
  0.5059105253184910  0.3339199260135501  0.6308804944739350
  0.3384444046994872  0.4997190272417242  0.8826171987597888
  0.8403052160822568  0.0037171862736898  0.6257830959829604
  0.6655763132389865  0.1695020431741412  0.8746347538259513
  0.4967382444231276  0.6675127507507668  0.1271329214281636
  0.3208431963916922  0.8251631306158700  0.3708939518866998
  0.8275936179284002  0.3314892737538102  0.1190678157427598
  0.6677041739080067  0.4978368933709234  0.3866600783376200
  0.5054726023390899  0.6624721909973985  0.6416238505438230
  0.3290087632827010  0.8335138295793243  0.8792895400988954
  0.9938273349387572  0.1597067660061811  0.3690110327341003
  0.8320547145487680  0.3349858059206881  0.6220924911906707
  0.6615174558671697  0.4996574131354237  0.8785260760046114
  0.0053697085679545  0.1622499801449564  0.8700069357307640
  0.8274219486300041  0.6682646515335477  0.1339213174135025
  0.6734478010579323  0.8300837684539388  0.3743549696638198
  0.9794228928746946  0.5160284893317453  0.3863314471764809
  0.8285095341215936  0.6604502381180595  0.6217136346366132
  0.6621491135206625  0.8218446155969019  0.8852683557776260
  0.9846420543085728  0.4881288648464945  0.8730089532857548
  0.9974467411920500  0.8385927834858791  0.3744013592075106
  0.0123504590707881  0.8414180499282153  0.8743300602589272
  0.0743098387835914  0.0008974849866448  0.2415128641498256
  0.0875583604383650  0.0039126379622587  0.7533623751811120
  0.0781150141650073  0.3241298414077818  0.2180668792967353
  0.4176962747346238  0.0163034475638000  0.2274869294970330
  0.2550633452433502  0.1703205969310133  0.4936432422127552
  0.0858276348611824  0.3256321442042704  0.7572089092397647
  0.4190533508935133  0.0035144675750871  0.7491241383944214
  0.2472575820644920  0.1708524173650048  0.9871550060778631
  0.0830063401549239  0.6760990005583452  0.2641639321808071
  0.4161487683409106  0.3176384407162871  0.2299799598791665
  0.2446509021452670  0.5178409541786380  0.5036900677689218
  0.0872204959627254  0.6807501127614159  0.7319150640024574
  0.7590120700453014  0.9985024099067203  0.2514169032940643
  0.5893797281854489  0.1667324146582914  0.4953936671873578
  0.4218618493018553  0.3353199111785727  0.7478459306304686
  0.2526095133947166  0.4928009150123529  0.0071841791942759
  0.7534615008032404  0.0063045997754543  0.7483483052529962
  0.5856144119078834  0.1686464098634914  0.9961804161278920
  0.4116353813911573  0.6650705386412312  0.2428861896084626
  0.2428140834166683  0.8271045887372495  0.5037775394090289
  0.7466480213137388  0.3277605786313416  0.2458394356362632
  0.5861696676282477  0.5014605863858392  0.5209318538926979
  0.4222947387618632  0.6618454027186900  0.7573620425291736
  0.2498646582780495  0.8293732991464822  0.9940563544141980
  0.9188396810634814  0.1686004400211019  0.4946132267659848
  0.7456622427024158  0.3323815387662208  0.7528799746742578
  0.5797255161704200  0.4952095867283575  0.0005591445515805
  0.9203689891906990  0.1602294041253884  0.9985340791009278
  0.7475774846102965  0.6666742989072105  0.2607709170173464
  0.5885412691352911  0.8315734540771871  0.5135686386840419
  0.9059405593557273  0.5055440992931395  0.5023447413565876
  0.7438163306984009  0.6614810795453678  0.7579305496307285
  0.5814095388335332  0.8286053317646704  0.0036501942134066
  0.9107184596020090  0.4917994188208965  0.0052443758531666
  0.9167983079217521  0.8380721736176966  0.4948717248277887
  0.9230364891369902  0.8385858646713515  0.0140148460343141
  0.9973219631670744  0.1607631005552150  0.1141764061934154
  0.0060077629827759  0.1639478947053306  0.6226215118450469
  0.9834411897322539  0.4867250998509789  0.1126331739719930
  0.3341874066228101  0.1672443060482962  0.1128230564807637
  0.1730449060542796  0.3219154172468990  0.3561742492608246
  0.9851463363410957  0.5091785626830401  0.6302692377607073
  0.3379476245446398  0.1702751288971456  0.6156065176987511
  0.1627719035200172  0.3259325649447362  0.8742206647820794
  0.9955356278076479  0.8406408936840890  0.1280045491090505
  0.3260057688726761  0.5106935982695475  0.1265756984482564
  0.1668782455982551  0.6740181231856823  0.3794826013982657
  0.0088784041793062  0.8357590604105738  0.6259406375017349
  0.6708720402809547  0.1676080226787064  0.1159716161159707
  0.5152042013735070  0.3164891763088988  0.3783999962598443
  0.3387301424283180  0.5082225125872952  0.6424261543231893
  0.1775621118460080  0.6800499993178235  0.8710828766808092
  0.6683988103747822  0.1667761070892411  0.6240304027296872
  0.5029459292928067  0.3320134644385035  0.8754894773258997
  0.3276761926399416  0.8286677582092850  0.1190530776229863
  0.1611122140473569  0.0004898869365064  0.3730156092184203
  0.6653613996455974  0.4951999583632301  0.1274267773389681
  0.5083879158021887  0.6656642876013379  0.3837584564266621
  0.3312586763366951  0.8321393390488083  0.6370589532224429
  0.1611554972583988  0.0037174950347563  0.8663031756554105
  0.8280536294011327  0.3306772205851942  0.3717811114543039
  0.6640397461872851  0.5008443653282981  0.6360670965395343
  0.5026395525090024  0.6624994629541376  0.8791176094965110
  0.8292841494877123  0.3318863629963360  0.8804273986740156
  0.6723329116559498  0.8252812430643814  0.1365516426164461
  0.5144093162956267  0.0157679253049494  0.3791410300415166
  0.8333679027532810  0.6658178186930570  0.3786616942995806
  0.6646935467201160  0.8281438372177163  0.6343708768392204
  0.5027541790443451  0.0045934984484362  0.8739802163377277
  0.8225195196075816  0.6582044333356976  0.8880730268268024
  0.8389800160962650  0.9955203556480470  0.3676161714121804
  0.8427920072331005  0.0072342148992490  0.8772786936569332
  0.9957260523383766  0.0765190087368026  0.2420706072218906
  0.0082374997877963  0.0828362950810586  0.7481587239818381
  0.9840894104446107  0.4071167155064117  0.2242535797858167
  0.3317456606388944  0.0899519634819654  0.2356749402254010
  0.1734374761087238  0.2466682355076628  0.4969188524304826
  0.9879519833825583  0.4131229404830776  0.7558544547318320
  0.3371052461463862  0.0859134623172011  0.7432358969268122
  0.1637089818959581  0.2445801664032174  0.9882368217853426
  0.9981835134641486  0.7560414015137127  0.2536942415802770
  0.3249602465939887  0.4144233097730705  0.2169989683289728
  0.1710294780324659  0.5976879160213002  0.5045159441390226
  0.0120651173498558  0.7584827005628654  0.7418179694482276
  0.6739686053007858  0.0830312535860003  0.2498508884810846
  0.5071968422544870  0.2497510414889774  0.5092292651866046
  0.3409972922403952  0.4218765213904305  0.7579405433745734
  0.1803661175501716  0.5880385716028513  0.0083513198741798
  0.6660707512470836  0.0860032482777626  0.7488220071653515
  0.5033909799803808  0.2487119130718796  0.9947166080953522
  0.3258438998229067  0.7491291400264544  0.2400029596742144
  0.1598138972385996  0.9146390358893441  0.5052088323229142
  0.6681266486005129  0.4082036215908715  0.2523810925360621
  0.5097936267763714  0.5801296070951452  0.5192584629238794
  0.3292773652355905  0.7503874907174293  0.7540849317727947
  0.1624797831074289  0.9193432330707765  0.9937473824630487
  0.8334199730321643  0.2508052894863866  0.4961957510349393
  0.6601177608731348  0.4158307249742492  0.7548284372259815
  0.4934804144009561  0.5770461518743986  0.0028430767659273
  0.8283426505668032  0.2527815026911142  0.9969987318239149
  0.6691035982366671  0.7534893103137250  0.2524792238072209
  0.5142194730065128  0.9175325892276973  0.5204668134828978
  0.8187618904688136  0.5803081601781770  0.5090773494511396
  0.6643571121566794  0.7463520861845723  0.7657216020958231
  0.5015755240287589  0.9234945986863963  0.9981915606674647
  0.8286380667174740  0.5767379662270500  0.9965860049554394
  0.8412326017566656  0.9147928678601147  0.4881651052173410
  0.8397049289007512  0.9171313071146798  0.0206968013459132
 
  0.00000000E+00  0.00000000E+00  0.00000000E+00
  0.00000000E+00  0.00000000E+00  0.00000000E+00
  0.00000000E+00  0.00000000E+00  0.00000000E+00
  0.00000000E+00  0.00000000E+00  0.00000000E+00
  0.00000000E+00  0.00000000E+00  0.00000000E+00
  0.00000000E+00  0.00000000E+00  0.00000000E+00
  0.00000000E+00  0.00000000E+00  0.00000000E+00
  0.00000000E+00  0.00000000E+00  0.00000000E+00
  0.00000000E+00  0.00000000E+00  0.00000000E+00
  0.00000000E+00  0.00000000E+00  0.00000000E+00
  0.00000000E+00  0.00000000E+00  0.00000000E+00
  0.00000000E+00  0.00000000E+00  0.00000000E+00
  0.00000000E+00  0.00000000E+00  0.00000000E+00
  0.00000000E+00  0.00000000E+00  0.00000000E+00
  0.00000000E+00  0.00000000E+00  0.00000000E+00
  0.00000000E+00  0.00000000E+00  0.00000000E+00
  0.00000000E+00  0.00000000E+00  0.00000000E+00
  0.00000000E+00  0.00000000E+00  0.00000000E+00
  0.00000000E+00  0.00000000E+00  0.00000000E+00
  0.00000000E+00  0.00000000E+00  0.00000000E+00
  0.00000000E+00  0.00000000E+00  0.00000000E+00
  0.00000000E+00  0.00000000E+00  0.00000000E+00
  0.00000000E+00  0.00000000E+00  0.00000000E+00
  0.00000000E+00  0.00000000E+00  0.00000000E+00
  0.00000000E+00  0.00000000E+00  0.00000000E+00
  0.00000000E+00  0.00000000E+00  0.00000000E+00
  0.00000000E+00  0.00000000E+00  0.00000000E+00
  0.00000000E+00  0.00000000E+00  0.00000000E+00
  0.00000000E+00  0.00000000E+00  0.00000000E+00
  0.00000000E+00  0.00000000E+00  0.00000000E+00
  0.00000000E+00  0.00000000E+00  0.00000000E+00
  0.00000000E+00  0.00000000E+00  0.00000000E+00
  0.00000000E+00  0.00000000E+00  0.00000000E+00
  0.00000000E+00  0.00000000E+00  0.00000000E+00
  0.00000000E+00  0.00000000E+00  0.00000000E+00
  0.00000000E+00  0.00000000E+00  0.00000000E+00
  0.00000000E+00  0.00000000E+00  0.00000000E+00
  0.00000000E+00  0.00000000E+00  0.00000000E+00
  0.00000000E+00  0.00000000E+00  0.00000000E+00
  0.00000000E+00  0.00000000E+00  0.00000000E+00
  0.00000000E+00  0.00000000E+00  0.00000000E+00
  0.00000000E+00  0.00000000E+00  0.00000000E+00
  0.00000000E+00  0.00000000E+00  0.00000000E+00
  0.00000000E+00  0.00000000E+00  0.00000000E+00
  0.00000000E+00  0.00000000E+00  0.00000000E+00
  0.00000000E+00  0.00000000E+00  0.00000000E+00
  0.00000000E+00  0.00000000E+00  0.00000000E+00
  0.00000000E+00  0.00000000E+00  0.00000000E+00
  0.00000000E+00  0.00000000E+00  0.00000000E+00
  0.00000000E+00  0.00000000E+00  0.00000000E+00
  0.00000000E+00  0.00000000E+00  0.00000000E+00
  0.00000000E+00  0.00000000E+00  0.00000000E+00
  0.00000000E+00  0.00000000E+00  0.00000000E+00
  0.00000000E+00  0.00000000E+00  0.00000000E+00
  0.00000000E+00  0.00000000E+00  0.00000000E+00
  0.00000000E+00  0.00000000E+00  0.00000000E+00
  0.00000000E+00  0.00000000E+00  0.00000000E+00
  0.00000000E+00  0.00000000E+00  0.00000000E+00
  0.00000000E+00  0.00000000E+00  0.00000000E+00
  0.00000000E+00  0.00000000E+00  0.00000000E+00
  0.00000000E+00  0.00000000E+00  0.00000000E+00
  0.00000000E+00  0.00000000E+00  0.00000000E+00
  0.00000000E+00  0.00000000E+00  0.00000000E+00
  0.00000000E+00  0.00000000E+00  0.00000000E+00
  0.00000000E+00  0.00000000E+00  0.00000000E+00
  0.00000000E+00  0.00000000E+00  0.00000000E+00
  0.00000000E+00  0.00000000E+00  0.00000000E+00
  0.00000000E+00  0.00000000E+00  0.00000000E+00
  0.00000000E+00  0.00000000E+00  0.00000000E+00
  0.00000000E+00  0.00000000E+00  0.00000000E+00
  0.00000000E+00  0.00000000E+00  0.00000000E+00
  0.00000000E+00  0.00000000E+00  0.00000000E+00
  0.00000000E+00  0.00000000E+00  0.00000000E+00
  0.00000000E+00  0.00000000E+00  0.00000000E+00
  0.00000000E+00  0.00000000E+00  0.00000000E+00
  0.00000000E+00  0.00000000E+00  0.00000000E+00
  0.00000000E+00  0.00000000E+00  0.00000000E+00
  0.00000000E+00  0.00000000E+00  0.00000000E+00
  0.00000000E+00  0.00000000E+00  0.00000000E+00
  0.00000000E+00  0.00000000E+00  0.00000000E+00
  0.00000000E+00  0.00000000E+00  0.00000000E+00
  0.00000000E+00  0.00000000E+00  0.00000000E+00
  0.00000000E+00  0.00000000E+00  0.00000000E+00
  0.00000000E+00  0.00000000E+00  0.00000000E+00
  0.00000000E+00  0.00000000E+00  0.00000000E+00
  0.00000000E+00  0.00000000E+00  0.00000000E+00
  0.00000000E+00  0.00000000E+00  0.00000000E+00
  0.00000000E+00  0.00000000E+00  0.00000000E+00
  0.00000000E+00  0.00000000E+00  0.00000000E+00
  0.00000000E+00  0.00000000E+00  0.00000000E+00
  0.00000000E+00  0.00000000E+00  0.00000000E+00
  0.00000000E+00  0.00000000E+00  0.00000000E+00
  0.00000000E+00  0.00000000E+00  0.00000000E+00
  0.00000000E+00  0.00000000E+00  0.00000000E+00
  0.00000000E+00  0.00000000E+00  0.00000000E+00
  0.00000000E+00  0.00000000E+00  0.00000000E+00
  0.00000000E+00  0.00000000E+00  0.00000000E+00
  0.00000000E+00  0.00000000E+00  0.00000000E+00
  0.00000000E+00  0.00000000E+00  0.00000000E+00
  0.00000000E+00  0.00000000E+00  0.00000000E+00
  0.00000000E+00  0.00000000E+00  0.00000000E+00
  0.00000000E+00  0.00000000E+00  0.00000000E+00
  0.00000000E+00  0.00000000E+00  0.00000000E+00
  0.00000000E+00  0.00000000E+00  0.00000000E+00
  0.00000000E+00  0.00000000E+00  0.00000000E+00
  0.00000000E+00  0.00000000E+00  0.00000000E+00
  0.00000000E+00  0.00000000E+00  0.00000000E+00
  0.00000000E+00  0.00000000E+00  0.00000000E+00
  0.00000000E+00  0.00000000E+00  0.00000000E+00
  0.00000000E+00  0.00000000E+00  0.00000000E+00
  0.00000000E+00  0.00000000E+00  0.00000000E+00
  0.00000000E+00  0.00000000E+00  0.00000000E+00
  0.00000000E+00  0.00000000E+00  0.00000000E+00
  0.00000000E+00  0.00000000E+00  0.00000000E+00
  0.00000000E+00  0.00000000E+00  0.00000000E+00
  0.00000000E+00  0.00000000E+00  0.00000000E+00
  0.00000000E+00  0.00000000E+00  0.00000000E+00
  0.00000000E+00  0.00000000E+00  0.00000000E+00
  0.00000000E+00  0.00000000E+00  0.00000000E+00
  0.00000000E+00  0.00000000E+00  0.00000000E+00
  0.00000000E+00  0.00000000E+00  0.00000000E+00
  0.00000000E+00  0.00000000E+00  0.00000000E+00
  0.00000000E+00  0.00000000E+00  0.00000000E+00
  0.00000000E+00  0.00000000E+00  0.00000000E+00
  0.00000000E+00  0.00000000E+00  0.00000000E+00
  0.00000000E+00  0.00000000E+00  0.00000000E+00
  0.00000000E+00  0.00000000E+00  0.00000000E+00
  0.00000000E+00  0.00000000E+00  0.00000000E+00
  0.00000000E+00  0.00000000E+00  0.00000000E+00
  0.00000000E+00  0.00000000E+00  0.00000000E+00
  0.00000000E+00  0.00000000E+00  0.00000000E+00
  0.00000000E+00  0.00000000E+00  0.00000000E+00
  0.00000000E+00  0.00000000E+00  0.00000000E+00
  0.00000000E+00  0.00000000E+00  0.00000000E+00
  0.00000000E+00  0.00000000E+00  0.00000000E+00
  0.00000000E+00  0.00000000E+00  0.00000000E+00
  0.00000000E+00  0.00000000E+00  0.00000000E+00
  0.00000000E+00  0.00000000E+00  0.00000000E+00
  0.00000000E+00  0.00000000E+00  0.00000000E+00
  0.00000000E+00  0.00000000E+00  0.00000000E+00
  0.00000000E+00  0.00000000E+00  0.00000000E+00
  0.00000000E+00  0.00000000E+00  0.00000000E+00
  0.00000000E+00  0.00000000E+00  0.00000000E+00
  0.00000000E+00  0.00000000E+00  0.00000000E+00
  0.00000000E+00  0.00000000E+00  0.00000000E+00
  0.00000000E+00  0.00000000E+00  0.00000000E+00
  0.00000000E+00  0.00000000E+00  0.00000000E+00
  0.00000000E+00  0.00000000E+00  0.00000000E+00
  0.00000000E+00  0.00000000E+00  0.00000000E+00
  0.00000000E+00  0.00000000E+00  0.00000000E+00
  0.00000000E+00  0.00000000E+00  0.00000000E+00
  0.00000000E+00  0.00000000E+00  0.00000000E+00
  0.00000000E+00  0.00000000E+00  0.00000000E+00
  0.00000000E+00  0.00000000E+00  0.00000000E+00
  0.00000000E+00  0.00000000E+00  0.00000000E+00
  0.00000000E+00  0.00000000E+00  0.00000000E+00
  0.00000000E+00  0.00000000E+00  0.00000000E+00
  0.00000000E+00  0.00000000E+00  0.00000000E+00
  0.00000000E+00  0.00000000E+00  0.00000000E+00
  0.00000000E+00  0.00000000E+00  0.00000000E+00
  0.00000000E+00  0.00000000E+00  0.00000000E+00
  0.00000000E+00  0.00000000E+00  0.00000000E+00
  0.00000000E+00  0.00000000E+00  0.00000000E+00
  0.00000000E+00  0.00000000E+00  0.00000000E+00
  0.00000000E+00  0.00000000E+00  0.00000000E+00
  0.00000000E+00  0.00000000E+00  0.00000000E+00
  0.00000000E+00  0.00000000E+00  0.00000000E+00
  0.00000000E+00  0.00000000E+00  0.00000000E+00
  0.00000000E+00  0.00000000E+00  0.00000000E+00
  0.00000000E+00  0.00000000E+00  0.00000000E+00
  0.00000000E+00  0.00000000E+00  0.00000000E+00
  0.00000000E+00  0.00000000E+00  0.00000000E+00
  0.00000000E+00  0.00000000E+00  0.00000000E+00
  0.00000000E+00  0.00000000E+00  0.00000000E+00
  0.00000000E+00  0.00000000E+00  0.00000000E+00
  0.00000000E+00  0.00000000E+00  0.00000000E+00
  0.00000000E+00  0.00000000E+00  0.00000000E+00
  0.00000000E+00  0.00000000E+00  0.00000000E+00
  0.00000000E+00  0.00000000E+00  0.00000000E+00
  0.00000000E+00  0.00000000E+00  0.00000000E+00
  0.00000000E+00  0.00000000E+00  0.00000000E+00
  0.00000000E+00  0.00000000E+00  0.00000000E+00
  0.00000000E+00  0.00000000E+00  0.00000000E+00
  0.00000000E+00  0.00000000E+00  0.00000000E+00
  0.00000000E+00  0.00000000E+00  0.00000000E+00
  0.00000000E+00  0.00000000E+00  0.00000000E+00
  0.00000000E+00  0.00000000E+00  0.00000000E+00
  0.00000000E+00  0.00000000E+00  0.00000000E+00
  0.00000000E+00  0.00000000E+00  0.00000000E+00
  0.00000000E+00  0.00000000E+00  0.00000000E+00
  0.00000000E+00  0.00000000E+00  0.00000000E+00
  0.00000000E+00  0.00000000E+00  0.00000000E+00
  0.00000000E+00  0.00000000E+00  0.00000000E+00
  0.00000000E+00  0.00000000E+00  0.00000000E+00
  0.00000000E+00  0.00000000E+00  0.00000000E+00
  0.00000000E+00  0.00000000E+00  0.00000000E+00
  0.00000000E+00  0.00000000E+00  0.00000000E+00
  0.00000000E+00  0.00000000E+00  0.00000000E+00
  0.00000000E+00  0.00000000E+00  0.00000000E+00
  0.00000000E+00  0.00000000E+00  0.00000000E+00
  0.00000000E+00  0.00000000E+00  0.00000000E+00
  0.00000000E+00  0.00000000E+00  0.00000000E+00
  0.00000000E+00  0.00000000E+00  0.00000000E+00
  0.00000000E+00  0.00000000E+00  0.00000000E+00
  0.00000000E+00  0.00000000E+00  0.00000000E+00
  0.00000000E+00  0.00000000E+00  0.00000000E+00
  0.00000000E+00  0.00000000E+00  0.00000000E+00
  0.00000000E+00  0.00000000E+00  0.00000000E+00
  0.00000000E+00  0.00000000E+00  0.00000000E+00
  0.00000000E+00  0.00000000E+00  0.00000000E+00
  0.00000000E+00  0.00000000E+00  0.00000000E+00
  0.00000000E+00  0.00000000E+00  0.00000000E+00
  0.00000000E+00  0.00000000E+00  0.00000000E+00
  0.00000000E+00  0.00000000E+00  0.00000000E+00
  0.00000000E+00  0.00000000E+00  0.00000000E+00
  0.00000000E+00  0.00000000E+00  0.00000000E+00
  0.00000000E+00  0.00000000E+00  0.00000000E+00
  0.00000000E+00  0.00000000E+00  0.00000000E+00
  0.00000000E+00  0.00000000E+00  0.00000000E+00
  0.00000000E+00  0.00000000E+00  0.00000000E+00
  0.00000000E+00  0.00000000E+00  0.00000000E+00
  0.00000000E+00  0.00000000E+00  0.00000000E+00
  0.00000000E+00  0.00000000E+00  0.00000000E+00
  0.00000000E+00  0.00000000E+00  0.00000000E+00
  0.00000000E+00  0.00000000E+00  0.00000000E+00
  0.00000000E+00  0.00000000E+00  0.00000000E+00
  0.00000000E+00  0.00000000E+00  0.00000000E+00
  0.00000000E+00  0.00000000E+00  0.00000000E+00
  0.00000000E+00  0.00000000E+00  0.00000000E+00
  0.00000000E+00  0.00000000E+00  0.00000000E+00
  0.00000000E+00  0.00000000E+00  0.00000000E+00
  0.00000000E+00  0.00000000E+00  0.00000000E+00
  0.00000000E+00  0.00000000E+00  0.00000000E+00
  0.00000000E+00  0.00000000E+00  0.00000000E+00
  0.00000000E+00  0.00000000E+00  0.00000000E+00
  0.00000000E+00  0.00000000E+00  0.00000000E+00
  0.00000000E+00  0.00000000E+00  0.00000000E+00
  0.00000000E+00  0.00000000E+00  0.00000000E+00
  0.00000000E+00  0.00000000E+00  0.00000000E+00
  0.00000000E+00  0.00000000E+00  0.00000000E+00
  0.00000000E+00  0.00000000E+00  0.00000000E+00
  0.00000000E+00  0.00000000E+00  0.00000000E+00
  0.00000000E+00  0.00000000E+00  0.00000000E+00
  0.00000000E+00  0.00000000E+00  0.00000000E+00
  0.00000000E+00  0.00000000E+00  0.00000000E+00
  0.00000000E+00  0.00000000E+00  0.00000000E+00
  0.00000000E+00  0.00000000E+00  0.00000000E+00
  0.00000000E+00  0.00000000E+00  0.00000000E+00
  0.00000000E+00  0.00000000E+00  0.00000000E+00
  0.00000000E+00  0.00000000E+00  0.00000000E+00
  0.00000000E+00  0.00000000E+00  0.00000000E+00
  0.00000000E+00  0.00000000E+00  0.00000000E+00
