POSCAR                                  
   1.00000000000000     
     9.9408563516584714   -0.2318520044519212   -0.0884252149741474
    -0.2325983813557741   10.0644840264386932    0.0227255948406833
    -0.0600157581468274    0.0148866148221229    6.6858652705102086
   La   Ba   Na   Sc   H 
     9     9     9     9   216
Direct
  0.1704589049516372  0.1712233642165799  0.2559990481885492
  0.4896860663372919  0.5158417907704020  0.2435655988030589
  0.8161106321715295  0.1452749022815993  0.2363359126068403
  0.6700023803078494  0.3472262862406481  0.5160160520833870
  0.6869967133031381  0.3375528082138999  0.9966393136294087
  0.0278411751777696  0.3105256069370128  0.4970493340308195
  0.9949344855868461  0.6512077924840938  0.5016617363155191
  0.6528975537262625  0.0039780263951457  0.9955809611229185
  0.0172210625205622  0.9939946107845330  0.5018567058475796
  0.1852677791764776  0.1551176033689998  0.7483061409780376
  0.5180732932219527  0.1834138612333476  0.7547530592027982
  0.3332972886628980  0.3278634016125466  0.0020463892017659
  0.8432839109778243  0.4990198656440015  0.2487719645262629
  0.4960768448497959  0.8456305276797664  0.7558853678130433
  0.8406891457244683  0.4939146383937896  0.7414969531437876
  0.6274663935258857  0.6771179760518748  0.9892478287292477
  0.6604234979782433  0.0049567725123936  0.4910635840200399
  0.9830848369445917  0.6481165212574425  0.9917541083128185
  0.1740071839195281  0.5031027515285089  0.2571658947612789
  0.3505722919089536  0.3770768205691581  0.4970854020143705
  0.3182521989920630  0.6757187594549521  0.5063653369149606
  0.1580119349494424  0.8188882244296138  0.7644052206274026
  0.4955684708890971  0.5255502678431441  0.7535129102819695
  0.8553422691841561  0.1549814812972841  0.7458133860964935
  0.3374495095785690  0.9703434278814456  0.5054754901741418
  0.3212620331764526  0.9983561376407337  0.0156178199939276
  0.0148362065110845  0.3175520626175938  0.0027172203039143
  0.4844531633115992  0.1762013486619622  0.2725965008696392
  0.1833099608885078  0.4967695077253680  0.7413646998157475
  0.1614499457762264  0.8239688435906061  0.2428359074160866
  0.3041628554570295  0.6721054204254600  0.0072513398443306
  0.4594196186589414  0.8289245761490207  0.2636484808247985
  0.6605997963217121  0.6787813864573664  0.4845445515323163
  0.8423394598956762  0.8319225054359052  0.2461749723997286
  0.8345644276775701  0.8372524778670467  0.7390606492210665
  0.0074828902950728  0.9862988979374663  0.9926742771557784
  0.1672057533602569  0.0712612739056127  0.0152657122852702
  0.2121133414019809  0.0680723379531756  0.4876766513964554
  0.1641183135768927  0.4222619889542898  0.9768383123293987
  0.4831168221182267  0.0836863557250922  0.0577140456349312
  0.3419499256080627  0.2649487872133065  0.3038649347991651
  0.1883563598221016  0.4288961228135193  0.5010403405269770
  0.4712102199672330  0.0815556591434117  0.5003499499741082
  0.3497567614902977  0.2712845636283490  0.6946457123129406
  0.1550662595612806  0.7470711364825746  0.9985503379995961
  0.5114326796440167  0.4321672169944861  0.9662713103579819
  0.3170423665055466  0.5960328276266864  0.2517424314684646
  0.1679073259024619  0.7424138336278503  0.5189662076175878
  0.8532296622584994  0.0718723104743759  0.9692768083160814
  0.6532457786774941  0.2559729060805154  0.2604052858958710
  0.5068898361614131  0.4404557133583680  0.5188642551709748
  0.3237796900752912  0.5941208956319173  0.7501964135897268
  0.8482986844027920  0.0739927389280197  0.5195546078545377
  0.7116539862594067  0.2497633107314670  0.7553895919032172
  0.4566740273056524  0.7649322720575924  0.0226791778316198
  0.3173086235240632  0.9150623589753977  0.2449346239938421
  0.8774724693649745  0.3968305017379166  0.9984493318653520
  0.6738033480714662  0.5939178144896076  0.2503438113619296
  0.4980517296480258  0.7542529781929801  0.4940455322191113
  0.3110925891281866  0.9178515110763925  0.7948987789396895
  0.9892102710771979  0.2351416051556967  0.2190647160488624
  0.8596766521734622  0.3924186967701999  0.4917492286248191
  0.6712747614013708  0.5974000311538390  0.7242312257274648
  0.0059212657534786  0.2343702084703168  0.7850962681273543
  0.8182637896616782  0.7588495568433657  0.9946046221035871
  0.6228144340929376  0.8963243565314229  0.2321564077779641
  0.0295889964047973  0.5723144930573412  0.2552748025287741
  0.8266624826397262  0.7556850769893515  0.4936236065608028
  0.6892333617419411  0.9175744322843542  0.7465023989902164
  0.0323433394004127  0.5617017182876012  0.7458412911128391
  0.0083001786415622  0.9082445521943470  0.2402271573035151
  0.0057350330570145  0.9091130212714731  0.7578616925016846
  0.0801521457182233  0.1499097628548043  0.9987744556360312
  0.1066687219178419  0.1542522970824294  0.5001925191560801
  0.0870087739533858  0.4781019316672399  0.0386327605534689
  0.4087373993911996  0.1465317553638812  0.0067034820097618
  0.2569341046898259  0.3578157232446912  0.2822754907136584
  0.0999675793040780  0.4905765313393218  0.4885321366856772
  0.4027949015800232  0.1342330609965359  0.5017520173583776
  0.2640730048302657  0.3481153957761052  0.7219374581992000
  0.0747847145533598  0.8287810197086927  0.9941984583050214
  0.4084344516070644  0.5141268688709459  0.9814607207085544
  0.2367718005017494  0.6665034595247192  0.2593460011416298
  0.0865785619173991  0.8222594141433603  0.5081422332374714
  0.7678337707742173  0.1680254202876839  0.9590492184768138
  0.5860318120293471  0.3424085556086496  0.2473326982592425
  0.4148065293055438  0.5375217912295938  0.5215729366458532
  0.2572901674494403  0.6695041522491536  0.7507664656923225
  0.7547205744500189  0.1825155535417409  0.5243714234974846
  0.5785856338124304  0.3770138069114353  0.7585593457059119
  0.3907723561566456  0.8353838068996637  0.0079460118385342
  0.2480052461271214  0.9916870892247474  0.2517926794096326
  0.7422051682761577  0.5211824208411926  0.9913079723614402
  0.5710284873993388  0.7045932991072803  0.2644146161257268
  0.4069965068021659  0.8203301782585370  0.4975679045768331
  0.2505646589502390  0.9666720232854473  0.7304918437835326
  0.9319614247433634  0.3158188096646839  0.2320290378032297
  0.7366346579419627  0.5255753432865262  0.4899386946851649
  0.5779922898868648  0.6728085705390683  0.6964737872367479
  0.9449207138606113  0.3257037117532704  0.7622048144716658
  0.7509508100230562  0.8370934824161509  0.0029396496691092
  0.5720342611721776  0.9610185368633708  0.2435697836912283
  0.9076368082593262  0.6833637754419044  0.2492292802499207
  0.7537816638169019  0.8356866868896873  0.4899908908046982
  0.5923170654386070  0.0107170947727084  0.7429856260699523
  0.8965865007890557  0.6857737502762333  0.7370668067610566
  0.9268152954305435  0.9860791828504034  0.2330324199290672
  0.9268716498973433  0.9954621777396611  0.7582790135057422
  0.1681234513891212  0.9953454206310681  0.1331834363338160
  0.1890692251929025  0.9653436098842434  0.6298959154410682
  0.1598861081840184  0.3528519550587177  0.1280168782120867
  0.4772825164534709  0.0000491244701237  0.1349387910172766
  0.3364591738006695  0.2173791722308138  0.4070257056408977
  0.2069861679803182  0.3414268770886792  0.6203763702154319
  0.4854137799770726  0.0132714265846161  0.6178834061018819
  0.3545488380560755  0.1457257046144562  0.8966924866854242
  0.1566180632617247  0.6544291279920458  0.1297403082164266
  0.5156853757051962  0.3381428711426366  0.1326321828234143
  0.3194948245012768  0.5259679312450274  0.3823099177875022
  0.1717397460914327  0.6785363336433718  0.6233960106606489
  0.8418347105087207  0.9757710922877152  0.1063563477019329
  0.6499649424645639  0.1827611284114568  0.3734367255159299
  0.4933646987452320  0.3711261171475329  0.6335867437007821
  0.3336243468944673  0.5080699839056351  0.8656378767229995
  0.8415632968767142  0.9999663239532737  0.6309240217904843
  0.7078876915585326  0.1647783613404101  0.8580690856303406
  0.4558375648421276  0.6835918503256977  0.1281430169707392
  0.3071754479770590  0.8211426990057831  0.3816286926334627
  0.8609604735218142  0.3220158211689252  0.1258906356882648
  0.6638858016997276  0.5155862018772766  0.3749300290756921
  0.4679611494581621  0.6700673922140297  0.6253713542864858
  0.3165408795698923  0.8408709693473071  0.8872105541025874
  0.9881144867272624  0.1494264353980057  0.3566185184464246
  0.8526341592319042  0.3089206347184899  0.6243995690278439
  0.6666849301966167  0.5114537018860048  0.8669024485598058
  0.0063778432593082  0.1664498595689849  0.8760423294809812
  0.8092566328350799  0.6812085685481222  0.1191742467630306
  0.6792508866176945  0.8347765389320756  0.3689287764602014
  0.0314313300781635  0.4840585441476364  0.3779096399313033
  0.8189312787834311  0.6805928195207898  0.6163241005943831
  0.6886123804765987  0.8398814179728120  0.8609422912361637
  0.0311896925739248  0.4736908079034379  0.8718771822377320
  0.0052346550789082  0.8239400704428519  0.3717265017780633
  0.9958522957605140  0.8290670368110824  0.8786045847260979
  0.0872681752302711  0.9818304077963305  0.2304439567559129
  0.0895734458713662  0.9701986496338577  0.7703717892681752
  0.0964186753182403  0.3519776918169057  0.2194217211170510
  0.4064685844104616  0.0179924434981302  0.2812033071687665
  0.2793691833183090  0.1225155743325601  0.4901933087483101
  0.1011894452209958  0.3346371482025532  0.7651255868153868
  0.3899285801315671  0.0262280428303683  0.7632686277743517
  0.2510405292643654  0.1459948728638238  0.0170617672886593
  0.0807039443992679  0.6593358752714309  0.2455252123814162
  0.4247086338499813  0.3382317056830786  0.2646143665178045
  0.2555601698346166  0.5167176246199361  0.4862640375896632
  0.0919179706229443  0.6492280154066066  0.7511685897162081
  0.7446978021050441  0.9626800181872923  0.2416516300657321
  0.5811266528722854  0.1778804685474924  0.4856211299602649
  0.4224317050830919  0.3640979700079754  0.7379098570643876
  0.2426195555162067  0.5024783781480480  0.0017300494745172
  0.7633919616619593  0.0005726444246648  0.7519964459517468
  0.5649848503307240  0.1780455570531174  0.0403508214327388
  0.3978539140575279  0.6693499755834083  0.2943930427886414
  0.2502007242909912  0.8305091549640196  0.5527069480342917
  0.7528466942430541  0.3213986346569584  0.2676844217174761
  0.5733857823518846  0.5206402371811052  0.5157787261376967
  0.4106259850378677  0.6678535883876293  0.7048824191943623
  0.2341516158804069  0.8413158522046444  0.0057586107515846
  0.9079442541608600  0.1550070416664866  0.5028378136352742
  0.7915616946955240  0.3001100545103199  0.7393704673388655
  0.5808744124754739  0.4876623673194729  0.9991106310093514
  0.9201021860388892  0.1617430753017288  0.9910190490610304
  0.7375915819112677  0.6869578564381413  0.2434443789774434
  0.5772383560315859  0.8236967677381770  0.4681090374885173
  0.9411355984806278  0.4687276465462062  0.4999154147847449
  0.7386000386730558  0.6644976594520031  0.7414299676184655
  0.5580042190110106  0.8411360837309445  0.0598955392995819
  0.9386037270759289  0.4594384122419513  0.9930892452814177
  0.9216170855206443  0.8248110598625260  0.4998714217667626
  0.9142876935057629  0.8324353823161488  0.9851688436424837
  0.9961611694740782  0.1519068766685479  0.1114811520417121
  0.9979120800557055  0.1524405025608502  0.6362514741809449
  0.0299151227071661  0.4754424750377026  0.1269567869726558
  0.3414022043155924  0.1531084464386154  0.1383713515935199
  0.2002787745452750  0.3510810309777455  0.3817541419711858
  0.0247644275342793  0.4787361703739279  0.6271325720685113
  0.3496361122451574  0.2201077551244452  0.6006307649381100
  0.1543383033468118  0.3452547346598180  0.8752056093958487
  0.9952087624918917  0.8281183908117171  0.1160537476609704
  0.3100901070489215  0.5119790394643644  0.1183808991271960
  0.1703751391014237  0.6689299230438763  0.3821160226644551
  0.0102367865120883  0.8220002737412173  0.6256582088969225
  0.6372173794598694  0.1725998218044253  0.1253322579650700
  0.4931061124697749  0.3375535355422201  0.3840925254843128
  0.3423827765280194  0.5250950302642607  0.6271787549594094
  0.1604129472132030  0.6574668280864486  0.8702130844318319
  0.7037022887308382  0.1722628630842493  0.6288061131848437
  0.5063186306241860  0.3613681215719993  0.8737352110216534
  0.3140378747001691  0.8380885427861742  0.1290971022625556
  0.1877160942783291  0.9748020319727146  0.3752704561229834
  0.6640462077410874  0.5073099111855939  0.1206903687077272
  0.4661240145006360  0.6781079680983169  0.3852265350159882
  0.3080786630411865  0.8227573583164798  0.6384128595453049
  0.1656306207091518  0.9783925822256521  0.8869325323660036
  0.8439023200282989  0.3162230006613314  0.3763372627571329
  0.6507304851695537  0.5238119192108144  0.6196765647101685
  0.4408968571313565  0.6698102814287097  0.8696166116095796
  0.8618558410479764  0.3151986193423610  0.8747450037818254
  0.6927166420478557  0.8430511139262009  0.1253256086369845
  0.4811693504149304  0.9947275252587175  0.3615364878615068
  0.8210960405479284  0.6821543286443870  0.3712106051480077
  0.6759111851691983  0.8283685572356134  0.6126595127948917
  0.4624133771182528  0.0168230690318865  0.8830381344674834
  0.8068107040334240  0.6818540667299047  0.8652648620259100
  0.8396996991076620  0.9804292622230975  0.3749250252514216
  0.8364349356976533  0.9943755283913234  0.8724639019749034
  0.9951879526430574  0.0708143514347270  0.2218222143217403
  0.9963370063232446  0.0714532157367103  0.7716787991454481
  0.0134056690611430  0.3998243872067633  0.2467981884470092
  0.3367351526375728  0.0760685613014687  0.2776338613679386
  0.2250897522453954  0.2537851760133449  0.5044945507615495
  0.0109434274285434  0.3976805881544152  0.7667684840808846
  0.3552931419821803  0.0848640553728046  0.6831052347180062
  0.1549408905244505  0.2432815329318743  0.9949570541856616
  0.0026190116752502  0.7434911960208836  0.2486044332138135
  0.3214102313873255  0.4303469086375316  0.2509716291344048
  0.1750052318839579  0.5829750533516602  0.5035333922500698
  0.9955314298399074  0.7501302799385314  0.7442894622088048
  0.6184720812512410  0.0859813418820536  0.2414343031825936
  0.4785681129319599  0.2662400588178073  0.4971718993160863
  0.3468931127829933  0.4366651515885209  0.7492003240367922
  0.1595062290013729  0.5771995408505006  0.0108733512295842
  0.6981526626701893  0.0867312735484234  0.7489158871196793
  0.5046436249546744  0.2554860915874784  0.0302395000963003
  0.3063962225166108  0.7472030822877045  0.2589346813756137
  0.1819052203080318  0.8957203684208608  0.4821012596688377
  0.6544656498417254  0.4234981515295004  0.2529370875819268
  0.4953651546021831  0.5951987684291211  0.5050666258429288
  0.3146994658720175  0.7504489483944710  0.7716739201151981
  0.1744040828412778  0.9088491688489029  0.9906201562800447
  0.8438286466948171  0.2372062867087266  0.4897340482042196
  0.6393316735880603  0.4485960467789170  0.7633944602367251
  0.4475796264194329  0.5983595969288018  0.9636279379634232
  0.8634429522970066  0.2343692863768254  0.9782063441819915
  0.6707786314466944  0.7601517650253911  0.2527715532168386
  0.4875010084967215  0.9131831712858229  0.4761859462121976
  0.8069572956980409  0.6006924883236096  0.4992408573855442
  0.6747774269599063  0.7531918927014942  0.7216553065926732
  0.4697044843177807  0.9253896282570864  0.0451070712562682
  0.7974339141457065  0.6014892681037622  0.9960667526345688
  0.8338449750592858  0.9134643028681140  0.4938683515356175
  0.8336670207926744  0.9158807996680025  0.9800217346705153
 
  0.00000000E+00  0.00000000E+00  0.00000000E+00
  0.00000000E+00  0.00000000E+00  0.00000000E+00
  0.00000000E+00  0.00000000E+00  0.00000000E+00
  0.00000000E+00  0.00000000E+00  0.00000000E+00
  0.00000000E+00  0.00000000E+00  0.00000000E+00
  0.00000000E+00  0.00000000E+00  0.00000000E+00
  0.00000000E+00  0.00000000E+00  0.00000000E+00
  0.00000000E+00  0.00000000E+00  0.00000000E+00
  0.00000000E+00  0.00000000E+00  0.00000000E+00
  0.00000000E+00  0.00000000E+00  0.00000000E+00
  0.00000000E+00  0.00000000E+00  0.00000000E+00
  0.00000000E+00  0.00000000E+00  0.00000000E+00
  0.00000000E+00  0.00000000E+00  0.00000000E+00
  0.00000000E+00  0.00000000E+00  0.00000000E+00
  0.00000000E+00  0.00000000E+00  0.00000000E+00
  0.00000000E+00  0.00000000E+00  0.00000000E+00
  0.00000000E+00  0.00000000E+00  0.00000000E+00
  0.00000000E+00  0.00000000E+00  0.00000000E+00
  0.00000000E+00  0.00000000E+00  0.00000000E+00
  0.00000000E+00  0.00000000E+00  0.00000000E+00
  0.00000000E+00  0.00000000E+00  0.00000000E+00
  0.00000000E+00  0.00000000E+00  0.00000000E+00
  0.00000000E+00  0.00000000E+00  0.00000000E+00
  0.00000000E+00  0.00000000E+00  0.00000000E+00
  0.00000000E+00  0.00000000E+00  0.00000000E+00
  0.00000000E+00  0.00000000E+00  0.00000000E+00
  0.00000000E+00  0.00000000E+00  0.00000000E+00
  0.00000000E+00  0.00000000E+00  0.00000000E+00
  0.00000000E+00  0.00000000E+00  0.00000000E+00
  0.00000000E+00  0.00000000E+00  0.00000000E+00
  0.00000000E+00  0.00000000E+00  0.00000000E+00
  0.00000000E+00  0.00000000E+00  0.00000000E+00
  0.00000000E+00  0.00000000E+00  0.00000000E+00
  0.00000000E+00  0.00000000E+00  0.00000000E+00
  0.00000000E+00  0.00000000E+00  0.00000000E+00
  0.00000000E+00  0.00000000E+00  0.00000000E+00
  0.00000000E+00  0.00000000E+00  0.00000000E+00
  0.00000000E+00  0.00000000E+00  0.00000000E+00
  0.00000000E+00  0.00000000E+00  0.00000000E+00
  0.00000000E+00  0.00000000E+00  0.00000000E+00
  0.00000000E+00  0.00000000E+00  0.00000000E+00
  0.00000000E+00  0.00000000E+00  0.00000000E+00
  0.00000000E+00  0.00000000E+00  0.00000000E+00
  0.00000000E+00  0.00000000E+00  0.00000000E+00
  0.00000000E+00  0.00000000E+00  0.00000000E+00
  0.00000000E+00  0.00000000E+00  0.00000000E+00
  0.00000000E+00  0.00000000E+00  0.00000000E+00
  0.00000000E+00  0.00000000E+00  0.00000000E+00
  0.00000000E+00  0.00000000E+00  0.00000000E+00
  0.00000000E+00  0.00000000E+00  0.00000000E+00
  0.00000000E+00  0.00000000E+00  0.00000000E+00
  0.00000000E+00  0.00000000E+00  0.00000000E+00
  0.00000000E+00  0.00000000E+00  0.00000000E+00
  0.00000000E+00  0.00000000E+00  0.00000000E+00
  0.00000000E+00  0.00000000E+00  0.00000000E+00
  0.00000000E+00  0.00000000E+00  0.00000000E+00
  0.00000000E+00  0.00000000E+00  0.00000000E+00
  0.00000000E+00  0.00000000E+00  0.00000000E+00
  0.00000000E+00  0.00000000E+00  0.00000000E+00
  0.00000000E+00  0.00000000E+00  0.00000000E+00
  0.00000000E+00  0.00000000E+00  0.00000000E+00
  0.00000000E+00  0.00000000E+00  0.00000000E+00
  0.00000000E+00  0.00000000E+00  0.00000000E+00
  0.00000000E+00  0.00000000E+00  0.00000000E+00
  0.00000000E+00  0.00000000E+00  0.00000000E+00
  0.00000000E+00  0.00000000E+00  0.00000000E+00
  0.00000000E+00  0.00000000E+00  0.00000000E+00
  0.00000000E+00  0.00000000E+00  0.00000000E+00
  0.00000000E+00  0.00000000E+00  0.00000000E+00
  0.00000000E+00  0.00000000E+00  0.00000000E+00
  0.00000000E+00  0.00000000E+00  0.00000000E+00
  0.00000000E+00  0.00000000E+00  0.00000000E+00
  0.00000000E+00  0.00000000E+00  0.00000000E+00
  0.00000000E+00  0.00000000E+00  0.00000000E+00
  0.00000000E+00  0.00000000E+00  0.00000000E+00
  0.00000000E+00  0.00000000E+00  0.00000000E+00
  0.00000000E+00  0.00000000E+00  0.00000000E+00
  0.00000000E+00  0.00000000E+00  0.00000000E+00
  0.00000000E+00  0.00000000E+00  0.00000000E+00
  0.00000000E+00  0.00000000E+00  0.00000000E+00
  0.00000000E+00  0.00000000E+00  0.00000000E+00
  0.00000000E+00  0.00000000E+00  0.00000000E+00
  0.00000000E+00  0.00000000E+00  0.00000000E+00
  0.00000000E+00  0.00000000E+00  0.00000000E+00
  0.00000000E+00  0.00000000E+00  0.00000000E+00
  0.00000000E+00  0.00000000E+00  0.00000000E+00
  0.00000000E+00  0.00000000E+00  0.00000000E+00
  0.00000000E+00  0.00000000E+00  0.00000000E+00
  0.00000000E+00  0.00000000E+00  0.00000000E+00
  0.00000000E+00  0.00000000E+00  0.00000000E+00
  0.00000000E+00  0.00000000E+00  0.00000000E+00
  0.00000000E+00  0.00000000E+00  0.00000000E+00
  0.00000000E+00  0.00000000E+00  0.00000000E+00
  0.00000000E+00  0.00000000E+00  0.00000000E+00
  0.00000000E+00  0.00000000E+00  0.00000000E+00
  0.00000000E+00  0.00000000E+00  0.00000000E+00
  0.00000000E+00  0.00000000E+00  0.00000000E+00
  0.00000000E+00  0.00000000E+00  0.00000000E+00
  0.00000000E+00  0.00000000E+00  0.00000000E+00
  0.00000000E+00  0.00000000E+00  0.00000000E+00
  0.00000000E+00  0.00000000E+00  0.00000000E+00
  0.00000000E+00  0.00000000E+00  0.00000000E+00
  0.00000000E+00  0.00000000E+00  0.00000000E+00
  0.00000000E+00  0.00000000E+00  0.00000000E+00
  0.00000000E+00  0.00000000E+00  0.00000000E+00
  0.00000000E+00  0.00000000E+00  0.00000000E+00
  0.00000000E+00  0.00000000E+00  0.00000000E+00
  0.00000000E+00  0.00000000E+00  0.00000000E+00
  0.00000000E+00  0.00000000E+00  0.00000000E+00
  0.00000000E+00  0.00000000E+00  0.00000000E+00
  0.00000000E+00  0.00000000E+00  0.00000000E+00
  0.00000000E+00  0.00000000E+00  0.00000000E+00
  0.00000000E+00  0.00000000E+00  0.00000000E+00
  0.00000000E+00  0.00000000E+00  0.00000000E+00
  0.00000000E+00  0.00000000E+00  0.00000000E+00
  0.00000000E+00  0.00000000E+00  0.00000000E+00
  0.00000000E+00  0.00000000E+00  0.00000000E+00
  0.00000000E+00  0.00000000E+00  0.00000000E+00
  0.00000000E+00  0.00000000E+00  0.00000000E+00
  0.00000000E+00  0.00000000E+00  0.00000000E+00
  0.00000000E+00  0.00000000E+00  0.00000000E+00
  0.00000000E+00  0.00000000E+00  0.00000000E+00
  0.00000000E+00  0.00000000E+00  0.00000000E+00
  0.00000000E+00  0.00000000E+00  0.00000000E+00
  0.00000000E+00  0.00000000E+00  0.00000000E+00
  0.00000000E+00  0.00000000E+00  0.00000000E+00
  0.00000000E+00  0.00000000E+00  0.00000000E+00
  0.00000000E+00  0.00000000E+00  0.00000000E+00
  0.00000000E+00  0.00000000E+00  0.00000000E+00
  0.00000000E+00  0.00000000E+00  0.00000000E+00
  0.00000000E+00  0.00000000E+00  0.00000000E+00
  0.00000000E+00  0.00000000E+00  0.00000000E+00
  0.00000000E+00  0.00000000E+00  0.00000000E+00
  0.00000000E+00  0.00000000E+00  0.00000000E+00
  0.00000000E+00  0.00000000E+00  0.00000000E+00
  0.00000000E+00  0.00000000E+00  0.00000000E+00
  0.00000000E+00  0.00000000E+00  0.00000000E+00
  0.00000000E+00  0.00000000E+00  0.00000000E+00
  0.00000000E+00  0.00000000E+00  0.00000000E+00
  0.00000000E+00  0.00000000E+00  0.00000000E+00
  0.00000000E+00  0.00000000E+00  0.00000000E+00
  0.00000000E+00  0.00000000E+00  0.00000000E+00
  0.00000000E+00  0.00000000E+00  0.00000000E+00
  0.00000000E+00  0.00000000E+00  0.00000000E+00
  0.00000000E+00  0.00000000E+00  0.00000000E+00
  0.00000000E+00  0.00000000E+00  0.00000000E+00
  0.00000000E+00  0.00000000E+00  0.00000000E+00
  0.00000000E+00  0.00000000E+00  0.00000000E+00
  0.00000000E+00  0.00000000E+00  0.00000000E+00
  0.00000000E+00  0.00000000E+00  0.00000000E+00
  0.00000000E+00  0.00000000E+00  0.00000000E+00
  0.00000000E+00  0.00000000E+00  0.00000000E+00
  0.00000000E+00  0.00000000E+00  0.00000000E+00
  0.00000000E+00  0.00000000E+00  0.00000000E+00
  0.00000000E+00  0.00000000E+00  0.00000000E+00
  0.00000000E+00  0.00000000E+00  0.00000000E+00
  0.00000000E+00  0.00000000E+00  0.00000000E+00
  0.00000000E+00  0.00000000E+00  0.00000000E+00
  0.00000000E+00  0.00000000E+00  0.00000000E+00
  0.00000000E+00  0.00000000E+00  0.00000000E+00
  0.00000000E+00  0.00000000E+00  0.00000000E+00
  0.00000000E+00  0.00000000E+00  0.00000000E+00
  0.00000000E+00  0.00000000E+00  0.00000000E+00
  0.00000000E+00  0.00000000E+00  0.00000000E+00
  0.00000000E+00  0.00000000E+00  0.00000000E+00
  0.00000000E+00  0.00000000E+00  0.00000000E+00
  0.00000000E+00  0.00000000E+00  0.00000000E+00
  0.00000000E+00  0.00000000E+00  0.00000000E+00
  0.00000000E+00  0.00000000E+00  0.00000000E+00
  0.00000000E+00  0.00000000E+00  0.00000000E+00
  0.00000000E+00  0.00000000E+00  0.00000000E+00
  0.00000000E+00  0.00000000E+00  0.00000000E+00
  0.00000000E+00  0.00000000E+00  0.00000000E+00
  0.00000000E+00  0.00000000E+00  0.00000000E+00
  0.00000000E+00  0.00000000E+00  0.00000000E+00
  0.00000000E+00  0.00000000E+00  0.00000000E+00
  0.00000000E+00  0.00000000E+00  0.00000000E+00
  0.00000000E+00  0.00000000E+00  0.00000000E+00
  0.00000000E+00  0.00000000E+00  0.00000000E+00
  0.00000000E+00  0.00000000E+00  0.00000000E+00
  0.00000000E+00  0.00000000E+00  0.00000000E+00
  0.00000000E+00  0.00000000E+00  0.00000000E+00
  0.00000000E+00  0.00000000E+00  0.00000000E+00
  0.00000000E+00  0.00000000E+00  0.00000000E+00
  0.00000000E+00  0.00000000E+00  0.00000000E+00
  0.00000000E+00  0.00000000E+00  0.00000000E+00
  0.00000000E+00  0.00000000E+00  0.00000000E+00
  0.00000000E+00  0.00000000E+00  0.00000000E+00
  0.00000000E+00  0.00000000E+00  0.00000000E+00
  0.00000000E+00  0.00000000E+00  0.00000000E+00
  0.00000000E+00  0.00000000E+00  0.00000000E+00
  0.00000000E+00  0.00000000E+00  0.00000000E+00
  0.00000000E+00  0.00000000E+00  0.00000000E+00
  0.00000000E+00  0.00000000E+00  0.00000000E+00
  0.00000000E+00  0.00000000E+00  0.00000000E+00
  0.00000000E+00  0.00000000E+00  0.00000000E+00
  0.00000000E+00  0.00000000E+00  0.00000000E+00
  0.00000000E+00  0.00000000E+00  0.00000000E+00
  0.00000000E+00  0.00000000E+00  0.00000000E+00
  0.00000000E+00  0.00000000E+00  0.00000000E+00
  0.00000000E+00  0.00000000E+00  0.00000000E+00
  0.00000000E+00  0.00000000E+00  0.00000000E+00
  0.00000000E+00  0.00000000E+00  0.00000000E+00
  0.00000000E+00  0.00000000E+00  0.00000000E+00
  0.00000000E+00  0.00000000E+00  0.00000000E+00
  0.00000000E+00  0.00000000E+00  0.00000000E+00
  0.00000000E+00  0.00000000E+00  0.00000000E+00
  0.00000000E+00  0.00000000E+00  0.00000000E+00
  0.00000000E+00  0.00000000E+00  0.00000000E+00
  0.00000000E+00  0.00000000E+00  0.00000000E+00
  0.00000000E+00  0.00000000E+00  0.00000000E+00
  0.00000000E+00  0.00000000E+00  0.00000000E+00
  0.00000000E+00  0.00000000E+00  0.00000000E+00
  0.00000000E+00  0.00000000E+00  0.00000000E+00
  0.00000000E+00  0.00000000E+00  0.00000000E+00
  0.00000000E+00  0.00000000E+00  0.00000000E+00
  0.00000000E+00  0.00000000E+00  0.00000000E+00
  0.00000000E+00  0.00000000E+00  0.00000000E+00
  0.00000000E+00  0.00000000E+00  0.00000000E+00
  0.00000000E+00  0.00000000E+00  0.00000000E+00
  0.00000000E+00  0.00000000E+00  0.00000000E+00
  0.00000000E+00  0.00000000E+00  0.00000000E+00
  0.00000000E+00  0.00000000E+00  0.00000000E+00
  0.00000000E+00  0.00000000E+00  0.00000000E+00
  0.00000000E+00  0.00000000E+00  0.00000000E+00
  0.00000000E+00  0.00000000E+00  0.00000000E+00
  0.00000000E+00  0.00000000E+00  0.00000000E+00
  0.00000000E+00  0.00000000E+00  0.00000000E+00
  0.00000000E+00  0.00000000E+00  0.00000000E+00
  0.00000000E+00  0.00000000E+00  0.00000000E+00
  0.00000000E+00  0.00000000E+00  0.00000000E+00
  0.00000000E+00  0.00000000E+00  0.00000000E+00
  0.00000000E+00  0.00000000E+00  0.00000000E+00
  0.00000000E+00  0.00000000E+00  0.00000000E+00
  0.00000000E+00  0.00000000E+00  0.00000000E+00
  0.00000000E+00  0.00000000E+00  0.00000000E+00
  0.00000000E+00  0.00000000E+00  0.00000000E+00
  0.00000000E+00  0.00000000E+00  0.00000000E+00
  0.00000000E+00  0.00000000E+00  0.00000000E+00
  0.00000000E+00  0.00000000E+00  0.00000000E+00
  0.00000000E+00  0.00000000E+00  0.00000000E+00
  0.00000000E+00  0.00000000E+00  0.00000000E+00
  0.00000000E+00  0.00000000E+00  0.00000000E+00
  0.00000000E+00  0.00000000E+00  0.00000000E+00
  0.00000000E+00  0.00000000E+00  0.00000000E+00
  0.00000000E+00  0.00000000E+00  0.00000000E+00
  0.00000000E+00  0.00000000E+00  0.00000000E+00
  0.00000000E+00  0.00000000E+00  0.00000000E+00
  0.00000000E+00  0.00000000E+00  0.00000000E+00
  0.00000000E+00  0.00000000E+00  0.00000000E+00
  0.00000000E+00  0.00000000E+00  0.00000000E+00
  0.00000000E+00  0.00000000E+00  0.00000000E+00
