generated by phonopy                    
   1.00000000000000     
     0.0000000000000000    3.3971600368213219    3.3971600368214370
     3.3971600368213659    0.0000000000000000    3.3971600368214370
     3.3971600368213659    3.3971600368213219    0.0000000000000000
   Y    Zr   Hf   Th   H 
     1     1     1     1    24
Direct
  0.2500000000000000  0.2500000000000000  0.2500000000000000
  0.7500000000000000  0.7500000000000000  0.7500000000000000
  0.0000000000000000  0.0000000000000000  0.0000000000000000
  0.5000000000000000  0.5000000000000000  0.5000000000000000
  0.1182115093546940  0.8806425119588752  0.6317383176108819
  0.8806425119588752  0.1182115093546940  0.3694076610755559
  0.6317383176108819  0.3694076610755559  0.1182115093546940
  0.3694076610755559  0.6317383176108819  0.8806425119588752
  0.6317383176108819  0.1182115093546940  0.8806425119588752
  0.3694076610755559  0.8806425119588752  0.1182115093546940
  0.1182115093546940  0.6317383176108819  0.3694076610755559
  0.8806425119588752  0.3694076610755559  0.6317383176108819
  0.8806425119588752  0.6317383176108819  0.1182115093546940
  0.1182115093546940  0.3694076610755559  0.8806425119588752
  0.3694076610755559  0.1182115093546940  0.6317383176108819
  0.6317383176108819  0.8806425119588752  0.3694076610755559
  0.1182115093546940  0.3694076610755559  0.6317383176108819
  0.3694076610755559  0.1182115093546940  0.8806425119588752
  0.6317383176108819  0.8806425119588752  0.1182115093546940
  0.8806425119588752  0.6317383176108819  0.3694076610755559
  0.6317383176108819  0.1182115093546940  0.3694076610755559
  0.8806425119588752  0.3694076610755559  0.1182115093546940
  0.1182115093546940  0.6317383176108819  0.8806425119588752
  0.3694076610755559  0.8806425119588752  0.6317383176108819
  0.3694076610755559  0.6317383176108819  0.1182115093546940
  0.1182115093546940  0.8806425119588752  0.3694076610755559
  0.8806425119588752  0.1182115093546940  0.6317383176108819
  0.6317383176108819  0.3694076610755559  0.8806425119588752
 
  0.00000000E+00  0.00000000E+00  0.00000000E+00
  0.00000000E+00  0.00000000E+00  0.00000000E+00
  0.00000000E+00  0.00000000E+00  0.00000000E+00
  0.00000000E+00  0.00000000E+00  0.00000000E+00
  0.00000000E+00  0.00000000E+00  0.00000000E+00
  0.00000000E+00  0.00000000E+00  0.00000000E+00
  0.00000000E+00  0.00000000E+00  0.00000000E+00
  0.00000000E+00  0.00000000E+00  0.00000000E+00
  0.00000000E+00  0.00000000E+00  0.00000000E+00
  0.00000000E+00  0.00000000E+00  0.00000000E+00
  0.00000000E+00  0.00000000E+00  0.00000000E+00
  0.00000000E+00  0.00000000E+00  0.00000000E+00
  0.00000000E+00  0.00000000E+00  0.00000000E+00
  0.00000000E+00  0.00000000E+00  0.00000000E+00
  0.00000000E+00  0.00000000E+00  0.00000000E+00
  0.00000000E+00  0.00000000E+00  0.00000000E+00
  0.00000000E+00  0.00000000E+00  0.00000000E+00
  0.00000000E+00  0.00000000E+00  0.00000000E+00
  0.00000000E+00  0.00000000E+00  0.00000000E+00
  0.00000000E+00  0.00000000E+00  0.00000000E+00
  0.00000000E+00  0.00000000E+00  0.00000000E+00
  0.00000000E+00  0.00000000E+00  0.00000000E+00
  0.00000000E+00  0.00000000E+00  0.00000000E+00
  0.00000000E+00  0.00000000E+00  0.00000000E+00
  0.00000000E+00  0.00000000E+00  0.00000000E+00
  0.00000000E+00  0.00000000E+00  0.00000000E+00
  0.00000000E+00  0.00000000E+00  0.00000000E+00
  0.00000000E+00  0.00000000E+00  0.00000000E+00
