generated by phonopy                    
   1.00000000000000     
     0.0000000000000000    3.4895568053409662    3.4895568053410284
     3.4895568053409929    0.0000000000000000    3.4895568053410284
     3.4895568053409929    3.4895568053409662    0.0000000000000000
   Ca   Y    Hf   Ce   H 
     1     1     1     1    24
Direct
  0.2500000000000000  0.2500000000000000  0.2500000000000000
  0.7500000000000000  0.7500000000000000  0.7500000000000000
  0.0000000000000000  0.0000000000000000  0.0000000000000000
  0.5000000000000000  0.5000000000000000  0.5000000000000000
  0.1260367700444718  0.8823714984423177  0.6218999555191047
  0.8823714984423177  0.1260367700444718  0.3696917759941130
  0.6218999555191047  0.3696917759941130  0.1260367700444718
  0.3696917759941130  0.6218999555191047  0.8823714984423177
  0.6218999555191047  0.1260367700444718  0.8823714984423177
  0.3696917759941130  0.8823714984423177  0.1260367700444718
  0.1260367700444718  0.6218999555191047  0.3696917759941130
  0.8823714984423177  0.3696917759941130  0.6218999555191047
  0.8823714984423177  0.6218999555191047  0.1260367700444718
  0.1260367700444718  0.3696917759941130  0.8823714984423177
  0.3696917759941130  0.1260367700444718  0.6218999555191047
  0.6218999555191047  0.8823714984423177  0.3696917759941130
  0.1260367700444718  0.3696917759941130  0.6218999555191047
  0.3696917759941130  0.1260367700444718  0.8823714984423177
  0.6218999555191047  0.8823714984423177  0.1260367700444718
  0.8823714984423177  0.6218999555191047  0.3696917759941130
  0.6218999555191047  0.1260367700444718  0.3696917759941130
  0.8823714984423177  0.3696917759941130  0.1260367700444718
  0.1260367700444718  0.6218999555191047  0.8823714984423177
  0.3696917759941130  0.8823714984423177  0.6218999555191047
  0.3696917759941130  0.6218999555191047  0.1260367700444718
  0.1260367700444718  0.8823714984423177  0.3696917759941130
  0.8823714984423177  0.1260367700444718  0.6218999555191047
  0.6218999555191047  0.3696917759941130  0.8823714984423177
 
  0.00000000E+00  0.00000000E+00  0.00000000E+00
  0.00000000E+00  0.00000000E+00  0.00000000E+00
  0.00000000E+00  0.00000000E+00  0.00000000E+00
  0.00000000E+00  0.00000000E+00  0.00000000E+00
  0.00000000E+00  0.00000000E+00  0.00000000E+00
  0.00000000E+00  0.00000000E+00  0.00000000E+00
  0.00000000E+00  0.00000000E+00  0.00000000E+00
  0.00000000E+00  0.00000000E+00  0.00000000E+00
  0.00000000E+00  0.00000000E+00  0.00000000E+00
  0.00000000E+00  0.00000000E+00  0.00000000E+00
  0.00000000E+00  0.00000000E+00  0.00000000E+00
  0.00000000E+00  0.00000000E+00  0.00000000E+00
  0.00000000E+00  0.00000000E+00  0.00000000E+00
  0.00000000E+00  0.00000000E+00  0.00000000E+00
  0.00000000E+00  0.00000000E+00  0.00000000E+00
  0.00000000E+00  0.00000000E+00  0.00000000E+00
  0.00000000E+00  0.00000000E+00  0.00000000E+00
  0.00000000E+00  0.00000000E+00  0.00000000E+00
  0.00000000E+00  0.00000000E+00  0.00000000E+00
  0.00000000E+00  0.00000000E+00  0.00000000E+00
  0.00000000E+00  0.00000000E+00  0.00000000E+00
  0.00000000E+00  0.00000000E+00  0.00000000E+00
  0.00000000E+00  0.00000000E+00  0.00000000E+00
  0.00000000E+00  0.00000000E+00  0.00000000E+00
  0.00000000E+00  0.00000000E+00  0.00000000E+00
  0.00000000E+00  0.00000000E+00  0.00000000E+00
  0.00000000E+00  0.00000000E+00  0.00000000E+00
  0.00000000E+00  0.00000000E+00  0.00000000E+00
