generated by phonopy                    
   1.00000000000000     
     0.0000000000000000    3.2708240719342982    3.2708240719345367
     3.2708240719343902    0.0000000000000000    3.2708240719345367
     3.2708240719343902    3.2708240719342982    0.0000000000000000
   Na   K    Mg   Y    H 
     1     1     1     1    24
Direct
  0.2500000000000000  0.2500000000000000  0.2500000000000000
  0.7500000000000000  0.7500000000000000  0.7500000000000000
  0.0000000000000000  0.0000000000000000  0.0000000000000000
  0.5000000000000000  0.5000000000000000  0.5000000000000000
  0.1182170835138336  0.8993858641446408  0.6272997689790003
  0.8993858641446408  0.1182170835138336  0.3550972833625252
  0.6272997689790003  0.3550972833625252  0.1182170835138336
  0.3550972833625252  0.6272997689790003  0.8993858641446408
  0.6272997689790003  0.1182170835138336  0.8993858641446408
  0.3550972833625252  0.8993858641446408  0.1182170835138336
  0.1182170835138336  0.6272997689790003  0.3550972833625252
  0.8993858641446408  0.3550972833625252  0.6272997689790003
  0.8993858641446408  0.6272997689790003  0.1182170835138336
  0.1182170835138336  0.3550972833625252  0.8993858641446408
  0.3550972833625252  0.1182170835138336  0.6272997689790003
  0.6272997689790003  0.8993858641446408  0.3550972833625252
  0.1182170835138336  0.3550972833625252  0.6272997689790003
  0.3550972833625252  0.1182170835138336  0.8993858641446408
  0.6272997689790003  0.8993858641446408  0.1182170835138336
  0.8993858641446408  0.6272997689790003  0.3550972833625252
  0.6272997689790003  0.1182170835138336  0.3550972833625252
  0.8993858641446408  0.3550972833625252  0.1182170835138336
  0.1182170835138336  0.6272997689790003  0.8993858641446408
  0.3550972833625252  0.8993858641446408  0.6272997689790003
  0.3550972833625252  0.6272997689790003  0.1182170835138336
  0.1182170835138336  0.8993858641446408  0.3550972833625252
  0.8993858641446408  0.1182170835138336  0.6272997689790003
  0.6272997689790003  0.3550972833625252  0.8993858641446408
 
  0.00000000E+00  0.00000000E+00  0.00000000E+00
  0.00000000E+00  0.00000000E+00  0.00000000E+00
  0.00000000E+00  0.00000000E+00  0.00000000E+00
  0.00000000E+00  0.00000000E+00  0.00000000E+00
  0.00000000E+00  0.00000000E+00  0.00000000E+00
  0.00000000E+00  0.00000000E+00  0.00000000E+00
  0.00000000E+00  0.00000000E+00  0.00000000E+00
  0.00000000E+00  0.00000000E+00  0.00000000E+00
  0.00000000E+00  0.00000000E+00  0.00000000E+00
  0.00000000E+00  0.00000000E+00  0.00000000E+00
  0.00000000E+00  0.00000000E+00  0.00000000E+00
  0.00000000E+00  0.00000000E+00  0.00000000E+00
  0.00000000E+00  0.00000000E+00  0.00000000E+00
  0.00000000E+00  0.00000000E+00  0.00000000E+00
  0.00000000E+00  0.00000000E+00  0.00000000E+00
  0.00000000E+00  0.00000000E+00  0.00000000E+00
  0.00000000E+00  0.00000000E+00  0.00000000E+00
  0.00000000E+00  0.00000000E+00  0.00000000E+00
  0.00000000E+00  0.00000000E+00  0.00000000E+00
  0.00000000E+00  0.00000000E+00  0.00000000E+00
  0.00000000E+00  0.00000000E+00  0.00000000E+00
  0.00000000E+00  0.00000000E+00  0.00000000E+00
  0.00000000E+00  0.00000000E+00  0.00000000E+00
  0.00000000E+00  0.00000000E+00  0.00000000E+00
  0.00000000E+00  0.00000000E+00  0.00000000E+00
  0.00000000E+00  0.00000000E+00  0.00000000E+00
  0.00000000E+00  0.00000000E+00  0.00000000E+00
  0.00000000E+00  0.00000000E+00  0.00000000E+00
