POSCAR                                  
   1.00000000000000     
    10.0153380958026421    0.0096117081174620    0.0017261700260755
     0.0096209581531917   10.0309006517361112   -0.0049480423654934
     0.0011572638938583   -0.0033011467642929    6.6419034690881444
   Mg   Na   Zr   Ca   H 
     9     9     9     9   216
Direct
  0.1592405186504418  0.1642882559605982  0.2543267029357754
  0.1668368393417839  0.5005278662368913  0.2553548095877079
  0.3282343636257177  0.3330586787811765  0.4983825163193621
  0.4988336642162766  0.5027850880945725  0.2548005485288459
  0.3358678755854083 -0.0073426054747441  0.5013920663245989
  0.8370362634367643  0.4963145842711790  0.2550564042611847
  0.6674350473182401  0.6674032808295687  0.5016994590593887
  0.8355348860748272  0.8349785945316301  0.7479179751491566
 -0.0042371205746376  0.0008746125251371  0.5027889157540629
  0.1633165509493002  0.1618789447757760  0.7433592649752012
  0.3277543047851220  0.6682426766156627  0.5001800590065193
  0.1641171207183989  0.8384781418224472  0.7471007829424551
  0.8359804844412461  0.1702797055571892  0.2507901869248060
  0.0023558753476255  0.3352989526589972  0.4990345082338596
  0.6695680298783951 -0.0016805551303410  0.4994974374875470
  0.0026952460473056  0.6661135095793335  0.4979953011837464
  0.6718325345992837 -0.0029014010812921 -0.0007849953455883
 -0.0006293702221535 -0.0000403642248364  0.0032111205976192
  0.5014845807334545  0.1638961357747266  0.2548959838909781
  0.1615878649010453  0.5016399989196483  0.7371753330198576
  0.5006750442935824  0.1601865478271685  0.7430984628321078
  0.3266062711326636  0.3328986114757030  0.0011128957666118
  0.3335381758661985  0.6688907645070639  0.0003129549687227
  0.6742958448833399  0.3343085694407375  0.0013687923739606
  0.3253633827983651 -0.0017432254678850 -0.0013387189704358
 -0.0003035209033387  0.3262469277722504  0.0026862332941015
  0.8347108039832108  0.8417859381377384  0.2568138503507463
  0.1629171713871159  0.8324744651570952  0.2544709286942175
  0.6673777033287526  0.3347893417188970  0.4987321386053291
  0.5014098232343223  0.5027444415511390  0.7479192678155144
  0.8399774559916943  0.1608599016002534  0.7456338019270780
  0.5035225272133799  0.8280828729882252  0.2543176639402320
  0.5008162675068522  0.8307781915128047  0.7444782411435601
  0.8346782493201601  0.5068463536554461  0.7476744901423209
  0.6689594515356687  0.6717079446940414  0.0057729680176041
 -0.0033465361656235  0.6743256163512088 -0.0005205280324016
  0.1584389544801142  0.0825979790748888 -0.0048612843060436
  0.1508795133408734  0.0869002741798678  0.4985421796899036
  0.1646352120392023  0.4196865211741460  0.0101153769765454
  0.5094552825819404  0.0808819969575288  0.0003643270019362
  0.3260780616276050  0.2471189143731020  0.2706224592662088
  0.1674269393238257  0.4149952081163958  0.4857430141565030
  0.5012117283599838  0.0778660974160116  0.4966863346035025
  0.3230435336195006  0.2473878703201840  0.7297209214125552
  0.1650465369700002  0.7497940643786005 -0.0142040988573398
  0.4982714835565273  0.4180840144554757  0.0093951052478210
  0.3327053127563689  0.5802318607548274  0.2575309500708514
  0.1631158386628014  0.7477028210880213  0.5126784001058979
  0.8348869971660086  0.0825350596128667  0.0084867203773395
  0.6724236064808542  0.2484101395293510  0.2519127212101965
  0.4904597419268290  0.4157990203667440  0.4935709392848810
  0.3330792341444710  0.5863451144927669  0.7367323124748447
  0.8431894709633713  0.0839734758365242  0.4873325776064023
  0.6725917988817671  0.2500621686901751  0.7478089253107291
  0.5018885271554872  0.7529832582367070 -0.0028298361568300
  0.3346408501821105  0.9162065635703124  0.2578911880958570
  0.8372904812571283  0.4220716750721087  0.0099399106739260
  0.6858354857086914  0.5833648690596852  0.2557089228289312
  0.4908121302254079  0.7496154841151352  0.5021878458135237
  0.3307748237153569  0.9143516387138545  0.7410011059663568
  0.0025538482999043  0.2437998338155147  0.2773465688826307
  0.8381369566183196  0.4163816544690216  0.4918403308082895
  0.6673155961337531  0.5830544710226799  0.7474160390736664
  0.0067798154735074  0.2472254889229854  0.7284659855497237
  0.8330823684320167  0.7525897192191534 -0.0020317082512595
  0.6655259027298841  0.9208954930326742  0.2554392503610637
 -0.0139812612895148  0.5858712060989636  0.2526874738032248
  0.8392997311194182  0.7497104594638402  0.5051856306891611
  0.6674922704293962  0.9183426338298123  0.7406460793355490
 -0.0009377985353070  0.5859507179892298  0.7438496211800310
  0.0009090365821922  0.9215754859949673  0.2561920110636876
  0.0030980304884977  0.9198037261938944  0.7420986869541600
  0.0853032898273717  0.1592319239954028  0.0001704347402531
  0.0832204399410550  0.1501646128590867  0.4995503946285785
  0.0818434672087947  0.5049637312955857  0.0217060561980890
  0.4146011491923098  0.1667240448903115  0.0013452952861821
  0.2479878539928723  0.3321764710567772  0.2582042965620502
  0.0794282816044109  0.5007252647135428  0.4810369982728478
  0.4116552002716455  0.1613922585846456  0.4961347433430318
  0.2492106288763046  0.3233219860193230  0.7374384775166740
  0.0847929704954728  0.8427628273195987 -0.0079437808852726
  0.4195542052210128  0.4987857468688029  0.0133545347815468
  0.2518904261401739  0.6623269485785321  0.2596689491010832
  0.0842754539700335  0.8493547079510568  0.5072726566267792
  0.7521643479195531  0.1583914285537536  0.0043032384005588
  0.5824462062635584  0.3466685008648449  0.2507105683499855
  0.4173962457324482  0.5122917743647911  0.4933192421096936
  0.2451021803633501  0.6701326026497333  0.7360661854973579
  0.7468615497382226  0.1606746103661509  0.4909447909846827
  0.5819443325567326  0.3337173081015561  0.7502143238027004
  0.4193589384759489  0.8336585189497976  0.0003735108943600
  0.2466273827270452  0.0032736728517546  0.2792490271395798
  0.7527845033813340  0.5044471663687213  0.0115395976177480
  0.5840795136421257  0.6563603564324433  0.2660703030732232
  0.4193972467514049  0.8200110708373360  0.4977466846521884
  0.2455432491986015  0.0032814411942518  0.7251543784689191
  0.9178696207166858  0.3348044870446217  0.2560926343379545
  0.7502261987629029  0.5052647775283667  0.4913840582088038
  0.5854412786128893  0.6691273254546728  0.7477621569409914
  0.9171430770224170  0.3347417019221599  0.7405141481234349
  0.7468568590422582  0.8390570123446874 -0.0207440282498342
  0.5863016651306796 -0.0061530417331246  0.2495245447403189
  0.9178876132819815  0.6553763426991122  0.2586679033494624
  0.7485990661789501  0.8337820159357101  0.5170671800499756
  0.5880278039874932 -0.0090980458373335  0.7499046076984276
  0.9172293177239267  0.6745194394168863  0.7339230611441013
  0.9192130011399147  0.0148150547464178  0.2498183375416554
  0.9176517767413301 -0.0079839778997344  0.7536786148594626
  0.1591493247416418  0.0058047408968889  0.1294647019535764
  0.1711026594346051  0.0004116990839807  0.6232129557632031
  0.1647604350337004  0.3282640948422960  0.1354159950038190
  0.5067293498098007 -0.0020402369086309  0.1229434539391426
  0.3220083451284974  0.1629562273656653  0.3792502975664530
  0.1648810653332929  0.3197051868632176  0.6164854161722351
  0.5009018176915564 -0.0049355766517432  0.6197750542705441
  0.3247587612699459  0.1647587350921672  0.8669883522432971
  0.1623010187248537  0.6603879824097358  0.1289879441236480
  0.4973186001167438  0.3341813084093979  0.1294685770462603
  0.3312073723457887  0.5002232980740815  0.3758014986147483
  0.1663432218581045  0.6832500313455737  0.6148070739191619
  0.8369720198433291  0.0055282006326353  0.1211508187155599
  0.6798251216546928  0.1620850655078222  0.3786603065035399
  0.4928042688427323  0.3358585569413702  0.6209095156247586
  0.3298133831547784  0.4995639109416629  0.8724436185551429
  0.8348313571217660 -0.0089535204459616  0.6264755165092720
  0.6700513950774286  0.1554381474346939  0.8738272316890873
  0.5005564885774797  0.6606182713213088  0.1302171713657958
  0.3309827307409769  0.8307691743602423  0.3770854032334442
  0.8381105491020876  0.3317334821258207  0.1333584499457534
  0.6645667359881131  0.5023231006812531  0.3768628897965379
  0.5031910557384526  0.6643838700019976  0.6165418041007531
  0.3247626237219379  0.8351278285508765  0.8679329425196821
  0.0002937181496592  0.1762647199895232  0.3731519309683939
  0.8386498335538711  0.3365402220919443  0.6243391489808432
  0.6686346635243030  0.5071484785022490  0.8762240535706988
  0.0068889403457841  0.1492846965543651  0.8689756475380594
  0.8345375219905438  0.6697360982118542  0.1273294618368985
  0.6684976908044441  0.8318760288432189  0.3818429099865198
  0.0071975384542768  0.4957950241335214  0.3712139906111475
  0.8334545574368968  0.6748004118416733  0.6266968521628452
  0.6832646992166270  0.8370916927608368  0.8730788179516156
  0.0009772519569129  0.5039076921583244  0.8773478315346118
 -0.0011520251276863  0.8306657065652557  0.3784204795965627
 -0.0101931060631874  0.8433094376784668  0.8728431737747453
  0.0843535813131177  0.0046114393170768  0.2595544307241545
  0.0844945600485764 -0.0056872149655786  0.7480884933631570
  0.0842346176064100  0.3341716695995285  0.2576989597203521
  0.4167627176774969 -0.0019191370902624  0.2608513109083038
  0.2490990514361769  0.1501258679292881  0.4950651753309647
  0.0843809627798031  0.3235335646875723  0.7415507494570162
  0.4169191253869487 -0.0026631621365369  0.7417639445081186
  0.2449963395509482  0.1657393929393470 -0.0032641799298009
  0.0845892249005727  0.6606994512370367  0.2514848622888047
  0.4171297237695911  0.3383172726473777  0.2531102107055775
  0.2539676581913805  0.5008879251064643  0.4871210812731650
  0.0799982019482136  0.6822035366139063  0.7470422056349297
  0.7492968252763814  0.0123500240629532  0.2528177164179300
  0.5874865237937732  0.1601803982678532  0.4978254881112638
  0.4142554404024509  0.3352833084123087  0.7451610384072500
  0.2471724067075293  0.4998948481307308  0.0190254467676381
  0.7488898058554089 -0.0016466202065420  0.7449986693649580
  0.5873844690736550  0.1617929466699558 -0.0004113422705443
  0.4191749667525250  0.6613646988410573  0.2736846923486416
  0.2509473891611655  0.8410417088335247  0.5051008145581348
  0.7521624657417937  0.3347131333333264  0.2544696134929917
  0.5836974814976326  0.5091710749520432  0.4845181280554976
  0.4141372124264555  0.6648720480459296  0.7361383118330419
  0.2465326042622269  0.8344289230171354 -0.0072041882342099
  0.9106592682867973  0.1732984612866686  0.4919494681818835
  0.7527647948212068  0.3303311323506061  0.7446610869389458
  0.5830719669880404  0.5048879454029174  0.0182267193954685
  0.9171050520512325  0.1596355871304034  0.0103997231642740
  0.7500320729637995  0.6560646287139499  0.2610625746263726
  0.5858802365503516  0.8286216310129275  0.4992635494175296
  0.9167806133535423  0.5035793166689889  0.4958855244049196
  0.7518289536059570  0.6742626213485416  0.7390145337347438
  0.5839293413971193  0.8382594894343421  0.0011071373655510
  0.9195873248726448  0.4989620630401052  0.0111175028737159
  0.9188460219758656  0.8266809139676504  0.5185123386707253
  0.9211563505645789  0.8416083930992809 -0.0208066678782702
 -0.0019948403340722  0.1588097880181330  0.1259521895648992
  0.0044192017883077  0.1699856572223178  0.6229660031479646
  0.0116243012566147  0.5069398304273605  0.1278836766850145
  0.3213794427078238  0.1652160334127688  0.1306739565180614
  0.1641395242088627  0.3318703291608757  0.3769435796816027
 -0.0044398657924336  0.5002462818480058  0.6163898945281661
  0.3238122168263537  0.1593572020693793  0.6180463389197522
  0.1639962433274545  0.3253197643280673  0.8649327581869832
 -0.0035589649313584  0.8431910944913681  0.1240285787352580
  0.3295966545186884  0.5013726702098945  0.1297498543094114
  0.1682045113603198  0.6575028106542371  0.3741153515316878
 -0.0048345378715779  0.8355720848671414  0.6282714117426806
  0.6734447075854696  0.1580034045580665  0.1238456963695629
  0.4926697078292928  0.3414044333056127  0.3770984605654201
  0.3335490559696369  0.4989813908923781  0.6210188022152940
  0.1620963078705936  0.6758014919580192  0.8708212370092804
  0.6720020394361164  0.1611794420851405  0.6215578288372536
  0.4977988277402371  0.3330398349778441  0.8728881488327487
  0.3332815020613785  0.8341266227086781  0.1302493418911944
  0.1741897745434913  0.0009203005884222  0.3772872811082988
  0.6655114998460708  0.5058808620831433  0.1314182776244715
  0.4895139627689162  0.6605125354444427  0.3730983132549677
  0.3225254253292352  0.8322308426703617  0.6268937562572934
  0.1541577721828109  0.0011118131984611  0.8693207914126794
  0.8390186445337442  0.3369165490472981  0.3792393459617954
  0.6682590376032622  0.5092015765204084  0.6239426730230155
  0.5054225002709370  0.6663701103637238  0.8742308195584774
  0.8376335623065687  0.3348077541261195  0.8682146478557523
  0.6717256086309377  0.8403472214648239  0.1231135627633527
  0.5005456818206180 -0.0033478834356154  0.3744029710822172
  0.8347279626378200  0.6652924063784128  0.3845707517291391
  0.6778001459545626  0.8320587453651210  0.6280799564085816
  0.5088004505997237 -0.0034393632404298  0.8761080018553526
  0.8308775705764690  0.6807661491082294  0.8725171592920214
  0.8350651268071420  0.0110349225252103  0.3788590443933804
  0.8397707454048625 -0.0112727692698371  0.8742619759107091
 -0.0080446216210139  0.0828948595817297  0.2532678358778678
  0.0045461429478183  0.0843121670331677  0.7600505969839723
  0.0048511196718228  0.4174056206501741  0.2615873970107820
  0.3232167151132470  0.0843945640718303  0.2564147638731867
  0.1670901853877778  0.2513694227684110  0.4971477870475204
 -0.0019323182366356  0.4154421391465679  0.7378638340654946
  0.3223364977562521  0.0832791123129833  0.7412085221089274
  0.1648337140793123  0.2446067821670098 -0.0043128128658888
 -0.0025910852786649  0.7497734261756370  0.2665103512684028
  0.3335286646030335  0.4158536455676246  0.2608776101986654
  0.1694875415463128  0.5840242156391411  0.4874995740771826
  0.0086446628705104  0.7508206593638833  0.7355972890353293
  0.6805445529015348  0.0823670424694670  0.2429175241372595
  0.4899528824626352  0.2540735996537917  0.4966465974619560
  0.3350102678443875  0.4150446208679599  0.7330358287504712
  0.1646148242164340  0.5838605397202260 -0.0000157001203003
  0.6768950174830450  0.0794570155913960  0.7564090570575338
  0.5006422226707301  0.2518498113398797  0.0016871860192237
  0.3308370753287532  0.7501036593110157  0.2623122562246299
  0.1542724588744684  0.9137186095639985  0.5070388050639105
  0.6639725150974006  0.4221589216013610  0.2564518975400081
  0.4889274793456170  0.5805250078663493  0.4982212615471119
  0.3243695307772826  0.7525042836904666  0.7352783808929211
  0.1553332904365843  0.9144528697414873 -0.0076982528673367
  0.8474777755978962  0.2481492278788875  0.4909851284600100
  0.6669257477937505  0.4186564133197668  0.7465867995788270
  0.5026790903372563  0.5807249693488317  0.0084109512218874
  0.8352182507967639  0.2437189227528572  0.0059097983263856
  0.6745366705567035  0.7476268079078423  0.2688350173431677
  0.5025707115314104  0.9166340083188667  0.4998390937512756
  0.8346991773449125  0.5860486825469475  0.4848767433415495
  0.6685285866674993  0.7490386025070996  0.7410779839133114
  0.5046346894852336  0.9193204692553926 -0.0019835153812969
  0.8332385999161868  0.5855504378204364  0.0205244082298092
  0.8343990985026716  0.9202011923860892  0.5148894585707174
  0.8349183608283735  0.9226662491449076 -0.0042032458481478
 
  0.00000000E+00  0.00000000E+00  0.00000000E+00
  0.00000000E+00  0.00000000E+00  0.00000000E+00
  0.00000000E+00  0.00000000E+00  0.00000000E+00
  0.00000000E+00  0.00000000E+00  0.00000000E+00
  0.00000000E+00  0.00000000E+00  0.00000000E+00
  0.00000000E+00  0.00000000E+00  0.00000000E+00
  0.00000000E+00  0.00000000E+00  0.00000000E+00
  0.00000000E+00  0.00000000E+00  0.00000000E+00
  0.00000000E+00  0.00000000E+00  0.00000000E+00
  0.00000000E+00  0.00000000E+00  0.00000000E+00
  0.00000000E+00  0.00000000E+00  0.00000000E+00
  0.00000000E+00  0.00000000E+00  0.00000000E+00
  0.00000000E+00  0.00000000E+00  0.00000000E+00
  0.00000000E+00  0.00000000E+00  0.00000000E+00
  0.00000000E+00  0.00000000E+00  0.00000000E+00
  0.00000000E+00  0.00000000E+00  0.00000000E+00
  0.00000000E+00  0.00000000E+00  0.00000000E+00
  0.00000000E+00  0.00000000E+00  0.00000000E+00
  0.00000000E+00  0.00000000E+00  0.00000000E+00
  0.00000000E+00  0.00000000E+00  0.00000000E+00
  0.00000000E+00  0.00000000E+00  0.00000000E+00
  0.00000000E+00  0.00000000E+00  0.00000000E+00
  0.00000000E+00  0.00000000E+00  0.00000000E+00
  0.00000000E+00  0.00000000E+00  0.00000000E+00
  0.00000000E+00  0.00000000E+00  0.00000000E+00
  0.00000000E+00  0.00000000E+00  0.00000000E+00
  0.00000000E+00  0.00000000E+00  0.00000000E+00
  0.00000000E+00  0.00000000E+00  0.00000000E+00
  0.00000000E+00  0.00000000E+00  0.00000000E+00
  0.00000000E+00  0.00000000E+00  0.00000000E+00
  0.00000000E+00  0.00000000E+00  0.00000000E+00
  0.00000000E+00  0.00000000E+00  0.00000000E+00
  0.00000000E+00  0.00000000E+00  0.00000000E+00
  0.00000000E+00  0.00000000E+00  0.00000000E+00
  0.00000000E+00  0.00000000E+00  0.00000000E+00
  0.00000000E+00  0.00000000E+00  0.00000000E+00
  0.00000000E+00  0.00000000E+00  0.00000000E+00
  0.00000000E+00  0.00000000E+00  0.00000000E+00
  0.00000000E+00  0.00000000E+00  0.00000000E+00
  0.00000000E+00  0.00000000E+00  0.00000000E+00
  0.00000000E+00  0.00000000E+00  0.00000000E+00
  0.00000000E+00  0.00000000E+00  0.00000000E+00
  0.00000000E+00  0.00000000E+00  0.00000000E+00
  0.00000000E+00  0.00000000E+00  0.00000000E+00
  0.00000000E+00  0.00000000E+00  0.00000000E+00
  0.00000000E+00  0.00000000E+00  0.00000000E+00
  0.00000000E+00  0.00000000E+00  0.00000000E+00
  0.00000000E+00  0.00000000E+00  0.00000000E+00
  0.00000000E+00  0.00000000E+00  0.00000000E+00
  0.00000000E+00  0.00000000E+00  0.00000000E+00
  0.00000000E+00  0.00000000E+00  0.00000000E+00
  0.00000000E+00  0.00000000E+00  0.00000000E+00
  0.00000000E+00  0.00000000E+00  0.00000000E+00
  0.00000000E+00  0.00000000E+00  0.00000000E+00
  0.00000000E+00  0.00000000E+00  0.00000000E+00
  0.00000000E+00  0.00000000E+00  0.00000000E+00
  0.00000000E+00  0.00000000E+00  0.00000000E+00
  0.00000000E+00  0.00000000E+00  0.00000000E+00
  0.00000000E+00  0.00000000E+00  0.00000000E+00
  0.00000000E+00  0.00000000E+00  0.00000000E+00
  0.00000000E+00  0.00000000E+00  0.00000000E+00
  0.00000000E+00  0.00000000E+00  0.00000000E+00
  0.00000000E+00  0.00000000E+00  0.00000000E+00
  0.00000000E+00  0.00000000E+00  0.00000000E+00
  0.00000000E+00  0.00000000E+00  0.00000000E+00
  0.00000000E+00  0.00000000E+00  0.00000000E+00
  0.00000000E+00  0.00000000E+00  0.00000000E+00
  0.00000000E+00  0.00000000E+00  0.00000000E+00
  0.00000000E+00  0.00000000E+00  0.00000000E+00
  0.00000000E+00  0.00000000E+00  0.00000000E+00
  0.00000000E+00  0.00000000E+00  0.00000000E+00
  0.00000000E+00  0.00000000E+00  0.00000000E+00
  0.00000000E+00  0.00000000E+00  0.00000000E+00
  0.00000000E+00  0.00000000E+00  0.00000000E+00
  0.00000000E+00  0.00000000E+00  0.00000000E+00
  0.00000000E+00  0.00000000E+00  0.00000000E+00
  0.00000000E+00  0.00000000E+00  0.00000000E+00
  0.00000000E+00  0.00000000E+00  0.00000000E+00
  0.00000000E+00  0.00000000E+00  0.00000000E+00
  0.00000000E+00  0.00000000E+00  0.00000000E+00
  0.00000000E+00  0.00000000E+00  0.00000000E+00
  0.00000000E+00  0.00000000E+00  0.00000000E+00
  0.00000000E+00  0.00000000E+00  0.00000000E+00
  0.00000000E+00  0.00000000E+00  0.00000000E+00
  0.00000000E+00  0.00000000E+00  0.00000000E+00
  0.00000000E+00  0.00000000E+00  0.00000000E+00
  0.00000000E+00  0.00000000E+00  0.00000000E+00
  0.00000000E+00  0.00000000E+00  0.00000000E+00
  0.00000000E+00  0.00000000E+00  0.00000000E+00
  0.00000000E+00  0.00000000E+00  0.00000000E+00
  0.00000000E+00  0.00000000E+00  0.00000000E+00
  0.00000000E+00  0.00000000E+00  0.00000000E+00
  0.00000000E+00  0.00000000E+00  0.00000000E+00
  0.00000000E+00  0.00000000E+00  0.00000000E+00
  0.00000000E+00  0.00000000E+00  0.00000000E+00
  0.00000000E+00  0.00000000E+00  0.00000000E+00
  0.00000000E+00  0.00000000E+00  0.00000000E+00
  0.00000000E+00  0.00000000E+00  0.00000000E+00
  0.00000000E+00  0.00000000E+00  0.00000000E+00
  0.00000000E+00  0.00000000E+00  0.00000000E+00
  0.00000000E+00  0.00000000E+00  0.00000000E+00
  0.00000000E+00  0.00000000E+00  0.00000000E+00
  0.00000000E+00  0.00000000E+00  0.00000000E+00
  0.00000000E+00  0.00000000E+00  0.00000000E+00
  0.00000000E+00  0.00000000E+00  0.00000000E+00
  0.00000000E+00  0.00000000E+00  0.00000000E+00
  0.00000000E+00  0.00000000E+00  0.00000000E+00
  0.00000000E+00  0.00000000E+00  0.00000000E+00
  0.00000000E+00  0.00000000E+00  0.00000000E+00
  0.00000000E+00  0.00000000E+00  0.00000000E+00
  0.00000000E+00  0.00000000E+00  0.00000000E+00
  0.00000000E+00  0.00000000E+00  0.00000000E+00
  0.00000000E+00  0.00000000E+00  0.00000000E+00
  0.00000000E+00  0.00000000E+00  0.00000000E+00
  0.00000000E+00  0.00000000E+00  0.00000000E+00
  0.00000000E+00  0.00000000E+00  0.00000000E+00
  0.00000000E+00  0.00000000E+00  0.00000000E+00
  0.00000000E+00  0.00000000E+00  0.00000000E+00
  0.00000000E+00  0.00000000E+00  0.00000000E+00
  0.00000000E+00  0.00000000E+00  0.00000000E+00
  0.00000000E+00  0.00000000E+00  0.00000000E+00
  0.00000000E+00  0.00000000E+00  0.00000000E+00
  0.00000000E+00  0.00000000E+00  0.00000000E+00
  0.00000000E+00  0.00000000E+00  0.00000000E+00
  0.00000000E+00  0.00000000E+00  0.00000000E+00
  0.00000000E+00  0.00000000E+00  0.00000000E+00
  0.00000000E+00  0.00000000E+00  0.00000000E+00
  0.00000000E+00  0.00000000E+00  0.00000000E+00
  0.00000000E+00  0.00000000E+00  0.00000000E+00
  0.00000000E+00  0.00000000E+00  0.00000000E+00
  0.00000000E+00  0.00000000E+00  0.00000000E+00
  0.00000000E+00  0.00000000E+00  0.00000000E+00
  0.00000000E+00  0.00000000E+00  0.00000000E+00
  0.00000000E+00  0.00000000E+00  0.00000000E+00
  0.00000000E+00  0.00000000E+00  0.00000000E+00
  0.00000000E+00  0.00000000E+00  0.00000000E+00
  0.00000000E+00  0.00000000E+00  0.00000000E+00
  0.00000000E+00  0.00000000E+00  0.00000000E+00
  0.00000000E+00  0.00000000E+00  0.00000000E+00
  0.00000000E+00  0.00000000E+00  0.00000000E+00
  0.00000000E+00  0.00000000E+00  0.00000000E+00
  0.00000000E+00  0.00000000E+00  0.00000000E+00
  0.00000000E+00  0.00000000E+00  0.00000000E+00
  0.00000000E+00  0.00000000E+00  0.00000000E+00
  0.00000000E+00  0.00000000E+00  0.00000000E+00
  0.00000000E+00  0.00000000E+00  0.00000000E+00
  0.00000000E+00  0.00000000E+00  0.00000000E+00
  0.00000000E+00  0.00000000E+00  0.00000000E+00
  0.00000000E+00  0.00000000E+00  0.00000000E+00
  0.00000000E+00  0.00000000E+00  0.00000000E+00
  0.00000000E+00  0.00000000E+00  0.00000000E+00
  0.00000000E+00  0.00000000E+00  0.00000000E+00
  0.00000000E+00  0.00000000E+00  0.00000000E+00
  0.00000000E+00  0.00000000E+00  0.00000000E+00
  0.00000000E+00  0.00000000E+00  0.00000000E+00
  0.00000000E+00  0.00000000E+00  0.00000000E+00
  0.00000000E+00  0.00000000E+00  0.00000000E+00
  0.00000000E+00  0.00000000E+00  0.00000000E+00
  0.00000000E+00  0.00000000E+00  0.00000000E+00
  0.00000000E+00  0.00000000E+00  0.00000000E+00
  0.00000000E+00  0.00000000E+00  0.00000000E+00
  0.00000000E+00  0.00000000E+00  0.00000000E+00
  0.00000000E+00  0.00000000E+00  0.00000000E+00
  0.00000000E+00  0.00000000E+00  0.00000000E+00
  0.00000000E+00  0.00000000E+00  0.00000000E+00
  0.00000000E+00  0.00000000E+00  0.00000000E+00
  0.00000000E+00  0.00000000E+00  0.00000000E+00
  0.00000000E+00  0.00000000E+00  0.00000000E+00
  0.00000000E+00  0.00000000E+00  0.00000000E+00
  0.00000000E+00  0.00000000E+00  0.00000000E+00
  0.00000000E+00  0.00000000E+00  0.00000000E+00
  0.00000000E+00  0.00000000E+00  0.00000000E+00
  0.00000000E+00  0.00000000E+00  0.00000000E+00
  0.00000000E+00  0.00000000E+00  0.00000000E+00
  0.00000000E+00  0.00000000E+00  0.00000000E+00
  0.00000000E+00  0.00000000E+00  0.00000000E+00
  0.00000000E+00  0.00000000E+00  0.00000000E+00
  0.00000000E+00  0.00000000E+00  0.00000000E+00
  0.00000000E+00  0.00000000E+00  0.00000000E+00
  0.00000000E+00  0.00000000E+00  0.00000000E+00
  0.00000000E+00  0.00000000E+00  0.00000000E+00
  0.00000000E+00  0.00000000E+00  0.00000000E+00
  0.00000000E+00  0.00000000E+00  0.00000000E+00
  0.00000000E+00  0.00000000E+00  0.00000000E+00
  0.00000000E+00  0.00000000E+00  0.00000000E+00
  0.00000000E+00  0.00000000E+00  0.00000000E+00
  0.00000000E+00  0.00000000E+00  0.00000000E+00
  0.00000000E+00  0.00000000E+00  0.00000000E+00
  0.00000000E+00  0.00000000E+00  0.00000000E+00
  0.00000000E+00  0.00000000E+00  0.00000000E+00
  0.00000000E+00  0.00000000E+00  0.00000000E+00
  0.00000000E+00  0.00000000E+00  0.00000000E+00
  0.00000000E+00  0.00000000E+00  0.00000000E+00
  0.00000000E+00  0.00000000E+00  0.00000000E+00
  0.00000000E+00  0.00000000E+00  0.00000000E+00
  0.00000000E+00  0.00000000E+00  0.00000000E+00
  0.00000000E+00  0.00000000E+00  0.00000000E+00
  0.00000000E+00  0.00000000E+00  0.00000000E+00
  0.00000000E+00  0.00000000E+00  0.00000000E+00
  0.00000000E+00  0.00000000E+00  0.00000000E+00
  0.00000000E+00  0.00000000E+00  0.00000000E+00
  0.00000000E+00  0.00000000E+00  0.00000000E+00
  0.00000000E+00  0.00000000E+00  0.00000000E+00
  0.00000000E+00  0.00000000E+00  0.00000000E+00
  0.00000000E+00  0.00000000E+00  0.00000000E+00
  0.00000000E+00  0.00000000E+00  0.00000000E+00
  0.00000000E+00  0.00000000E+00  0.00000000E+00
  0.00000000E+00  0.00000000E+00  0.00000000E+00
  0.00000000E+00  0.00000000E+00  0.00000000E+00
  0.00000000E+00  0.00000000E+00  0.00000000E+00
  0.00000000E+00  0.00000000E+00  0.00000000E+00
  0.00000000E+00  0.00000000E+00  0.00000000E+00
  0.00000000E+00  0.00000000E+00  0.00000000E+00
  0.00000000E+00  0.00000000E+00  0.00000000E+00
  0.00000000E+00  0.00000000E+00  0.00000000E+00
  0.00000000E+00  0.00000000E+00  0.00000000E+00
  0.00000000E+00  0.00000000E+00  0.00000000E+00
  0.00000000E+00  0.00000000E+00  0.00000000E+00
  0.00000000E+00  0.00000000E+00  0.00000000E+00
  0.00000000E+00  0.00000000E+00  0.00000000E+00
  0.00000000E+00  0.00000000E+00  0.00000000E+00
  0.00000000E+00  0.00000000E+00  0.00000000E+00
  0.00000000E+00  0.00000000E+00  0.00000000E+00
  0.00000000E+00  0.00000000E+00  0.00000000E+00
  0.00000000E+00  0.00000000E+00  0.00000000E+00
  0.00000000E+00  0.00000000E+00  0.00000000E+00
  0.00000000E+00  0.00000000E+00  0.00000000E+00
  0.00000000E+00  0.00000000E+00  0.00000000E+00
  0.00000000E+00  0.00000000E+00  0.00000000E+00
  0.00000000E+00  0.00000000E+00  0.00000000E+00
  0.00000000E+00  0.00000000E+00  0.00000000E+00
  0.00000000E+00  0.00000000E+00  0.00000000E+00
  0.00000000E+00  0.00000000E+00  0.00000000E+00
  0.00000000E+00  0.00000000E+00  0.00000000E+00
  0.00000000E+00  0.00000000E+00  0.00000000E+00
  0.00000000E+00  0.00000000E+00  0.00000000E+00
  0.00000000E+00  0.00000000E+00  0.00000000E+00
  0.00000000E+00  0.00000000E+00  0.00000000E+00
  0.00000000E+00  0.00000000E+00  0.00000000E+00
  0.00000000E+00  0.00000000E+00  0.00000000E+00
  0.00000000E+00  0.00000000E+00  0.00000000E+00
  0.00000000E+00  0.00000000E+00  0.00000000E+00
  0.00000000E+00  0.00000000E+00  0.00000000E+00
  0.00000000E+00  0.00000000E+00  0.00000000E+00
  0.00000000E+00  0.00000000E+00  0.00000000E+00
  0.00000000E+00  0.00000000E+00  0.00000000E+00
  0.00000000E+00  0.00000000E+00  0.00000000E+00
  0.00000000E+00  0.00000000E+00  0.00000000E+00
  0.00000000E+00  0.00000000E+00  0.00000000E+00
  0.00000000E+00  0.00000000E+00  0.00000000E+00
  0.00000000E+00  0.00000000E+00  0.00000000E+00
  0.00000000E+00  0.00000000E+00  0.00000000E+00
