POSCAR                                  
   1.00000000000000     
    10.0300904839899800    0.0109348939318810    0.0023285017989084
     0.0109783044212484   10.0182017580058016   -0.0024549640212459
     0.0015551208140368   -0.0016454163958438    6.6476180108012812
   Mg   Na   Zr   Ca   H 
     9     9     9     9   216
Direct
  0.1586686320421219  0.1640485226060123  0.2537357502135202
  0.1671348933742130  0.4998577246974149  0.2560700516413235
  0.3283641165366772  0.3322767365512931  0.4981712656965345
  0.4990502021374065  0.5025843644502055  0.2543702021146694
  0.3368337108513016  0.9929083565475793  0.5012320309472384
  0.8364836029113322  0.4953910873836366  0.2554151594820956
  0.6679050795103905  0.6678774829897607  0.5008691944991120
  0.8350727877452898  0.8349922815733728  0.7483153729747208
  0.9949997142133866  0.0015018192055024  0.5018171747103153
  0.1626159442604269  0.1604958924483244  0.7416234523779490
  0.3269955016255103  0.6680141570512609  0.5000584426026571
  0.1657639629093496  0.8385121423884965  0.7462988594750077
  0.8357795251350940  0.1715320715650581  0.2518007757447501
  0.0021850948224434  0.3358244273503899  0.4996565346757861
  0.6700770537255294  0.9985701683396682  0.5001163757580149
  0.0034514115101126  0.6660126022280072  0.4978847045247620
  0.6716021841930799  0.9972621569680873  0.9998086374150933
  0.0007663931423243  0.0000049315197525  0.0032719752680263
  0.5008134767674800  0.1649199293439605  0.2529345415517970
  0.1633016896179774  0.4992510108317014  0.7399593680414860
  0.5010806441604130  0.1624054478363653  0.7459180621391178
  0.3261038846049326  0.3314687056660608  0.0010564548697152
  0.3340556409231618  0.6682718083176894  0.0003552843007531
  0.6735483699657127  0.3353615504971627  0.0015965237650200
  0.3258491425491411  0.9987278015866815  0.9981868726700135
  0.0006796824624207  0.3257633290215019  0.0022331629809349
  0.8346180582952325  0.8417912287477816  0.2549774470849914
  0.1630113346290266  0.8315630550813282  0.2541830845114225
  0.6666057224269801  0.3345188861752717  0.4990650132275946
  0.5012774062096083  0.5022850615090619  0.7479183768050179
  0.8396981123379587  0.1617890745378405  0.7470266403799218
  0.5033674669184923  0.8292024547729079  0.2536947431868499
  0.4995355327900612  0.8306687336699532  0.7440735164635321
  0.8352382211479676  0.5071409957726496  0.7491670680535523
  0.6685067541153932  0.6715919873474619  0.0054381966924695
  0.9968182540067200  0.6731416595621301  0.9984007180341887
  0.1596001786808900  0.0836486346315961  0.9963002567249180
  0.1497803611712685  0.0864131864648354  0.4968216563518383
  0.1638404097765429  0.4192464409104312  0.0075557639794980
  0.5105076747255961  0.0810248505370590 -0.0001658244287522
  0.3239966527051633  0.2474328780417666  0.2719780713198827
  0.1678018041195129  0.4154824061538994  0.4867709149256375
  0.5016493485872563  0.0800836764599557  0.4967236174858226
  0.3223470629674294  0.2466719918593314  0.7275520576849821
  0.1651294448942468  0.7491317130996922  0.9858254582952166
  0.4980574291361029  0.4179525923103679  0.0093589863398623
  0.3374790508904687  0.5810189734855227  0.2563117087034802
  0.1631875941370916  0.7475208753244037  0.5142723273433591
  0.8347086717325315  0.0840816114709726  0.0090893146320530
  0.6715908771381301  0.2481040140865715  0.2527648080646086
  0.4886463010762564  0.4152141954603877  0.4938211265502948
  0.3334514504739736  0.5849697296103903  0.7332003089608035
  0.8420084902268570  0.0835259782680854  0.4876333862775520
  0.6719592477244042  0.2501697143936737  0.7482602881195272
  0.5010396930607725  0.7520667917131518  0.9969096551715386
  0.3339331997799231  0.9164681777101593  0.2564335716218133
  0.8378863999234157  0.4208553063942748  0.0090153300843682
  0.6863825285975714  0.5851391234826840  0.2557893700099671
  0.4900953586130206  0.7492189837070256  0.5005756947036957
  0.3317176642495832  0.9148945987608871  0.7410071983919356
  0.0023947893914255  0.2448111884693535  0.2756424626907355
  0.8370720137140266  0.4157081803129516  0.4956271727409383
  0.6678657134501355  0.5825047887083776  0.7463021728569288
  0.0072249500163341  0.2472842650212370  0.7286321554493449
  0.8333452303468075  0.7525353611824079  0.9975817047182107
  0.6651866457198334  0.9202632777042047  0.2567063131531054
  0.9838175359598493  0.5866197288840377  0.2524669016984943
  0.8416284147373987  0.7504098952490257  0.5049267566749407
  0.6632775617853358  0.9201520547754871  0.7433804138407314
  0.0001498716943948  0.5867356955027024  0.7409985726081757
  0.0008699739853443  0.9206158873207215  0.2539574846012319
  0.0077463692270806  0.9203691753083525  0.7398587391567440
  0.0859256266997509  0.1590106678717923  0.0019688315105603
  0.0831186365130111  0.1503288611371501  0.4979242469346044
  0.0820904171452421  0.5057126256996338  0.0252154112679269
  0.4141197649486840  0.1668065077339030  0.0032244336834263
  0.2481166952374939  0.3339863475301515  0.2603344722614719
  0.0797297833755214  0.5005187359470767  0.4807289901085599
  0.4121693407329340  0.1605684500676032  0.4951647970421965
  0.2495085175836813  0.3212673304629118  0.7363702686716073
  0.0864492744122745  0.8417644435651988  0.9913615624288324
  0.4196102680699027  0.4977671860145902  0.0139320733307800
  0.2501294460879708  0.6610682791954520  0.2594286917775979
  0.0832551927174536  0.8499502662681181  0.5070409999110800
  0.7513784725888187  0.1591340012432695  0.0043674519932939
  0.5819863906822739  0.3463436097811686  0.2524908185032228
  0.4181393078522462  0.5122085610472839  0.4932358722572817
  0.2444421974661920  0.6696843836821277  0.7394469161830661
  0.7462593928455235  0.1607445997545907  0.4914627018785440
  0.5819484823320966  0.3343816388851859  0.7485897339014500
  0.4182070292373089  0.8338379472013044 -0.0005362194448989
  0.2464125507069359  0.0026882862035372  0.2816197686841904
  0.7529694883360986  0.5050616399394050  0.0131518284885652
  0.5846053252438346  0.6559123065490913  0.2656657431851163
  0.4193953058697048  0.8207402248800666  0.4979406718349528
  0.2445225821579486  0.0035857272728416  0.7210538114439174
  0.9180034538473479  0.3366547244546217  0.2579047696779866
  0.7506606991994622  0.5036024676764006  0.4915706307084121
  0.5856428144859473  0.6698143188327724  0.7437128976015932
  0.9178709170960732  0.3354694337374398  0.7419588109791992
  0.7467449183893844  0.8391259869312513  0.9772703054129080
  0.5868265051552506  0.9966832717604789  0.2510477959461045
  0.9186146372795944  0.6515367536620866  0.2578082994907778
  0.7482409868196784  0.8344039163001611  0.5199563841348916
  0.5899435084672929  0.9885656602088148  0.7494681450624707
  0.9185574120027813  0.6736752790263134  0.7343262384794370
  0.9171558950916631  0.0156282249526529  0.2447264304568229
  0.9162155691034126  0.9933225874537591  0.7579950035027830
  0.1610858422957857  0.0042474008338229  0.1283989722692599
  0.1742756301675815  0.0001986967347950  0.6200676067781887
  0.1656561752560065  0.3257284919934692  0.1352660894193425
  0.5034127066919576  0.9975002744470984  0.1213118639241824
  0.3212506862272629  0.1615415708932765  0.3792369698422970
  0.1638958327944461  0.3199456424200759  0.6179186820161402
  0.4998854517091333  0.9957971221251848  0.6205336096405911
  0.3229556729528805  0.1652410657380506  0.8666035540747250
  0.1617597281027645  0.6602802501737408  0.1295826741893057
  0.4973583275580661  0.3355594982682619  0.1276095916769481
  0.3294539082793073  0.5002755686206585  0.3757971964598876
  0.1664569562562664  0.6818125565695519  0.6143285517707766
  0.8387660230639556  0.0071342944048339  0.1206017503444338
  0.6796431566621485  0.1636000469717578  0.3799158690133399
  0.4939290551981142  0.3347569221445879  0.6232541833160586
  0.3298149657873826  0.4979405661390360  0.8726220550936761
  0.8359337738483060  0.9894892007897936  0.6261692278480230
  0.6699704589932116  0.1562275595884083  0.8752387276672278
  0.5009721033928928  0.6612637216526475  0.1284949847376630
  0.3311259768760620  0.8287622529860471  0.3755678548274217
  0.8372819409489586  0.3320368871041326  0.1309840395877652
  0.6657193191217419  0.5011632865852623  0.3771573858286545
  0.5036444792534560  0.6646637967027121  0.6177626133696495
  0.3237029487683802  0.8350657418683636  0.8693568779827384
 -0.0004510825256670  0.1758929963471536  0.3730938926666748
  0.8377010488333958  0.3376510175548048  0.6251269562609926
  0.6687193531679811  0.5080700207676763  0.8753811122255284
  0.0067926932575706  0.1491760968537886  0.8686988462451893
  0.8341832270592879  0.6708998580510670  0.1273821009550941
  0.6691024729420658  0.8335285915590791  0.3805427586261891
  0.0081433372401539  0.4952482604987922  0.3729975196442172
  0.8317371491013386  0.6753399624667763  0.6249725361043572
  0.6841238842139045  0.8372182958062000  0.8732939523619944
  0.0026164452531701  0.5024193843202545  0.8774390768170258
  0.9981400189238282  0.8292661599944424  0.3773181073100154
  0.9878080427218625  0.8432288892106640  0.8729041359760450
  0.0833022469859006  0.0045985435924929  0.2620814500477460
  0.0829455820856492  0.9915905982088270  0.7493284127663503
  0.0827574641209881  0.3362683182612984  0.2580704209778541
  0.4159770454381550  0.9983730245679862  0.2625275699467928
  0.2491447640321532  0.1523094110230386  0.4950911748237101
  0.0846963623415131  0.3221868404772854  0.7392426474105720
  0.4169460020591832  0.9986000698806824  0.7393086331346310
  0.2445538477100881  0.1637801014076189  0.9936537912540412
  0.0843825711620668  0.6593171079498032  0.2491008893887703
  0.4163908755607896  0.3381341250592886  0.2551947143098941
  0.2544421268651109  0.4988090432122792  0.4846409396745839
  0.0794063298924177  0.6859937475769134  0.7471982507041611
  0.7492481718592776  0.0147927617983216  0.2523649903284763
  0.5862260251169782  0.1575091721481738  0.4974656815389060
  0.4126763757704368  0.3350043349098623  0.7432269388214593
  0.2481406978755398  0.5006074478446599  0.0257201915929355
  0.7486297373619576 -0.0002238759639022  0.7467752971370716
  0.5859748281245162  0.1603998270308497  0.0009263032964783
  0.4180768673808221  0.6608838785260488  0.2738180092239126
  0.2503561686815791  0.8420798372214828  0.5039633370950991
  0.7517447046651763  0.3348053605609452  0.2551769677693374
  0.5841628059308522  0.5116128235567464  0.4831458599944721
  0.4143356441945214  0.6638287940980448  0.7338613622036666
  0.2472346911454464  0.8337985525185641  0.9920581735316758
  0.9108664037958347  0.1779496103178859  0.4925359010577863
  0.7531435358926887  0.3297872929715774  0.7439130715504311
  0.5826862134311066  0.5046751074553812  0.0170909304647996
  0.9170624436777680  0.1592313739212917  0.0120008038640743
  0.7512492980255718  0.6543059972103148  0.2615628136483678
  0.5856991297491856  0.8293424664052623  0.4997808433460330
  0.9162358238612829  0.5056921779096052  0.4942182729399661
  0.7514460605487595  0.6753516167768527  0.7405127378735584
  0.5828850952327470  0.8390583833788290 -0.0006933511977050
  0.9198441812852894  0.4976211348969407  0.0126785584907821
  0.9191647142981464  0.8248408236495227  0.5218221182207872
  0.9229252180331319  0.8410723624504337  0.9751341510830953
  0.9967850843680542  0.1590921363764004  0.1245574153607602
  0.0036896974532111  0.1688705968177114  0.6224488073235968
  0.0135514668732099  0.5063834160367788  0.1274863825788846
  0.3166104262681135  0.1658963809851950  0.1304293598102228
  0.1633398294822787  0.3323293028750306  0.3774496304296253
  0.9981558830215677  0.4999459828136936  0.6197373324939117
  0.3225951366623109  0.1606126172250496  0.6179197049954279
  0.1654701135230770  0.3215371144024542  0.8655076666087682
  0.9959484039269095  0.8436157978347836  0.1247456039495976
  0.3263300163022569  0.4997693257581518  0.1297547818932700
  0.1698965631347216  0.6561367327066616  0.3731689567548399
  0.9921306378634273  0.8390769248220368  0.6272701265691009
  0.6730378021015511  0.1590868579962431  0.1243892672058003
  0.4934465429572531  0.3423858092679203  0.3774068063886372
  0.3337299628199611  0.5007985960587202  0.6230643163266906
  0.1633062057281139  0.6746800248097490  0.8715907257596750
  0.6712666995863275  0.1608541031470616  0.6233186816391794
  0.4979694998018409  0.3337822795527622  0.8752023012467720
  0.3327277015133814  0.8348301772167779  0.1289144518675212
  0.1763080815328542  0.0009541862810074  0.3775160265076500
  0.6663796626853138  0.5045331185401623  0.1300597097554743
  0.4893382343315404  0.6620718112784696  0.3734536825289004
  0.3233804618046505  0.8320298999936639  0.6262331292695044
  0.1558676723004915  0.0002443312270194  0.8689413811145268
  0.8392268070825311  0.3384968786155197  0.3779409370236425
  0.6690256449815439  0.5102607458464411  0.6240669075973294
  0.5052015109588759  0.6662488689239137  0.8740372716263959
  0.8372981190325367  0.3356515534125935  0.8699265634308464
  0.6720886199149215  0.8408960109485568  0.1242504350463990
  0.4984288542053086  0.9971530846646641  0.3738653888384895
  0.8339697714353571  0.6671590187852375  0.3839416502840056
  0.6799316478677083  0.8308636381544751  0.6252188899075403
  0.5064821903531284  0.9975654270124007  0.8768291354872038
  0.8307048256953907  0.6817625061833036  0.8727360438440657
  0.8366658227465175  0.0125836026164544  0.3803632183251071
  0.8425556313626262  0.9877400151552755  0.8743861165935501
  0.9924377580330250  0.0826409450377511  0.2538958055862102
  0.0036476795970397  0.0844267395918377  0.7605002353631851
  0.0053436452219049  0.4165177993846322  0.2607235199052858
  0.3248853686978004  0.0840482423551070  0.2574724297995626
  0.1659629993036087  0.2510972669263827  0.4934079134981869
  0.9985010855514742  0.4159774108923842  0.7381986936067608
  0.3234654399630518  0.0825079729882511  0.7400736969433495
  0.1643045614041082  0.2452311638229345  0.9916841079974807
  0.9962022040607218  0.7503718675094049  0.2672808794794572
  0.3350433933152119  0.4149930289804078  0.2603306182778982
  0.1682925544289034  0.5829727957182551  0.4918250692752351
  0.0128615060380520  0.7498496812269846  0.7381060231168050
  0.6813447606051850  0.0805715464213060  0.2421347282442511
  0.4903127585587213  0.2528872297221081  0.4952903708444549
  0.3356924448318060  0.4136891160752267  0.7321642328168811
  0.1653986244367469  0.5831415314900870 -0.0013026305698120
  0.6776889088803469  0.0786959356111669  0.7567406103980157
  0.5009794866332252  0.2518765811753572  0.0033793363088754
  0.3316068282947173  0.7514469920782657  0.2658670143551378
  0.1522683010188668  0.9128281560518169  0.5067407953820025
  0.6634391297806369  0.4226763909080231  0.2574979328603067
  0.4879948234418942  0.5798888453775568  0.4959251881872360
  0.3245865751389236  0.7521435488158187  0.7340320822458754
  0.1550171920529714  0.9143564027041192  0.9921881864330275
  0.8482458759581127  0.2483746337891644  0.4928080732502450
  0.6671208797447460  0.4186268948863394  0.7458624939105357
  0.5025294599643647  0.5807341941654904  0.0099810534716284
  0.8350825568923240  0.2450015131495688  0.0070925100109726
  0.6740793853820207  0.7481634645899766  0.2680942921312106
  0.5044897698711167  0.9171587032125076  0.5003745640607954
  0.8380273800407554  0.5859357350892859  0.4859938645062380
  0.6675494599090880  0.7480320661935026  0.7430860880007710
  0.5056334919985058  0.9185784935350576  0.9974639301217392
  0.8325749719238174  0.5851874772989363  0.0224748104577925
  0.8342794425319264  0.9204204794122044  0.5148608615721220
  0.8345383254563825  0.9234592956254164  0.9966745049069894
 
  0.00000000E+00  0.00000000E+00  0.00000000E+00
  0.00000000E+00  0.00000000E+00  0.00000000E+00
  0.00000000E+00  0.00000000E+00  0.00000000E+00
  0.00000000E+00  0.00000000E+00  0.00000000E+00
  0.00000000E+00  0.00000000E+00  0.00000000E+00
  0.00000000E+00  0.00000000E+00  0.00000000E+00
  0.00000000E+00  0.00000000E+00  0.00000000E+00
  0.00000000E+00  0.00000000E+00  0.00000000E+00
  0.00000000E+00  0.00000000E+00  0.00000000E+00
  0.00000000E+00  0.00000000E+00  0.00000000E+00
  0.00000000E+00  0.00000000E+00  0.00000000E+00
  0.00000000E+00  0.00000000E+00  0.00000000E+00
  0.00000000E+00  0.00000000E+00  0.00000000E+00
  0.00000000E+00  0.00000000E+00  0.00000000E+00
  0.00000000E+00  0.00000000E+00  0.00000000E+00
  0.00000000E+00  0.00000000E+00  0.00000000E+00
  0.00000000E+00  0.00000000E+00  0.00000000E+00
  0.00000000E+00  0.00000000E+00  0.00000000E+00
  0.00000000E+00  0.00000000E+00  0.00000000E+00
  0.00000000E+00  0.00000000E+00  0.00000000E+00
  0.00000000E+00  0.00000000E+00  0.00000000E+00
  0.00000000E+00  0.00000000E+00  0.00000000E+00
  0.00000000E+00  0.00000000E+00  0.00000000E+00
  0.00000000E+00  0.00000000E+00  0.00000000E+00
  0.00000000E+00  0.00000000E+00  0.00000000E+00
  0.00000000E+00  0.00000000E+00  0.00000000E+00
  0.00000000E+00  0.00000000E+00  0.00000000E+00
  0.00000000E+00  0.00000000E+00  0.00000000E+00
  0.00000000E+00  0.00000000E+00  0.00000000E+00
  0.00000000E+00  0.00000000E+00  0.00000000E+00
  0.00000000E+00  0.00000000E+00  0.00000000E+00
  0.00000000E+00  0.00000000E+00  0.00000000E+00
  0.00000000E+00  0.00000000E+00  0.00000000E+00
  0.00000000E+00  0.00000000E+00  0.00000000E+00
  0.00000000E+00  0.00000000E+00  0.00000000E+00
  0.00000000E+00  0.00000000E+00  0.00000000E+00
  0.00000000E+00  0.00000000E+00  0.00000000E+00
  0.00000000E+00  0.00000000E+00  0.00000000E+00
  0.00000000E+00  0.00000000E+00  0.00000000E+00
  0.00000000E+00  0.00000000E+00  0.00000000E+00
  0.00000000E+00  0.00000000E+00  0.00000000E+00
  0.00000000E+00  0.00000000E+00  0.00000000E+00
  0.00000000E+00  0.00000000E+00  0.00000000E+00
  0.00000000E+00  0.00000000E+00  0.00000000E+00
  0.00000000E+00  0.00000000E+00  0.00000000E+00
  0.00000000E+00  0.00000000E+00  0.00000000E+00
  0.00000000E+00  0.00000000E+00  0.00000000E+00
  0.00000000E+00  0.00000000E+00  0.00000000E+00
  0.00000000E+00  0.00000000E+00  0.00000000E+00
  0.00000000E+00  0.00000000E+00  0.00000000E+00
  0.00000000E+00  0.00000000E+00  0.00000000E+00
  0.00000000E+00  0.00000000E+00  0.00000000E+00
  0.00000000E+00  0.00000000E+00  0.00000000E+00
  0.00000000E+00  0.00000000E+00  0.00000000E+00
  0.00000000E+00  0.00000000E+00  0.00000000E+00
  0.00000000E+00  0.00000000E+00  0.00000000E+00
  0.00000000E+00  0.00000000E+00  0.00000000E+00
  0.00000000E+00  0.00000000E+00  0.00000000E+00
  0.00000000E+00  0.00000000E+00  0.00000000E+00
  0.00000000E+00  0.00000000E+00  0.00000000E+00
  0.00000000E+00  0.00000000E+00  0.00000000E+00
  0.00000000E+00  0.00000000E+00  0.00000000E+00
  0.00000000E+00  0.00000000E+00  0.00000000E+00
  0.00000000E+00  0.00000000E+00  0.00000000E+00
  0.00000000E+00  0.00000000E+00  0.00000000E+00
  0.00000000E+00  0.00000000E+00  0.00000000E+00
  0.00000000E+00  0.00000000E+00  0.00000000E+00
  0.00000000E+00  0.00000000E+00  0.00000000E+00
  0.00000000E+00  0.00000000E+00  0.00000000E+00
  0.00000000E+00  0.00000000E+00  0.00000000E+00
  0.00000000E+00  0.00000000E+00  0.00000000E+00
  0.00000000E+00  0.00000000E+00  0.00000000E+00
  0.00000000E+00  0.00000000E+00  0.00000000E+00
  0.00000000E+00  0.00000000E+00  0.00000000E+00
  0.00000000E+00  0.00000000E+00  0.00000000E+00
  0.00000000E+00  0.00000000E+00  0.00000000E+00
  0.00000000E+00  0.00000000E+00  0.00000000E+00
  0.00000000E+00  0.00000000E+00  0.00000000E+00
  0.00000000E+00  0.00000000E+00  0.00000000E+00
  0.00000000E+00  0.00000000E+00  0.00000000E+00
  0.00000000E+00  0.00000000E+00  0.00000000E+00
  0.00000000E+00  0.00000000E+00  0.00000000E+00
  0.00000000E+00  0.00000000E+00  0.00000000E+00
  0.00000000E+00  0.00000000E+00  0.00000000E+00
  0.00000000E+00  0.00000000E+00  0.00000000E+00
  0.00000000E+00  0.00000000E+00  0.00000000E+00
  0.00000000E+00  0.00000000E+00  0.00000000E+00
  0.00000000E+00  0.00000000E+00  0.00000000E+00
  0.00000000E+00  0.00000000E+00  0.00000000E+00
  0.00000000E+00  0.00000000E+00  0.00000000E+00
  0.00000000E+00  0.00000000E+00  0.00000000E+00
  0.00000000E+00  0.00000000E+00  0.00000000E+00
  0.00000000E+00  0.00000000E+00  0.00000000E+00
  0.00000000E+00  0.00000000E+00  0.00000000E+00
  0.00000000E+00  0.00000000E+00  0.00000000E+00
  0.00000000E+00  0.00000000E+00  0.00000000E+00
  0.00000000E+00  0.00000000E+00  0.00000000E+00
  0.00000000E+00  0.00000000E+00  0.00000000E+00
  0.00000000E+00  0.00000000E+00  0.00000000E+00
  0.00000000E+00  0.00000000E+00  0.00000000E+00
  0.00000000E+00  0.00000000E+00  0.00000000E+00
  0.00000000E+00  0.00000000E+00  0.00000000E+00
  0.00000000E+00  0.00000000E+00  0.00000000E+00
  0.00000000E+00  0.00000000E+00  0.00000000E+00
  0.00000000E+00  0.00000000E+00  0.00000000E+00
  0.00000000E+00  0.00000000E+00  0.00000000E+00
  0.00000000E+00  0.00000000E+00  0.00000000E+00
  0.00000000E+00  0.00000000E+00  0.00000000E+00
  0.00000000E+00  0.00000000E+00  0.00000000E+00
  0.00000000E+00  0.00000000E+00  0.00000000E+00
  0.00000000E+00  0.00000000E+00  0.00000000E+00
  0.00000000E+00  0.00000000E+00  0.00000000E+00
  0.00000000E+00  0.00000000E+00  0.00000000E+00
  0.00000000E+00  0.00000000E+00  0.00000000E+00
  0.00000000E+00  0.00000000E+00  0.00000000E+00
  0.00000000E+00  0.00000000E+00  0.00000000E+00
  0.00000000E+00  0.00000000E+00  0.00000000E+00
  0.00000000E+00  0.00000000E+00  0.00000000E+00
  0.00000000E+00  0.00000000E+00  0.00000000E+00
  0.00000000E+00  0.00000000E+00  0.00000000E+00
  0.00000000E+00  0.00000000E+00  0.00000000E+00
  0.00000000E+00  0.00000000E+00  0.00000000E+00
  0.00000000E+00  0.00000000E+00  0.00000000E+00
  0.00000000E+00  0.00000000E+00  0.00000000E+00
  0.00000000E+00  0.00000000E+00  0.00000000E+00
  0.00000000E+00  0.00000000E+00  0.00000000E+00
  0.00000000E+00  0.00000000E+00  0.00000000E+00
  0.00000000E+00  0.00000000E+00  0.00000000E+00
  0.00000000E+00  0.00000000E+00  0.00000000E+00
  0.00000000E+00  0.00000000E+00  0.00000000E+00
  0.00000000E+00  0.00000000E+00  0.00000000E+00
  0.00000000E+00  0.00000000E+00  0.00000000E+00
  0.00000000E+00  0.00000000E+00  0.00000000E+00
  0.00000000E+00  0.00000000E+00  0.00000000E+00
  0.00000000E+00  0.00000000E+00  0.00000000E+00
  0.00000000E+00  0.00000000E+00  0.00000000E+00
  0.00000000E+00  0.00000000E+00  0.00000000E+00
  0.00000000E+00  0.00000000E+00  0.00000000E+00
  0.00000000E+00  0.00000000E+00  0.00000000E+00
  0.00000000E+00  0.00000000E+00  0.00000000E+00
  0.00000000E+00  0.00000000E+00  0.00000000E+00
  0.00000000E+00  0.00000000E+00  0.00000000E+00
  0.00000000E+00  0.00000000E+00  0.00000000E+00
  0.00000000E+00  0.00000000E+00  0.00000000E+00
  0.00000000E+00  0.00000000E+00  0.00000000E+00
  0.00000000E+00  0.00000000E+00  0.00000000E+00
  0.00000000E+00  0.00000000E+00  0.00000000E+00
  0.00000000E+00  0.00000000E+00  0.00000000E+00
  0.00000000E+00  0.00000000E+00  0.00000000E+00
  0.00000000E+00  0.00000000E+00  0.00000000E+00
  0.00000000E+00  0.00000000E+00  0.00000000E+00
  0.00000000E+00  0.00000000E+00  0.00000000E+00
  0.00000000E+00  0.00000000E+00  0.00000000E+00
  0.00000000E+00  0.00000000E+00  0.00000000E+00
  0.00000000E+00  0.00000000E+00  0.00000000E+00
  0.00000000E+00  0.00000000E+00  0.00000000E+00
  0.00000000E+00  0.00000000E+00  0.00000000E+00
  0.00000000E+00  0.00000000E+00  0.00000000E+00
  0.00000000E+00  0.00000000E+00  0.00000000E+00
  0.00000000E+00  0.00000000E+00  0.00000000E+00
  0.00000000E+00  0.00000000E+00  0.00000000E+00
  0.00000000E+00  0.00000000E+00  0.00000000E+00
  0.00000000E+00  0.00000000E+00  0.00000000E+00
  0.00000000E+00  0.00000000E+00  0.00000000E+00
  0.00000000E+00  0.00000000E+00  0.00000000E+00
  0.00000000E+00  0.00000000E+00  0.00000000E+00
  0.00000000E+00  0.00000000E+00  0.00000000E+00
  0.00000000E+00  0.00000000E+00  0.00000000E+00
  0.00000000E+00  0.00000000E+00  0.00000000E+00
  0.00000000E+00  0.00000000E+00  0.00000000E+00
  0.00000000E+00  0.00000000E+00  0.00000000E+00
  0.00000000E+00  0.00000000E+00  0.00000000E+00
  0.00000000E+00  0.00000000E+00  0.00000000E+00
  0.00000000E+00  0.00000000E+00  0.00000000E+00
  0.00000000E+00  0.00000000E+00  0.00000000E+00
  0.00000000E+00  0.00000000E+00  0.00000000E+00
  0.00000000E+00  0.00000000E+00  0.00000000E+00
  0.00000000E+00  0.00000000E+00  0.00000000E+00
  0.00000000E+00  0.00000000E+00  0.00000000E+00
  0.00000000E+00  0.00000000E+00  0.00000000E+00
  0.00000000E+00  0.00000000E+00  0.00000000E+00
  0.00000000E+00  0.00000000E+00  0.00000000E+00
  0.00000000E+00  0.00000000E+00  0.00000000E+00
  0.00000000E+00  0.00000000E+00  0.00000000E+00
  0.00000000E+00  0.00000000E+00  0.00000000E+00
  0.00000000E+00  0.00000000E+00  0.00000000E+00
  0.00000000E+00  0.00000000E+00  0.00000000E+00
  0.00000000E+00  0.00000000E+00  0.00000000E+00
  0.00000000E+00  0.00000000E+00  0.00000000E+00
  0.00000000E+00  0.00000000E+00  0.00000000E+00
  0.00000000E+00  0.00000000E+00  0.00000000E+00
  0.00000000E+00  0.00000000E+00  0.00000000E+00
  0.00000000E+00  0.00000000E+00  0.00000000E+00
  0.00000000E+00  0.00000000E+00  0.00000000E+00
  0.00000000E+00  0.00000000E+00  0.00000000E+00
  0.00000000E+00  0.00000000E+00  0.00000000E+00
  0.00000000E+00  0.00000000E+00  0.00000000E+00
  0.00000000E+00  0.00000000E+00  0.00000000E+00
  0.00000000E+00  0.00000000E+00  0.00000000E+00
  0.00000000E+00  0.00000000E+00  0.00000000E+00
  0.00000000E+00  0.00000000E+00  0.00000000E+00
  0.00000000E+00  0.00000000E+00  0.00000000E+00
  0.00000000E+00  0.00000000E+00  0.00000000E+00
  0.00000000E+00  0.00000000E+00  0.00000000E+00
  0.00000000E+00  0.00000000E+00  0.00000000E+00
  0.00000000E+00  0.00000000E+00  0.00000000E+00
  0.00000000E+00  0.00000000E+00  0.00000000E+00
  0.00000000E+00  0.00000000E+00  0.00000000E+00
  0.00000000E+00  0.00000000E+00  0.00000000E+00
  0.00000000E+00  0.00000000E+00  0.00000000E+00
  0.00000000E+00  0.00000000E+00  0.00000000E+00
  0.00000000E+00  0.00000000E+00  0.00000000E+00
  0.00000000E+00  0.00000000E+00  0.00000000E+00
  0.00000000E+00  0.00000000E+00  0.00000000E+00
  0.00000000E+00  0.00000000E+00  0.00000000E+00
  0.00000000E+00  0.00000000E+00  0.00000000E+00
  0.00000000E+00  0.00000000E+00  0.00000000E+00
  0.00000000E+00  0.00000000E+00  0.00000000E+00
  0.00000000E+00  0.00000000E+00  0.00000000E+00
  0.00000000E+00  0.00000000E+00  0.00000000E+00
  0.00000000E+00  0.00000000E+00  0.00000000E+00
  0.00000000E+00  0.00000000E+00  0.00000000E+00
  0.00000000E+00  0.00000000E+00  0.00000000E+00
  0.00000000E+00  0.00000000E+00  0.00000000E+00
  0.00000000E+00  0.00000000E+00  0.00000000E+00
  0.00000000E+00  0.00000000E+00  0.00000000E+00
  0.00000000E+00  0.00000000E+00  0.00000000E+00
  0.00000000E+00  0.00000000E+00  0.00000000E+00
  0.00000000E+00  0.00000000E+00  0.00000000E+00
  0.00000000E+00  0.00000000E+00  0.00000000E+00
  0.00000000E+00  0.00000000E+00  0.00000000E+00
  0.00000000E+00  0.00000000E+00  0.00000000E+00
  0.00000000E+00  0.00000000E+00  0.00000000E+00
  0.00000000E+00  0.00000000E+00  0.00000000E+00
  0.00000000E+00  0.00000000E+00  0.00000000E+00
  0.00000000E+00  0.00000000E+00  0.00000000E+00
  0.00000000E+00  0.00000000E+00  0.00000000E+00
  0.00000000E+00  0.00000000E+00  0.00000000E+00
  0.00000000E+00  0.00000000E+00  0.00000000E+00
  0.00000000E+00  0.00000000E+00  0.00000000E+00
  0.00000000E+00  0.00000000E+00  0.00000000E+00
  0.00000000E+00  0.00000000E+00  0.00000000E+00
  0.00000000E+00  0.00000000E+00  0.00000000E+00
  0.00000000E+00  0.00000000E+00  0.00000000E+00
  0.00000000E+00  0.00000000E+00  0.00000000E+00
  0.00000000E+00  0.00000000E+00  0.00000000E+00
  0.00000000E+00  0.00000000E+00  0.00000000E+00
  0.00000000E+00  0.00000000E+00  0.00000000E+00
  0.00000000E+00  0.00000000E+00  0.00000000E+00
  0.00000000E+00  0.00000000E+00  0.00000000E+00
  0.00000000E+00  0.00000000E+00  0.00000000E+00
  0.00000000E+00  0.00000000E+00  0.00000000E+00
