POSCAR                                  
   1.00000000000000     
    10.0293545910125861    0.0109111331007565    0.0000536612909552
     0.0109501122787675   10.0218128749576465   -0.0013579320808221
     0.0000461194814528   -0.0009160196179462    6.6472308011933654
   Mg   Na   Zr   Ca   H 
     9     9     9     9   216
Direct
  0.1586130566030590  0.1638355266899225  0.2537967137023713
  0.1676668534052084  0.4996884947681295  0.2564369272915314
  0.3278392223550739  0.3316020745289521  0.4982630847326988
  0.4998054012642470  0.5027368916768395  0.2547655540605547
  0.3382411572502662  0.9927757134276618  0.5011850544372791
  0.8359384589498617  0.4953082588528872  0.2553133213003917
  0.6674568960339329  0.6677514410095640  0.5009091845818574
  0.8348402260048928  0.8351739335373338  0.7479779756802287
  0.9941586816609700  0.0020707919347274  0.5021160091841992
  0.1624177642177216  0.1602252467492917  0.7407023232940375
  0.3270072284753027  0.6682807790414387  0.4996393154603425
  0.1658072916744757  0.8384991899918077  0.7458997066894000
  0.8356924510945021  0.1718363481891316  0.2515525645404111
  0.0020815105010925  0.3360302345612993  0.4995115719938781
  0.6706335509520329  0.9988031939014945  0.5004819416100119
  0.0037098834947784  0.6654659598930621  0.4976863539349807
  0.6717297638268818  0.9971998917980827  0.0000231024386537
  0.0013769292913963  0.9996836215911031  0.0039017609669969
  0.5004005692023696  0.1647538757302485  0.2531256224603027
  0.1633445227726682  0.4988287638059177  0.7398893370533983
  0.5015244025506931  0.1624599789416266  0.7458073429202230
  0.3259803580723357  0.3310618784606518  0.0013729184956830
  0.3339755192194716  0.6679399909234149  0.0003862651387934
  0.6736014195744744  0.3354244293842967  0.0019015651992476
  0.3258743208830381  0.9984806675687636  0.9977892875520311
  0.0006025922022417  0.3257468923414564  0.0026487545684404
  0.8348329400501271  0.8421483414488051  0.2553322371909417
  0.1629003131972269  0.8312927646545987  0.2539423157733509
  0.6660800213200915  0.3351770403736793  0.4994701609542389
  0.5010976115587127  0.5020628680797401  0.7482781984339226
  0.8395024525455241  0.1616224965473592  0.7471399401912677
  0.5034366623702695  0.8291754109436340  0.2536144351201770
  0.4992928230444136  0.8305161161051160  0.7441183845423538
  0.8354554812788706  0.5078667935157881  0.7495189837742586
  0.6686814673778656  0.6719747687933548  0.0057463910219653
  0.9968551865879292  0.6733166509561173  0.9980096634914659
  0.1595958823166370  0.0833751780640526  0.9955834150024714
  0.1484996768947155  0.0866306150441716  0.4955081993621206
  0.1636458038012591  0.4193801463239737  0.0069672495500157
  0.5109043778759954  0.0810948454228893  0.9999538729926272
  0.3243192595167130  0.2476243703259016  0.2718231513906630
  0.1678355200978672  0.4153609790750181  0.4874968169986929
  0.5031792595003921  0.0798029188175846  0.4969654438988087
  0.3230043659928228  0.2462817935447674  0.7282537804990881
  0.1653095079180744  0.7487550049263589  0.9846931171748636
  0.4980641290880286  0.4176872081892355  0.0097420042819323
  0.3385547792967358  0.5806860443072921  0.2558814903584832
  0.1630961765593426  0.7475486346996192  0.5140750888829189
  0.8340395068215898  0.0839524379049124  0.0092380553139009
  0.6717826009399559  0.2484327687030401  0.2533973132521083
  0.4870889740415336  0.4151264910480350  0.4936749275277066
  0.3333933125526514  0.5854366866779444  0.7331995687680504
  0.8414893114021851  0.0837308584826673  0.4868860699702751
  0.6726306724703619  0.2509157980321817  0.7487305779431424
  0.5009266226190476  0.7520484268781473  0.9969385326739584
  0.3339215352933635  0.9158630437231636  0.2555427842408875
  0.8378033907121818  0.4212583778957963  0.0089175931239751
  0.6859940480030389  0.5852278231542698  0.2553691504164703
  0.4906415469194485  0.7491334723230096  0.5006609109071718
  0.3317566943223369  0.9150213619263283  0.7412376069999738
  0.0023916949594636  0.2452566234469060  0.2751644720555291
  0.8375389631234782  0.4152865985948182  0.4963758828491365
  0.6674500969408115  0.5822859054339418  0.7480157529138936
  0.0065375451071645  0.2475896153566168  0.7292393754995103
  0.8334125339308969  0.7528553188324949  0.9994911012176075
  0.6653130346099729  0.9200561623392929  0.2575672857661289
  0.9824079293970058  0.5862704071800025  0.2521713422186309
  0.8429990672728849  0.7511527726826159  0.5037106261841160
  0.6635766454942242  0.9200358166817537  0.7430946921776425
  0.0009927901778397  0.5861955782727222  0.7409600512072672
  0.0011302716115793  0.9213090587753214  0.2567126979029482
  0.0091870465566757  0.9214415658397996  0.7385369830386352
  0.0861430097808906  0.1591987540129125  0.0023418674510296
  0.0822986738356448  0.1499709149179580  0.4980608168745775
  0.0818996602791913  0.5056705042384024  0.0268738113444016
  0.4137436147453784  0.1663163431155184  0.0021952609902200
  0.2481840540314977  0.3340973731393291  0.2603940385919472
  0.0789100326987224  0.5004300481036807  0.4785332486632896
  0.4121195136399862  0.1608378778021091  0.4955579828079379
  0.2494017761281455  0.3216692235516376  0.7372203675477422
  0.0866734646304650  0.8420486276141119  0.9904986454660047
  0.4197614131036005  0.4975696988138338  0.0149399306324227
  0.2498549333525517  0.6609480466481088  0.2597918002340691
  0.0828144680642708  0.8508676956445314  0.5071502316370058
  0.7517849034283799  0.1590001719696588  0.0041562395461057
  0.5819257122362060  0.3460094217849914  0.2522244021820654
  0.4186185738301447  0.5132251070645140  0.4933329419220200
  0.2441789660682971  0.6687350674576464  0.7385750352845690
  0.7457322107484572  0.1617013132252794  0.4917659345110650
  0.5817426128837226  0.3342825562830711  0.7495672557742594
  0.4181044501670073  0.8334567503049470  0.9996561312825918
  0.2462395355540963  0.0014838616948225  0.2834357637913669
  0.7527950247302471  0.5052484390659302  0.0121199974290107
  0.5849203210479033  0.6560487547000093  0.2657049577868591
  0.4196978433945091  0.8204148408293221  0.4974901524061934
  0.2438853040635252  0.0030758078811317  0.7187665570427626
  0.9174582076251028  0.3370554226499110  0.2581767046724792
  0.7500771503016779  0.5041390262698968  0.4922472640115032
  0.5857115836805420  0.6698542118723552  0.7444361586964376
  0.9174299489766540  0.3355057504738923  0.7426589148719600
  0.7467382373024591  0.8393048780328556  0.9759107069242177
  0.5867345681813276  0.9967851071585443  0.2511378546877339
  0.9184785460002658  0.6519827923560229  0.2571921042358838
  0.7480529274911305  0.8334996647577810  0.5204017119765183
  0.5902420782786919  0.9883131990461962  0.7499837668820319
  0.9181040700876864  0.6749086557590189  0.7331821826666243
  0.9165657906111946  0.0152151544441992  0.2436354868407236
  0.9153644635302882  0.9929241952809704  0.7611568240223008
  0.1616720033966885  0.0043142739769948  0.1290236404941325
  0.1761930166537766  0.0000903707747213  0.6190533994170266
  0.1654591104166769  0.3238677586047416  0.1346801152745911
  0.5038180241307799  0.9976133735155770  0.1212782633247187
  0.3213539889888750  0.1609467956199140  0.3783655313023928
  0.1637578732484855  0.3193406829571686  0.6175595374034089
  0.5008245500102291  0.9957259385012520  0.6206413130101325
  0.3226940736073658  0.1648517634097502  0.8658519926943669
  0.1620484660845065  0.6597981105913036  0.1292602572533639
  0.4971298962642194  0.3348667001517143  0.1274898274437817
  0.3290251105092352  0.4995685905169580  0.3760892224660140
  0.1665017802543716  0.6826679743103057  0.6131641127978398
  0.8396341709175630  0.0078442411349897  0.1203181700825837
  0.6788454633986518  0.1642896686562239  0.3792459902731835
  0.4927167278680855  0.3347387520140757  0.6228088851630531
  0.3293961773042611  0.4976871407402683  0.8723689969892945
  0.8363814138644798  0.9896161962764154  0.6262027386014779
  0.6702499291837825  0.1561715539550903  0.8755564598488164
  0.5010176593448961  0.6613907667244021  0.1283940081785246
  0.3310395801665891  0.8296096660387491  0.3757630524873363
  0.8372490748465466  0.3324589239234967  0.1311646114336682
  0.6666031447434406  0.5016018844786245  0.3777825972363758
  0.5042393182115106  0.6644195372861574  0.6182016764604441
  0.3234729013047541  0.8346417535477286  0.8691142495552953
  0.9991148567950532  0.1759108748781131  0.3728002939859394
  0.8373575376346380  0.3386907197846227  0.6249762156362308
  0.6688975175283360  0.5085572224061394  0.8755556092162919
  0.0067484333269121  0.1483381985660870  0.8683904253467958
  0.8342744953132524  0.6707429971199019  0.1272052871226066
  0.6691733529915354  0.8342608743588116  0.3802971835885245
  0.0090706975293529  0.4961374814907273  0.3728465816095365
  0.8304269117054091  0.6748699462847298  0.6253545433292516
  0.6841692310429011  0.8371575105332809  0.8731375144881284
  0.0031692181578649  0.5025878184415333  0.8770724639205980
  0.9981726666108699  0.8291570325845541  0.3773936357945047
  0.9873606559561878  0.8427758435874182  0.8726066468434794
  0.0832372195527213  0.0042542698778973  0.2629244553684416
  0.0819618391152090  0.9907136789763342  0.7481987573813171
  0.0827021143684021  0.3371453235104482  0.2585506152487866
  0.4162960280890360  0.9983253498882974  0.2620403876361692
  0.2493407914302352  0.1509706655408465  0.4953128687170150
  0.0844635227120776  0.3221240140423234  0.7398738390811701
  0.4174586839100911  0.9986179922931200  0.7392308192043657
  0.2445128048647618  0.1635570249394007  0.9919245510511203
  0.0843895394229648  0.6595249946823074  0.2491772974820563
  0.4168036266874466  0.3388596913650588  0.2546863830959509
  0.2554380662599556  0.4987402651891699  0.4835885445027372
  0.0795334207357712  0.6854136797355039  0.7471569412724719
  0.7489445603317577  0.0150855586552012  0.2526970865750329
  0.5862656411288256  0.1583268663665791  0.4973932309391600
  0.4127047606561973  0.3349017692216023  0.7439523804328729
  0.2484957184398908  0.5000372625530787  0.0272518291645767
  0.7490107916597708  0.9989860590918340  0.7471767769878213
  0.5861496227280583  0.1608778234344896  0.0013513795033333
  0.4184283097178110  0.6607739975302067  0.2740192715283953
  0.2509911935668043  0.8423810911045706  0.5034829714754849
  0.7511218802754200  0.3338076976159172  0.2556987925709748
  0.5843795709558179  0.5110330420734428  0.4839013424568179
  0.4138131002812884  0.6635752927562777  0.7342874397039694
  0.2475318714481674  0.8336052723420693  0.9925823255272874
  0.9104205449919078  0.1797587177128221  0.4921812456180703
  0.7528934267270344  0.3300193964275238  0.7441938754189010
  0.5827493227350544  0.5047671585920597  0.0168609670079150
  0.9178752779771884  0.1598224783823241  0.0118217649836367
  0.7516877635033694  0.6551499965387606  0.2620296119280781
  0.5857213770634644  0.8292231168297803  0.5000953415750118
  0.9154714972203450  0.5055997560452781  0.4938471400644531
  0.7516189862053864  0.6759714308664968  0.7384970854361086
  0.5827988355027074  0.8391429166019719  0.9994643244745873
  0.9199883103986082  0.4973881485923428  0.0138296930694395
  0.9190166458899824  0.8233476754362457  0.5220271015577964
  0.9230190484838445  0.8416806675408708  0.9738943893278531
  0.9963210892534278  0.1582689268928164  0.1247296305158017
  0.0033096198275473  0.1693485526102307  0.6223859917012788
  0.0147503675115104  0.5079570550365275  0.1279745120190654
  0.3160976721384259  0.1653125072277959  0.1303034981666471
  0.1633170723391189  0.3320414607386013  0.3768026558715434
  0.9982909031709752  0.4997403039596833  0.6200751776104667
  0.3217742026295340  0.1599703325955346  0.6170928204178381
  0.1649499939872356  0.3206415442662021  0.8654703641787336
  0.9955795963017948  0.8429513130031907  0.1251368397193318
  0.3261516848855166  0.4996090265029380  0.1296572782494678
  0.1698878966973183  0.6557728637367930  0.3727269943763076
  0.9919407103004474  0.8384410853424100  0.6282474791322485
  0.6720093625647507  0.1592265560107009  0.1246445607465247
  0.4928026536482903  0.3417464893106299  0.3771034328778100
  0.3334881135010690  0.4995770906388159  0.6231758752717340
  0.1632133787083774  0.6755130584784297  0.8711051091130102
  0.6718399755020172  0.1612394328895945  0.6226710953649004
  0.4975679114637472  0.3335240981037444  0.8751909179876947
  0.3326894900990780  0.8349887355498709  0.1292921897525332
  0.1778886091067307  0.0001548671324514  0.3786033646110525
  0.6666191865986306  0.5048908169820123  0.1304651801511767
  0.4898998893812774  0.6622671573618106  0.3731284637339272
  0.3226285921252341  0.8314762129121576  0.6261429884602805
  0.1570208353835270  0.0006393951863970  0.8694493387601696
  0.8386028393077680  0.3395644995513649  0.3778853457677585
  0.6689925198507538  0.5104258216483615  0.6246142032719604
  0.5052241103402437  0.6661200058663326  0.8745567447875899
  0.8375580875743509  0.3363492591640096  0.8696532404869615
  0.6722924626111322  0.8411047294553242  0.1247137610268894
  0.4992083818991659  0.9970571841406297  0.3738049943038320
  0.8334037919081112  0.6669903560050372  0.3849603031094730
  0.6797412031437915  0.8310229470256942  0.6250952498225004
  0.5066305066539627  0.9971439039165020  0.8770398863356874
  0.8305987546156928  0.6822923362783229  0.8725660180092163
  0.8364982523120972  0.0137270626588091  0.3805624138351504
  0.8433838676382592  0.9881596004052966  0.8742281540203578
  0.9928726373383512  0.0833517352481508  0.2538737610648170
  0.0039214542609471  0.0850128207247280  0.7620708958164784
  0.0056484716514760  0.4155981899696428  0.2591945065037180
  0.3238971314762793  0.0839723274569124  0.2565371743827640
  0.1656998503824099  0.2512544641383627  0.4932730254821749
  0.9981684181219848  0.4160290682608334  0.7382239335363892
  0.3239575552113934  0.0827056551627692  0.7409106119460134
  0.1642957798896205  0.2449504415285233  0.9890105451413334
  0.9961378102496212  0.7503014446901872  0.2676479651186270
  0.3366195460891035  0.4147444828822273  0.2599657777064053
  0.1690065398379090  0.5827828171047997  0.4931749504587373
  0.0126243562186943  0.7496317587456929  0.7371710576377239
  0.6816342852349635  0.0807522731367314  0.2421626520003457
  0.4905041125628671  0.2530465017921628  0.4954963413285540
  0.3357516644790977  0.4136851060585798  0.7319766062488995
  0.1656072140473555  0.5832554243311989  0.9973634858042928
  0.6765688952917799  0.0795141967604920  0.7573968317471440
  0.5009080101006447  0.2515021871699972  0.0031760656475086
  0.3318457552751326  0.7509492319034834  0.2645107504769726
  0.1496729885938564  0.9130313001368080  0.5067434719725412
  0.6634250748642216  0.4226788455063897  0.2570954508610868
  0.4861712425144802  0.5802021388965670  0.4966556204690065
  0.3248000707248124  0.7524869849891189  0.7333165628740801
  0.1547129706758810  0.9135380361370835  0.9915182226379926
  0.8478533300773847  0.2481246651858342  0.4931471079093726
  0.6676214494461306  0.4190838622886162  0.7466103818020926
  0.5027729365311018  0.5806811579587716  0.0102271570362120
  0.8347416122437323  0.2449037763350432  0.0063156251785657
  0.6743032945685243  0.7483655128363722  0.2684528658835532
  0.5049614935006232  0.9171010345123065  0.5004980921987467
  0.8386806991266482  0.5863308529015754  0.4852296784757755
  0.6661579936559576  0.7477437412399084  0.7435487083469710
  0.5057914559568246  0.9187076190800028  0.9970764301872137
  0.8327155105395931  0.5856458852084572  0.0232379611801150
  0.8352581993499726  0.9206320201803777  0.5144465005643752
  0.8347646510680775  0.9229034832521208  0.9987649673323560
 
  0.00000000E+00  0.00000000E+00  0.00000000E+00
  0.00000000E+00  0.00000000E+00  0.00000000E+00
  0.00000000E+00  0.00000000E+00  0.00000000E+00
  0.00000000E+00  0.00000000E+00  0.00000000E+00
  0.00000000E+00  0.00000000E+00  0.00000000E+00
  0.00000000E+00  0.00000000E+00  0.00000000E+00
  0.00000000E+00  0.00000000E+00  0.00000000E+00
  0.00000000E+00  0.00000000E+00  0.00000000E+00
  0.00000000E+00  0.00000000E+00  0.00000000E+00
  0.00000000E+00  0.00000000E+00  0.00000000E+00
  0.00000000E+00  0.00000000E+00  0.00000000E+00
  0.00000000E+00  0.00000000E+00  0.00000000E+00
  0.00000000E+00  0.00000000E+00  0.00000000E+00
  0.00000000E+00  0.00000000E+00  0.00000000E+00
  0.00000000E+00  0.00000000E+00  0.00000000E+00
  0.00000000E+00  0.00000000E+00  0.00000000E+00
  0.00000000E+00  0.00000000E+00  0.00000000E+00
  0.00000000E+00  0.00000000E+00  0.00000000E+00
  0.00000000E+00  0.00000000E+00  0.00000000E+00
  0.00000000E+00  0.00000000E+00  0.00000000E+00
  0.00000000E+00  0.00000000E+00  0.00000000E+00
  0.00000000E+00  0.00000000E+00  0.00000000E+00
  0.00000000E+00  0.00000000E+00  0.00000000E+00
  0.00000000E+00  0.00000000E+00  0.00000000E+00
  0.00000000E+00  0.00000000E+00  0.00000000E+00
  0.00000000E+00  0.00000000E+00  0.00000000E+00
  0.00000000E+00  0.00000000E+00  0.00000000E+00
  0.00000000E+00  0.00000000E+00  0.00000000E+00
  0.00000000E+00  0.00000000E+00  0.00000000E+00
  0.00000000E+00  0.00000000E+00  0.00000000E+00
  0.00000000E+00  0.00000000E+00  0.00000000E+00
  0.00000000E+00  0.00000000E+00  0.00000000E+00
  0.00000000E+00  0.00000000E+00  0.00000000E+00
  0.00000000E+00  0.00000000E+00  0.00000000E+00
  0.00000000E+00  0.00000000E+00  0.00000000E+00
  0.00000000E+00  0.00000000E+00  0.00000000E+00
  0.00000000E+00  0.00000000E+00  0.00000000E+00
  0.00000000E+00  0.00000000E+00  0.00000000E+00
  0.00000000E+00  0.00000000E+00  0.00000000E+00
  0.00000000E+00  0.00000000E+00  0.00000000E+00
  0.00000000E+00  0.00000000E+00  0.00000000E+00
  0.00000000E+00  0.00000000E+00  0.00000000E+00
  0.00000000E+00  0.00000000E+00  0.00000000E+00
  0.00000000E+00  0.00000000E+00  0.00000000E+00
  0.00000000E+00  0.00000000E+00  0.00000000E+00
  0.00000000E+00  0.00000000E+00  0.00000000E+00
  0.00000000E+00  0.00000000E+00  0.00000000E+00
  0.00000000E+00  0.00000000E+00  0.00000000E+00
  0.00000000E+00  0.00000000E+00  0.00000000E+00
  0.00000000E+00  0.00000000E+00  0.00000000E+00
  0.00000000E+00  0.00000000E+00  0.00000000E+00
  0.00000000E+00  0.00000000E+00  0.00000000E+00
  0.00000000E+00  0.00000000E+00  0.00000000E+00
  0.00000000E+00  0.00000000E+00  0.00000000E+00
  0.00000000E+00  0.00000000E+00  0.00000000E+00
  0.00000000E+00  0.00000000E+00  0.00000000E+00
  0.00000000E+00  0.00000000E+00  0.00000000E+00
  0.00000000E+00  0.00000000E+00  0.00000000E+00
  0.00000000E+00  0.00000000E+00  0.00000000E+00
  0.00000000E+00  0.00000000E+00  0.00000000E+00
  0.00000000E+00  0.00000000E+00  0.00000000E+00
  0.00000000E+00  0.00000000E+00  0.00000000E+00
  0.00000000E+00  0.00000000E+00  0.00000000E+00
  0.00000000E+00  0.00000000E+00  0.00000000E+00
  0.00000000E+00  0.00000000E+00  0.00000000E+00
  0.00000000E+00  0.00000000E+00  0.00000000E+00
  0.00000000E+00  0.00000000E+00  0.00000000E+00
  0.00000000E+00  0.00000000E+00  0.00000000E+00
  0.00000000E+00  0.00000000E+00  0.00000000E+00
  0.00000000E+00  0.00000000E+00  0.00000000E+00
  0.00000000E+00  0.00000000E+00  0.00000000E+00
  0.00000000E+00  0.00000000E+00  0.00000000E+00
  0.00000000E+00  0.00000000E+00  0.00000000E+00
  0.00000000E+00  0.00000000E+00  0.00000000E+00
  0.00000000E+00  0.00000000E+00  0.00000000E+00
  0.00000000E+00  0.00000000E+00  0.00000000E+00
  0.00000000E+00  0.00000000E+00  0.00000000E+00
  0.00000000E+00  0.00000000E+00  0.00000000E+00
  0.00000000E+00  0.00000000E+00  0.00000000E+00
  0.00000000E+00  0.00000000E+00  0.00000000E+00
  0.00000000E+00  0.00000000E+00  0.00000000E+00
  0.00000000E+00  0.00000000E+00  0.00000000E+00
  0.00000000E+00  0.00000000E+00  0.00000000E+00
  0.00000000E+00  0.00000000E+00  0.00000000E+00
  0.00000000E+00  0.00000000E+00  0.00000000E+00
  0.00000000E+00  0.00000000E+00  0.00000000E+00
  0.00000000E+00  0.00000000E+00  0.00000000E+00
  0.00000000E+00  0.00000000E+00  0.00000000E+00
  0.00000000E+00  0.00000000E+00  0.00000000E+00
  0.00000000E+00  0.00000000E+00  0.00000000E+00
  0.00000000E+00  0.00000000E+00  0.00000000E+00
  0.00000000E+00  0.00000000E+00  0.00000000E+00
  0.00000000E+00  0.00000000E+00  0.00000000E+00
  0.00000000E+00  0.00000000E+00  0.00000000E+00
  0.00000000E+00  0.00000000E+00  0.00000000E+00
  0.00000000E+00  0.00000000E+00  0.00000000E+00
  0.00000000E+00  0.00000000E+00  0.00000000E+00
  0.00000000E+00  0.00000000E+00  0.00000000E+00
  0.00000000E+00  0.00000000E+00  0.00000000E+00
  0.00000000E+00  0.00000000E+00  0.00000000E+00
  0.00000000E+00  0.00000000E+00  0.00000000E+00
  0.00000000E+00  0.00000000E+00  0.00000000E+00
  0.00000000E+00  0.00000000E+00  0.00000000E+00
  0.00000000E+00  0.00000000E+00  0.00000000E+00
  0.00000000E+00  0.00000000E+00  0.00000000E+00
  0.00000000E+00  0.00000000E+00  0.00000000E+00
  0.00000000E+00  0.00000000E+00  0.00000000E+00
  0.00000000E+00  0.00000000E+00  0.00000000E+00
  0.00000000E+00  0.00000000E+00  0.00000000E+00
  0.00000000E+00  0.00000000E+00  0.00000000E+00
  0.00000000E+00  0.00000000E+00  0.00000000E+00
  0.00000000E+00  0.00000000E+00  0.00000000E+00
  0.00000000E+00  0.00000000E+00  0.00000000E+00
  0.00000000E+00  0.00000000E+00  0.00000000E+00
  0.00000000E+00  0.00000000E+00  0.00000000E+00
  0.00000000E+00  0.00000000E+00  0.00000000E+00
  0.00000000E+00  0.00000000E+00  0.00000000E+00
  0.00000000E+00  0.00000000E+00  0.00000000E+00
  0.00000000E+00  0.00000000E+00  0.00000000E+00
  0.00000000E+00  0.00000000E+00  0.00000000E+00
  0.00000000E+00  0.00000000E+00  0.00000000E+00
  0.00000000E+00  0.00000000E+00  0.00000000E+00
  0.00000000E+00  0.00000000E+00  0.00000000E+00
  0.00000000E+00  0.00000000E+00  0.00000000E+00
  0.00000000E+00  0.00000000E+00  0.00000000E+00
  0.00000000E+00  0.00000000E+00  0.00000000E+00
  0.00000000E+00  0.00000000E+00  0.00000000E+00
  0.00000000E+00  0.00000000E+00  0.00000000E+00
  0.00000000E+00  0.00000000E+00  0.00000000E+00
  0.00000000E+00  0.00000000E+00  0.00000000E+00
  0.00000000E+00  0.00000000E+00  0.00000000E+00
  0.00000000E+00  0.00000000E+00  0.00000000E+00
  0.00000000E+00  0.00000000E+00  0.00000000E+00
  0.00000000E+00  0.00000000E+00  0.00000000E+00
  0.00000000E+00  0.00000000E+00  0.00000000E+00
  0.00000000E+00  0.00000000E+00  0.00000000E+00
  0.00000000E+00  0.00000000E+00  0.00000000E+00
  0.00000000E+00  0.00000000E+00  0.00000000E+00
  0.00000000E+00  0.00000000E+00  0.00000000E+00
  0.00000000E+00  0.00000000E+00  0.00000000E+00
  0.00000000E+00  0.00000000E+00  0.00000000E+00
  0.00000000E+00  0.00000000E+00  0.00000000E+00
  0.00000000E+00  0.00000000E+00  0.00000000E+00
  0.00000000E+00  0.00000000E+00  0.00000000E+00
  0.00000000E+00  0.00000000E+00  0.00000000E+00
  0.00000000E+00  0.00000000E+00  0.00000000E+00
  0.00000000E+00  0.00000000E+00  0.00000000E+00
  0.00000000E+00  0.00000000E+00  0.00000000E+00
  0.00000000E+00  0.00000000E+00  0.00000000E+00
  0.00000000E+00  0.00000000E+00  0.00000000E+00
  0.00000000E+00  0.00000000E+00  0.00000000E+00
  0.00000000E+00  0.00000000E+00  0.00000000E+00
  0.00000000E+00  0.00000000E+00  0.00000000E+00
  0.00000000E+00  0.00000000E+00  0.00000000E+00
  0.00000000E+00  0.00000000E+00  0.00000000E+00
  0.00000000E+00  0.00000000E+00  0.00000000E+00
  0.00000000E+00  0.00000000E+00  0.00000000E+00
  0.00000000E+00  0.00000000E+00  0.00000000E+00
  0.00000000E+00  0.00000000E+00  0.00000000E+00
  0.00000000E+00  0.00000000E+00  0.00000000E+00
  0.00000000E+00  0.00000000E+00  0.00000000E+00
  0.00000000E+00  0.00000000E+00  0.00000000E+00
  0.00000000E+00  0.00000000E+00  0.00000000E+00
  0.00000000E+00  0.00000000E+00  0.00000000E+00
  0.00000000E+00  0.00000000E+00  0.00000000E+00
  0.00000000E+00  0.00000000E+00  0.00000000E+00
  0.00000000E+00  0.00000000E+00  0.00000000E+00
  0.00000000E+00  0.00000000E+00  0.00000000E+00
  0.00000000E+00  0.00000000E+00  0.00000000E+00
  0.00000000E+00  0.00000000E+00  0.00000000E+00
  0.00000000E+00  0.00000000E+00  0.00000000E+00
  0.00000000E+00  0.00000000E+00  0.00000000E+00
  0.00000000E+00  0.00000000E+00  0.00000000E+00
  0.00000000E+00  0.00000000E+00  0.00000000E+00
  0.00000000E+00  0.00000000E+00  0.00000000E+00
  0.00000000E+00  0.00000000E+00  0.00000000E+00
  0.00000000E+00  0.00000000E+00  0.00000000E+00
  0.00000000E+00  0.00000000E+00  0.00000000E+00
  0.00000000E+00  0.00000000E+00  0.00000000E+00
  0.00000000E+00  0.00000000E+00  0.00000000E+00
  0.00000000E+00  0.00000000E+00  0.00000000E+00
  0.00000000E+00  0.00000000E+00  0.00000000E+00
  0.00000000E+00  0.00000000E+00  0.00000000E+00
  0.00000000E+00  0.00000000E+00  0.00000000E+00
  0.00000000E+00  0.00000000E+00  0.00000000E+00
  0.00000000E+00  0.00000000E+00  0.00000000E+00
  0.00000000E+00  0.00000000E+00  0.00000000E+00
  0.00000000E+00  0.00000000E+00  0.00000000E+00
  0.00000000E+00  0.00000000E+00  0.00000000E+00
  0.00000000E+00  0.00000000E+00  0.00000000E+00
  0.00000000E+00  0.00000000E+00  0.00000000E+00
  0.00000000E+00  0.00000000E+00  0.00000000E+00
  0.00000000E+00  0.00000000E+00  0.00000000E+00
  0.00000000E+00  0.00000000E+00  0.00000000E+00
  0.00000000E+00  0.00000000E+00  0.00000000E+00
  0.00000000E+00  0.00000000E+00  0.00000000E+00
  0.00000000E+00  0.00000000E+00  0.00000000E+00
  0.00000000E+00  0.00000000E+00  0.00000000E+00
  0.00000000E+00  0.00000000E+00  0.00000000E+00
  0.00000000E+00  0.00000000E+00  0.00000000E+00
  0.00000000E+00  0.00000000E+00  0.00000000E+00
  0.00000000E+00  0.00000000E+00  0.00000000E+00
  0.00000000E+00  0.00000000E+00  0.00000000E+00
  0.00000000E+00  0.00000000E+00  0.00000000E+00
  0.00000000E+00  0.00000000E+00  0.00000000E+00
  0.00000000E+00  0.00000000E+00  0.00000000E+00
  0.00000000E+00  0.00000000E+00  0.00000000E+00
  0.00000000E+00  0.00000000E+00  0.00000000E+00
  0.00000000E+00  0.00000000E+00  0.00000000E+00
  0.00000000E+00  0.00000000E+00  0.00000000E+00
  0.00000000E+00  0.00000000E+00  0.00000000E+00
  0.00000000E+00  0.00000000E+00  0.00000000E+00
  0.00000000E+00  0.00000000E+00  0.00000000E+00
  0.00000000E+00  0.00000000E+00  0.00000000E+00
  0.00000000E+00  0.00000000E+00  0.00000000E+00
  0.00000000E+00  0.00000000E+00  0.00000000E+00
  0.00000000E+00  0.00000000E+00  0.00000000E+00
  0.00000000E+00  0.00000000E+00  0.00000000E+00
  0.00000000E+00  0.00000000E+00  0.00000000E+00
  0.00000000E+00  0.00000000E+00  0.00000000E+00
  0.00000000E+00  0.00000000E+00  0.00000000E+00
  0.00000000E+00  0.00000000E+00  0.00000000E+00
  0.00000000E+00  0.00000000E+00  0.00000000E+00
  0.00000000E+00  0.00000000E+00  0.00000000E+00
  0.00000000E+00  0.00000000E+00  0.00000000E+00
  0.00000000E+00  0.00000000E+00  0.00000000E+00
  0.00000000E+00  0.00000000E+00  0.00000000E+00
  0.00000000E+00  0.00000000E+00  0.00000000E+00
  0.00000000E+00  0.00000000E+00  0.00000000E+00
  0.00000000E+00  0.00000000E+00  0.00000000E+00
  0.00000000E+00  0.00000000E+00  0.00000000E+00
  0.00000000E+00  0.00000000E+00  0.00000000E+00
  0.00000000E+00  0.00000000E+00  0.00000000E+00
  0.00000000E+00  0.00000000E+00  0.00000000E+00
  0.00000000E+00  0.00000000E+00  0.00000000E+00
  0.00000000E+00  0.00000000E+00  0.00000000E+00
  0.00000000E+00  0.00000000E+00  0.00000000E+00
  0.00000000E+00  0.00000000E+00  0.00000000E+00
  0.00000000E+00  0.00000000E+00  0.00000000E+00
  0.00000000E+00  0.00000000E+00  0.00000000E+00
  0.00000000E+00  0.00000000E+00  0.00000000E+00
  0.00000000E+00  0.00000000E+00  0.00000000E+00
  0.00000000E+00  0.00000000E+00  0.00000000E+00
  0.00000000E+00  0.00000000E+00  0.00000000E+00
  0.00000000E+00  0.00000000E+00  0.00000000E+00
  0.00000000E+00  0.00000000E+00  0.00000000E+00
  0.00000000E+00  0.00000000E+00  0.00000000E+00
  0.00000000E+00  0.00000000E+00  0.00000000E+00
  0.00000000E+00  0.00000000E+00  0.00000000E+00
  0.00000000E+00  0.00000000E+00  0.00000000E+00
  0.00000000E+00  0.00000000E+00  0.00000000E+00
  0.00000000E+00  0.00000000E+00  0.00000000E+00
