       N       E                     dE             d eps       ncg     rms          rms(c)
DAV:   1     0.134639291352E+05    0.13464E+05   -0.25150E+05 15968   0.239E+03
DAV:   2     0.228437953333E+04   -0.11180E+05   -0.10487E+05 15960   0.797E+02
DAV:   3    -0.465597786070E+03   -0.27500E+04   -0.25116E+04 20528   0.408E+02
DAV:   4    -0.870544310008E+03   -0.40495E+03   -0.38357E+03 26824   0.216E+02
DAV:   5    -0.896162762649E+03   -0.25618E+02   -0.24957E+02 26560   0.683E+01    0.196E+02
DAV:   6    -0.691236670612E+03    0.20493E+03   -0.25845E+02 28448   0.738E+01    0.842E+01
DAV:   7    -0.693334815946E+03   -0.20981E+01   -0.26936E+02 27168   0.386E+01    0.409E+01
DAV:   8    -0.691897837464E+03    0.14370E+01   -0.23723E+01 27032   0.179E+01    0.142E+01
DAV:   9    -0.691525054300E+03    0.37278E+00   -0.29962E+00 26344   0.680E+00    0.755E+00
DAV:  10    -0.691464013474E+03    0.61041E-01   -0.48751E-01 26440   0.290E+00    0.611E+00
DAV:  11    -0.691440469617E+03    0.23544E-01   -0.17499E-01 27112   0.166E+00    0.157E+00
DAV:  12    -0.691438083224E+03    0.23864E-02   -0.48336E-02 26632   0.831E-01    0.397E-01
DAV:  13    -0.691437852343E+03    0.23088E-03   -0.71475E-03 25832   0.316E-01    0.191E-01
DAV:  14    -0.691437879260E+03   -0.26917E-04   -0.78320E-04 26736   0.974E-02    0.139E-01
DAV:  15    -0.691437892482E+03   -0.13222E-04   -0.92630E-05 30160   0.518E-02    0.600E-02
DAV:  16    -0.691437882025E+03    0.10457E-04   -0.34084E-05 26880   0.235E-02    0.378E-02
DAV:  17    -0.691437876889E+03    0.51356E-05   -0.65621E-06 19904   0.136E-02    0.122E-02
DAV:  18    -0.691437876872E+03    0.17171E-07   -0.13425E-06 15072   0.622E-03
   1 F= 0.14258684E+03 E0= 0.14258587E+03  d E =0.142587E+03
