generated by phonopy                    
   1.00000000000000     
     0.0000000000000000    3.1930386327128835    3.1930386327129692
     3.1930386327129181    0.0000000000000000    3.1930386327129692
     3.1930386327129181    3.1930386327128835    0.0000000000000000
   Na   K    Mg   Zr   H 
     1     1     1     1    24
Direct
  0.2500000000000000  0.2500000000000000  0.2500000000000000
  0.7500000000000000  0.7500000000000000  0.7500000000000000
  0.0000000000000000  0.0000000000000000  0.0000000000000000
  0.5000000000000000  0.5000000000000000  0.5000000000000000
  0.1173681607246948  0.8974902144842218  0.6257099055805710
  0.8974902144842218  0.1173681607246948  0.3594317192105123
  0.6257099055805710  0.3594317192105123  0.1173681607246948
  0.3594317192105123  0.6257099055805710  0.8974902144842218
  0.6257099055805710  0.1173681607246948  0.8974902144842218
  0.3594317192105123  0.8974902144842218  0.1173681607246948
  0.1173681607246948  0.6257099055805710  0.3594317192105123
  0.8974902144842218  0.3594317192105123  0.6257099055805710
  0.8974902144842218  0.6257099055805710  0.1173681607246948
  0.1173681607246948  0.3594317192105123  0.8974902144842218
  0.3594317192105123  0.1173681607246948  0.6257099055805710
  0.6257099055805710  0.8974902144842218  0.3594317192105123
  0.1173681607246948  0.3594317192105123  0.6257099055805710
  0.3594317192105123  0.1173681607246948  0.8974902144842218
  0.6257099055805710  0.8974902144842218  0.1173681607246948
  0.8974902144842218  0.6257099055805710  0.3594317192105123
  0.6257099055805710  0.1173681607246948  0.3594317192105123
  0.8974902144842218  0.3594317192105123  0.1173681607246948
  0.1173681607246948  0.6257099055805710  0.8974902144842218
  0.3594317192105123  0.8974902144842218  0.6257099055805710
  0.3594317192105123  0.6257099055805710  0.1173681607246948
  0.1173681607246948  0.8974902144842218  0.3594317192105123
  0.8974902144842218  0.1173681607246948  0.6257099055805710
  0.6257099055805710  0.3594317192105123  0.8974902144842218
 
  0.00000000E+00  0.00000000E+00  0.00000000E+00
  0.00000000E+00  0.00000000E+00  0.00000000E+00
  0.00000000E+00  0.00000000E+00  0.00000000E+00
  0.00000000E+00  0.00000000E+00  0.00000000E+00
  0.00000000E+00  0.00000000E+00  0.00000000E+00
  0.00000000E+00  0.00000000E+00  0.00000000E+00
  0.00000000E+00  0.00000000E+00  0.00000000E+00
  0.00000000E+00  0.00000000E+00  0.00000000E+00
  0.00000000E+00  0.00000000E+00  0.00000000E+00
  0.00000000E+00  0.00000000E+00  0.00000000E+00
  0.00000000E+00  0.00000000E+00  0.00000000E+00
  0.00000000E+00  0.00000000E+00  0.00000000E+00
  0.00000000E+00  0.00000000E+00  0.00000000E+00
  0.00000000E+00  0.00000000E+00  0.00000000E+00
  0.00000000E+00  0.00000000E+00  0.00000000E+00
  0.00000000E+00  0.00000000E+00  0.00000000E+00
  0.00000000E+00  0.00000000E+00  0.00000000E+00
  0.00000000E+00  0.00000000E+00  0.00000000E+00
  0.00000000E+00  0.00000000E+00  0.00000000E+00
  0.00000000E+00  0.00000000E+00  0.00000000E+00
  0.00000000E+00  0.00000000E+00  0.00000000E+00
  0.00000000E+00  0.00000000E+00  0.00000000E+00
  0.00000000E+00  0.00000000E+00  0.00000000E+00
  0.00000000E+00  0.00000000E+00  0.00000000E+00
  0.00000000E+00  0.00000000E+00  0.00000000E+00
  0.00000000E+00  0.00000000E+00  0.00000000E+00
  0.00000000E+00  0.00000000E+00  0.00000000E+00
  0.00000000E+00  0.00000000E+00  0.00000000E+00
