generated by phonopy                    
   1.00000000000000     
     0.0000000000000000    3.3096997939154416    3.3096997939155330
     3.3096997939154833    0.0000000000000000    3.3096997939155330
     3.3096997939154833    3.3096997939154416    0.0000000000000000
   Ca   Zr   Sc   Ce   H 
     1     1     1     1    24
Direct
  0.2500000000000000  0.2500000000000000  0.2500000000000000
  0.7500000000000000  0.7500000000000000  0.7500000000000000
  0.0000000000000000  0.0000000000000000  0.0000000000000000
  0.5000000000000000  0.5000000000000000  0.5000000000000000
  0.1243073209940491  0.8848478947540386  0.6312741572713492
  0.8848478947540386  0.1243073209940491  0.3595706269805561
  0.6312741572713492  0.3595706269805561  0.1243073209940491
  0.3595706269805561  0.6312741572713492  0.8848478947540386
  0.6312741572713492  0.1243073209940491  0.8848478947540386
  0.3595706269805561  0.8848478947540386  0.1243073209940491
  0.1243073209940491  0.6312741572713492  0.3595706269805561
  0.8848478947540386  0.3595706269805561  0.6312741572713492
  0.8848478947540386  0.6312741572713492  0.1243073209940491
  0.1243073209940491  0.3595706269805561  0.8848478947540386
  0.3595706269805561  0.1243073209940491  0.6312741572713492
  0.6312741572713492  0.8848478947540386  0.3595706269805561
  0.1243073209940491  0.3595706269805561  0.6312741572713492
  0.3595706269805561  0.1243073209940491  0.8848478947540386
  0.6312741572713492  0.8848478947540386  0.1243073209940491
  0.8848478947540386  0.6312741572713492  0.3595706269805561
  0.6312741572713492  0.1243073209940491  0.3595706269805561
  0.8848478947540386  0.3595706269805561  0.1243073209940491
  0.1243073209940491  0.6312741572713492  0.8848478947540386
  0.3595706269805561  0.8848478947540386  0.6312741572713492
  0.3595706269805561  0.6312741572713492  0.1243073209940491
  0.1243073209940491  0.8848478947540386  0.3595706269805561
  0.8848478947540386  0.1243073209940491  0.6312741572713492
  0.6312741572713492  0.3595706269805561  0.8848478947540386
 
  0.00000000E+00  0.00000000E+00  0.00000000E+00
  0.00000000E+00  0.00000000E+00  0.00000000E+00
  0.00000000E+00  0.00000000E+00  0.00000000E+00
  0.00000000E+00  0.00000000E+00  0.00000000E+00
  0.00000000E+00  0.00000000E+00  0.00000000E+00
  0.00000000E+00  0.00000000E+00  0.00000000E+00
  0.00000000E+00  0.00000000E+00  0.00000000E+00
  0.00000000E+00  0.00000000E+00  0.00000000E+00
  0.00000000E+00  0.00000000E+00  0.00000000E+00
  0.00000000E+00  0.00000000E+00  0.00000000E+00
  0.00000000E+00  0.00000000E+00  0.00000000E+00
  0.00000000E+00  0.00000000E+00  0.00000000E+00
  0.00000000E+00  0.00000000E+00  0.00000000E+00
  0.00000000E+00  0.00000000E+00  0.00000000E+00
  0.00000000E+00  0.00000000E+00  0.00000000E+00
  0.00000000E+00  0.00000000E+00  0.00000000E+00
  0.00000000E+00  0.00000000E+00  0.00000000E+00
  0.00000000E+00  0.00000000E+00  0.00000000E+00
  0.00000000E+00  0.00000000E+00  0.00000000E+00
  0.00000000E+00  0.00000000E+00  0.00000000E+00
  0.00000000E+00  0.00000000E+00  0.00000000E+00
  0.00000000E+00  0.00000000E+00  0.00000000E+00
  0.00000000E+00  0.00000000E+00  0.00000000E+00
  0.00000000E+00  0.00000000E+00  0.00000000E+00
  0.00000000E+00  0.00000000E+00  0.00000000E+00
  0.00000000E+00  0.00000000E+00  0.00000000E+00
  0.00000000E+00  0.00000000E+00  0.00000000E+00
  0.00000000E+00  0.00000000E+00  0.00000000E+00
