generated by phonopy                    
   1.00000000000000     
     0.0000000000000000    3.3775095164131796    3.3775095164132760
     3.3775095164132174    0.0000000000000000    3.3775095164132760
     3.3775095164132174    3.3775095164131796    0.0000000000000000
   Na   Y    Hf   Ce   H 
     1     1     1     1    24
Direct
  0.2500000000000000  0.2500000000000000  0.2500000000000000
  0.7500000000000000  0.7500000000000000  0.7500000000000000
  0.0000000000000000  0.0000000000000000  0.0000000000000000
  0.5000000000000000  0.5000000000000000  0.5000000000000000
  0.1312043069464366  0.8903133216268628  0.6136383524311455
  0.8903133216268628  0.1312043069464366  0.3648440189955622
  0.6136383524311455  0.3648440189955622  0.1312043069464366
  0.3648440189955622  0.6136383524311455  0.8903133216268628
  0.6136383524311455  0.1312043069464366  0.8903133216268628
  0.3648440189955622  0.8903133216268628  0.1312043069464366
  0.1312043069464366  0.6136383524311455  0.3648440189955622
  0.8903133216268628  0.3648440189955622  0.6136383524311455
  0.8903133216268628  0.6136383524311455  0.1312043069464366
  0.1312043069464366  0.3648440189955622  0.8903133216268628
  0.3648440189955622  0.1312043069464366  0.6136383524311455
  0.6136383524311455  0.8903133216268628  0.3648440189955622
  0.1312043069464366  0.3648440189955622  0.6136383524311455
  0.3648440189955622  0.1312043069464366  0.8903133216268628
  0.6136383524311455  0.8903133216268628  0.1312043069464366
  0.8903133216268628  0.6136383524311455  0.3648440189955622
  0.6136383524311455  0.1312043069464366  0.3648440189955622
  0.8903133216268628  0.3648440189955622  0.1312043069464366
  0.1312043069464366  0.6136383524311455  0.8903133216268628
  0.3648440189955622  0.8903133216268628  0.6136383524311455
  0.3648440189955622  0.6136383524311455  0.1312043069464366
  0.1312043069464366  0.8903133216268628  0.3648440189955622
  0.8903133216268628  0.1312043069464366  0.6136383524311455
  0.6136383524311455  0.3648440189955622  0.8903133216268628
 
  0.00000000E+00  0.00000000E+00  0.00000000E+00
  0.00000000E+00  0.00000000E+00  0.00000000E+00
  0.00000000E+00  0.00000000E+00  0.00000000E+00
  0.00000000E+00  0.00000000E+00  0.00000000E+00
  0.00000000E+00  0.00000000E+00  0.00000000E+00
  0.00000000E+00  0.00000000E+00  0.00000000E+00
  0.00000000E+00  0.00000000E+00  0.00000000E+00
  0.00000000E+00  0.00000000E+00  0.00000000E+00
  0.00000000E+00  0.00000000E+00  0.00000000E+00
  0.00000000E+00  0.00000000E+00  0.00000000E+00
  0.00000000E+00  0.00000000E+00  0.00000000E+00
  0.00000000E+00  0.00000000E+00  0.00000000E+00
  0.00000000E+00  0.00000000E+00  0.00000000E+00
  0.00000000E+00  0.00000000E+00  0.00000000E+00
  0.00000000E+00  0.00000000E+00  0.00000000E+00
  0.00000000E+00  0.00000000E+00  0.00000000E+00
  0.00000000E+00  0.00000000E+00  0.00000000E+00
  0.00000000E+00  0.00000000E+00  0.00000000E+00
  0.00000000E+00  0.00000000E+00  0.00000000E+00
  0.00000000E+00  0.00000000E+00  0.00000000E+00
  0.00000000E+00  0.00000000E+00  0.00000000E+00
  0.00000000E+00  0.00000000E+00  0.00000000E+00
  0.00000000E+00  0.00000000E+00  0.00000000E+00
  0.00000000E+00  0.00000000E+00  0.00000000E+00
  0.00000000E+00  0.00000000E+00  0.00000000E+00
  0.00000000E+00  0.00000000E+00  0.00000000E+00
  0.00000000E+00  0.00000000E+00  0.00000000E+00
  0.00000000E+00  0.00000000E+00  0.00000000E+00
