POSCAR                                  
   1.00000000000000     
     9.8498949688165123   -0.0355804650514793   -0.0316079224800438
    -0.0356026975665458    9.7910229694245228   -0.0522521553557425
    -0.0211362561985577   -0.0348285864381097    6.5208008584174655
   Na   Sr   Ca   Zr   H 
     9     9     9     9   216
Direct
  0.1602241170502268  0.1680023898607459  0.2455065962448728
  0.1510373196772576  0.8365429534873030  0.7564163386945282
  0.8376307540715331  0.1673534663610923  0.2451957474712998
  0.6689178393013862  0.3322995521295127  0.4915569098259880
  0.5150220553393225  0.8307321948243001  0.7577316581680975
  0.9974827460310536  0.3308559353437275  0.0049251083842847
  0.8348268162919297  0.8313653398971965  0.7545251999531359
  0.9956778554405190  0.6717290492095813  0.0042646356645761
  0.9956885357886378  0.9950370083461380  0.0119139224767792
  0.1658653282011429  0.1653329550750442  0.7494795691882601
  0.1724775835941230  0.5110167846992368  0.7462993264896198
  0.4989049759773252  0.1562891963197401  0.7420334197576679
  0.3254025834825569  0.3268393383804593  0.9843191970790102
  0.3278537053846762  0.6703626573496209  0.5063207794221540
  0.8352354541324800  0.1602500027880751  0.7417136486477744
  0.3374218394786794  0.0047910974860130  0.5137228918765331
  0.6667990625937250  0.6694296106586179  0.4978801853599180
  0.9987235544927273  0.3300511035457632  0.5047043616587743
  0.1607016667696399  0.4961689547544808  0.2414185391315513
  0.5000221442407238  0.1670556463194046  0.2439863853152602
  0.3376023494966631  0.3342211443222425  0.4830263494667051
  0.4985842103431892  0.8351988796541221  0.2563315873175895
  0.8380063914413398  0.4967336105886062  0.2454470290049500
  0.6734371679271334  0.6684016280382750  0.0004783444145815
  0.8312050709435113  0.8332320617863900  0.2531116474204964
  0.6718246637572420  0.0070290921397600  0.5071637886044513
  0.9992356981669062  0.0043627427688051  0.5085779879887440
  0.1585677332157687  0.8397198541027180  0.2543151215551234
  0.5027285811488653  0.4937658052275893  0.2455913694211205
  0.5073242515945608  0.5029919961898983  0.7409487584698553
  0.3307843201967486  0.6694228139203275  0.9996312863266184
  0.6725019333939315  0.3279926859800497  0.9960517730649130
  0.3223115436299722  0.9948697738103576  0.0085137700949716
  0.8382235585810207  0.5023170151092842  0.7527923975700901
  0.9974829224152444  0.6699893879298742  0.5013922081034892
  0.6777179236180970  0.9935948801111181  0.0070725066974120
  0.1465830173112863  0.0816781933845903  0.0146249981129358
  0.1594633397017162  0.0890380194590179  0.4725334684293827
  0.1505467947097472  0.4186633788163121  0.9970144977482605
  0.5050927125346831  0.0783307561882509  0.0080759985161194
  0.3267432674328106  0.2472516152488637  0.2422924683934724
  0.1703244897901754  0.4186497954214303  0.4895710304490777
  0.5129400845141703  0.0866688289753199  0.4745959547782164
  0.3377891807765181  0.2528507500784372  0.7192395611169289
  0.1597368358087508  0.7542794991282804  0.0013182052269300
  0.5015539921344754  0.4140584376505103  0.9962006269377355
  0.3330364108165824  0.5835914777198568  0.2433960002995121
  0.1580351745071269  0.7565351393318593  0.5142375386738678
  0.8440745856593423  0.0834454001149041  0.0133827898951964
  0.6700237340034860  0.2501739240925360  0.2566080118864562
  0.5072466079940625  0.4132021917691873  0.4913592776718545
  0.3504479692270337  0.5901948114492015  0.7568284217576817
  0.8403074367906669  0.0846174834742826  0.4690273748528355
  0.6669220180483961  0.2505106925632461  0.7309246925268624
  0.5016389189926684  0.7506788680677943  0.9931229501935803
  0.3310119370147362  0.9171792489377850  0.2578876674996877
  0.8409607189197814  0.4144353883089664  0.0011040402621489
  0.6706710102910804  0.5826399006061393  0.2392942701544669
  0.4973841112575954  0.7557652350023787  0.5209572313978086
  0.3536986558054878  0.9026693855353471  0.7569905609385543
  0.0013089575392158  0.2435694729011502  0.2364865577414221
  0.8272022857446117  0.4160950502935350  0.4935210644152903
  0.6732626596269498  0.5875310679611658  0.7570513892913411
  0.9999988446856349  0.2528461126044306  0.7732733673340491
  0.8389234371152199  0.7500790394562813  0.9912292002890410
  0.6663060949224970  0.9170527814810754  0.2634047831897490
  0.9997353579572703  0.5842974857974710  0.2340457146014430
  0.8368766425278196  0.7540753350349760  0.5201728494423605
  0.6756591824742060  0.9097851958133631  0.7463851940266508
  0.9980200368081356  0.5869619471836955  0.7785956153612830
  0.9924249766958013  0.9186355952715601  0.2562291225498896
  0.9907973977339850  0.9114820657509028  0.7526447695326155
  0.0783637636553323  0.1584626436898020  0.0158036601479168
  0.0876102616369252  0.1627711333155943  0.4793774264850299
  0.0796895676901670  0.4969275752272893  0.9986065078424176
  0.4178009628482258  0.1548565381832674  0.0030486506226239
  0.2470206937190582  0.3308692983351094  0.2449588259214224
  0.0829592481116208  0.5033587087464824  0.4895990546270426
  0.4173259134619727  0.1749157433845312  0.4815130975130870
  0.2523930993721777  0.3391964300002002  0.7169042899817910
  0.0736717049836173  0.8355183756963811  0.9893373567688144
  0.4197216912811399  0.4983007476806733  0.9925130061732048
  0.2448256521618859  0.6667001897262423  0.2441592057986526
  0.0798687013048749  0.8393470167128001  0.5114213208065692
  0.7564830401714886  0.1648253666921278  0.0154156112823856
  0.5895712526563628  0.3269999476243086  0.2548168524842325
  0.4166247914158845  0.4998237403457324  0.4973278647940376
  0.2449433328799770  0.6946717903990987  0.7606219446702127
  0.7499601130259492  0.1779255847528702  0.4726173053470148
  0.5882983830694855  0.3316264046195982  0.7251295910621423
  0.4205164684653937  0.8369177911285206  0.9911492892246656
  0.2444284807440624  0.0081703059340938  0.2594359423044494
  0.7500934854443884  0.4992648281000598  0.0042739666587721
  0.5819335025495462  0.6686318348561713  0.2358878943654190
  0.4229454832916701  0.8366866492687421  0.5154952921848235
  0.2437107706428776  0.9851878496115560  0.7602639388439556
  0.9153431824110996  0.3272108055437215  0.2337891949369748
  0.7507840428760773  0.4917583283733435  0.4923845467307046
  0.5861484343588117  0.6725995329046839  0.7605228319285473
  0.9170196331645784  0.3332777565605625  0.7775266159339509
  0.7544345636382062  0.8300483135470316  0.9937993413585389
  0.5843228969998790  0.9994530373252530  0.2532340686075329
  0.9167406161921221  0.6692067459153250  0.2324972665899168
  0.7529133313013148  0.8423207808070075  0.5073738507581780
  0.5862566735475809  0.9875671910913084  0.7602520344257115
  0.9203613438838332  0.6812665659419608  0.7681465948827082
  0.9168462460590376  0.0021201792006451  0.2450591594839224
  0.9192590302355086  0.9854165478000496  0.7729948369184285
  0.1515516748055674  0.0091968678983818  0.1303156882132299
  0.1650263410491135  0.9830597201735500  0.6341919347439955
  0.1509931959948005  0.3242227897210199  0.1240075459529209
  0.5037664622045028  0.9990686475930630  0.1281935092742330
  0.3189956832487439  0.1681272617476992  0.3650866830103752
  0.1784235667526630  0.3369717587058290  0.6130297094317214
  0.5141914520771635  0.9757616616138236  0.6309076117226482
  0.3358792883275683  0.1509788893032677  0.8773283651397676
  0.1471743846143099  0.6639582342453352  0.1246961672404723
  0.5000790229662968  0.3307273042909529  0.1160153012419300
  0.3284047098124034  0.5000841650149681  0.3682527168426546
  0.1589346993569123  0.6900049293742754  0.6295733106020691
  0.8452191784364871  0.0036646251011092  0.1361504111021077
  0.6789212581232249  0.1710078758847615  0.3667880572422391
  0.5141849384630248  0.3312051875364759  0.6171302868628104
  0.3470588864061952  0.4991278663267096  0.8700487739314511
  0.8338466314094291  0.9807698096311981  0.6292376160049642
  0.6669931553566428  0.1621990056273148  0.8749432720923096
  0.5042825595100311  0.6653395609460091  0.1211923968938393
  0.3301281899529585  0.8364461435922692  0.3751093384798168
  0.8488336196394641  0.3260697043193233  0.1308410234934669
  0.6730668198195389  0.4875862200187058  0.3736741989151469
  0.4996288727552383  0.6797673829971984  0.6251188685732387
  0.3049782636698311  0.8344368986139870  0.8760321401110147
  0.9968757341255312  0.1617430874960846  0.3640268587384696
  0.8182274804409886  0.3350349448589682  0.6195674740766322
  0.6689079628200574  0.4981157495719799  0.8744813518657608
  0.9989973511626431  0.1508680964558593  0.8835096523344532
  0.8436880726572866  0.6657122768962012  0.1259649715889495
  0.6662112189704743  0.8455601472266352  0.3820850449205508
  0.9991704183917136  0.4989854021606916  0.3663987660618773
  0.8357568417489176  0.6755897832337041  0.6301248792695802
  0.6767110520174171  0.8317097128849085  0.8746225100922871
  0.0031557306097625  0.5144105930745724  0.8818552762044831
  0.9935048618466382  0.8406606366979190  0.3800000491212856
  0.9993606860632624  0.8329220766926255  0.8836649790334263
  0.0767730612429673  0.0137755225369531  0.2433447730266849
  0.0764545274822623  0.9934634217481886  0.7780074122086376
  0.0806341216550521  0.3280031694274044  0.2359387432259155
  0.4170861551619893  0.9988711040960396  0.2463611920608599
  0.2515588244829488  0.1739950198392890  0.4725348664457840
  0.0782643550158966  0.3373452470393801  0.7795982041736309
  0.4177185598959809  0.9703441935233457  0.7746520819132670
  0.2417234111216402  0.1590569583311492  0.0223397282359699
  0.0821434276946675  0.6684258797843796  0.2276657391088648
  0.4161254912050865  0.3295557431477079  0.2389651547571887
  0.2520865165199595  0.4925059257404598  0.4746832600259197
  0.0795778802462053  0.6789701042310270  0.7793087960756182
  0.7546442561533340  0.0041122395666946  0.2625106780113597
  0.5879002767975834  0.1711013291608268  0.4886488259299426
  0.4234724885141787  0.3330414176086904  0.7337704347192400
  0.2503400366485593  0.5025636832467768  0.0104776500660364
  0.7563491062993819  0.9833821614462579  0.7524515850265630
  0.5820214165724380  0.1562176111900513  0.0031647044911480
  0.4121929799151260  0.6700701603011723  0.2484702915143018
  0.2457501527022004  0.8385030129849440  0.5345923346204984
  0.7513848851946037  0.3296754992742450  0.2565865586065357
  0.5920373291669421  0.4890571523436904  0.4951559225156146
  0.4169800586128503  0.6964076652289037  0.7567700465300433
  0.2390171450438885  0.8286744246454560  0.9778891038238768
  0.9145346224519031  0.1605066081771582  0.4727939161669070
  0.7480147813013645  0.3322934787591763  0.7305336886056182
  0.5854797689859765  0.5037817272436200  0.9934753611574720
  0.9189081105018673  0.1614187411531063  0.0149329679344135
  0.7529047441647592  0.6610126580362916  0.2450594878883692
  0.5883788562406167  0.8423669717079107  0.5057371206040528
  0.9138915512163308  0.5007756255121549  0.4939394638394035
  0.7549378271066303  0.6717440327713788  0.7541063849465104
  0.5822341612604376  0.8326728940116439  0.0039051388373821
  0.9192964160481480  0.4933668643658180  0.0037325431211954
  0.9144564355142464  0.8411946634399499  0.5018139095597078
  0.9148568155893670  0.8366598278058248  0.0033915876843267
  0.9971163442402684  0.1705008387051379  0.1235362643850380
  0.0019280533135415  0.1622281021341578  0.6251090814287608
  0.9982680259690468  0.5054396030347945  0.1169990981855094
  0.3189410205669532  0.1636869869119550  0.1310216017054131
  0.1674151291428529  0.3233233627691803  0.3670677004177776
  0.0001175023358968  0.5069811183976753  0.6273101037361783
  0.3300396984528930  0.1830664871515779  0.6091813582866621
  0.1469180483041015  0.3404363314180046  0.8762468044653815
  0.9937455685433889  0.8315059209025719  0.1259673724415009
  0.3305739479828631  0.4995992207259761  0.1219504835116680
  0.1610639828206430  0.6676407277671998  0.3705102163291514
  0.9974971512243442  0.8428213671501084  0.6372259778061746
  0.6770082349329627  0.1635657554997465  0.1310628575838564
  0.5117598623092832  0.3279884073355532  0.3790878279872558
  0.3461663904482961  0.4934488470511553  0.6119572403218569
  0.1434589696481794  0.6844256758855778  0.8764889430284413
  0.6648674795807281  0.1803068523202782  0.6090968939816932
  0.5023259949248526  0.3364659487093959  0.8621427478285213
  0.3274185272712131  0.8317209748290537  0.1268898013423012
  0.1651197013800214  0.0122097557991054  0.3797796903081903
  0.6727110270721610  0.4982627895801812  0.1200489649855783
  0.4952495556749739  0.6648940682476976  0.3698984363719049
  0.3053622332156110  0.8390522956474058  0.6396510982861940
  0.1421178491432258  0.9893995097541222  0.8779228684958298
  0.8237010127149986  0.3287216718959343  0.3716221808333273
  0.6717540348975248  0.4875552260774398  0.6163905031561541
  0.5046155565159793  0.6698274228375354  0.8790107337700732
  0.8440885002253751  0.3321650123062341  0.8756748243265591
  0.6653237469248978  0.8302306596509084  0.1297292482185810
  0.5091559432200299  0.0054504385446847  0.3777144091139206
  0.8351960395601878  0.6627356380802567  0.3724062140720648
  0.6695744930077581  0.8445806593655760  0.6295469845074635
  0.5070756726999761  0.9854007529924615  0.8831941538604013
  0.8422680773256772  0.6776710174085210  0.8813707099326109
  0.8318831244043707  0.0091622533495084  0.3762765052156851
  0.8468097986250598  0.9867987441316970  0.8788993959166120
  0.0026295315062512  0.0813821778284236  0.2504046339487189
  0.0002482272267272  0.0801291820462353  0.7869817827859578
  0.0000691115146338  0.4159312452505191  0.2438396954053204
  0.3240131345011008  0.0861476428414250  0.2533971274976565
  0.1698604713682315  0.2527688949899343  0.4723929337327064
  0.0028037069160192  0.4206862365599306  0.7688479654962705
  0.3281324992931829  0.0743220934367415  0.7735281875016113
  0.1502167716323086  0.2456245110837614  0.0169467173011455
  0.9940107641160409  0.7501190325266904  0.2418181779264259
  0.3289469103251790  0.4149247570700680  0.2406313594636842
  0.1569424559823531  0.5873679599012718  0.4775078000984223
  0.9875318625604237  0.7518506621543466  0.7661458214024393
  0.6726765047571917  0.0887650298286005  0.2543115137010190
  0.5092880397684780  0.2547076392375232  0.4868896905251745
  0.3383586250207173  0.4179594240465505  0.7344003167462247
  0.1576069181009458  0.5912287950602320  0.0095898791754507
  0.6663568800633399  0.0746778829843819  0.7643666577857005
  0.5048387169018937  0.2467037129830203  0.0009091855248045
  0.3332073627269665  0.7493903061473617  0.2482028875490769
  0.1590088674967447  0.9214638213151574  0.5208236792486929
  0.6741018338667928  0.4131277603132091  0.2540065673385925
  0.4964744778733277  0.5847693124562099  0.4890699380917169
  0.3608132237613759  0.7604772156860307  0.7582345009120175
  0.1537219878216618  0.9146985641389449  0.9964016374451816
  0.8222796792118956  0.2501022628133498  0.4787343367098771
  0.6716932179610424  0.4142861072625053  0.7399945477485304
  0.5037709470320451  0.5861799510218972  0.9998129009296903
  0.8383990025687567  0.2473593719692744  0.0078175394913984
  0.6631593888593628  0.7501310688714113  0.2400528299534130
  0.5065784550342585  0.9135199221336379  0.5247839491072881
  0.8365799658683315  0.5832035457454197  0.4946547299486781
  0.6729094709054309  0.7512801432382403  0.7601056334486742
  0.4985274991724253  0.9111315738125469  0.9931613226533003
  0.8394477641796101  0.5845230838326785  0.0020248374480829
  0.8372382427784899  0.9153359229535951  0.5158184562579109
  0.8462668690363770  0.9093745267043403  0.9986787153781407
 
  0.00000000E+00  0.00000000E+00  0.00000000E+00
  0.00000000E+00  0.00000000E+00  0.00000000E+00
  0.00000000E+00  0.00000000E+00  0.00000000E+00
  0.00000000E+00  0.00000000E+00  0.00000000E+00
  0.00000000E+00  0.00000000E+00  0.00000000E+00
  0.00000000E+00  0.00000000E+00  0.00000000E+00
  0.00000000E+00  0.00000000E+00  0.00000000E+00
  0.00000000E+00  0.00000000E+00  0.00000000E+00
  0.00000000E+00  0.00000000E+00  0.00000000E+00
  0.00000000E+00  0.00000000E+00  0.00000000E+00
  0.00000000E+00  0.00000000E+00  0.00000000E+00
  0.00000000E+00  0.00000000E+00  0.00000000E+00
  0.00000000E+00  0.00000000E+00  0.00000000E+00
  0.00000000E+00  0.00000000E+00  0.00000000E+00
  0.00000000E+00  0.00000000E+00  0.00000000E+00
  0.00000000E+00  0.00000000E+00  0.00000000E+00
  0.00000000E+00  0.00000000E+00  0.00000000E+00
  0.00000000E+00  0.00000000E+00  0.00000000E+00
  0.00000000E+00  0.00000000E+00  0.00000000E+00
  0.00000000E+00  0.00000000E+00  0.00000000E+00
  0.00000000E+00  0.00000000E+00  0.00000000E+00
  0.00000000E+00  0.00000000E+00  0.00000000E+00
  0.00000000E+00  0.00000000E+00  0.00000000E+00
  0.00000000E+00  0.00000000E+00  0.00000000E+00
  0.00000000E+00  0.00000000E+00  0.00000000E+00
  0.00000000E+00  0.00000000E+00  0.00000000E+00
  0.00000000E+00  0.00000000E+00  0.00000000E+00
  0.00000000E+00  0.00000000E+00  0.00000000E+00
  0.00000000E+00  0.00000000E+00  0.00000000E+00
  0.00000000E+00  0.00000000E+00  0.00000000E+00
  0.00000000E+00  0.00000000E+00  0.00000000E+00
  0.00000000E+00  0.00000000E+00  0.00000000E+00
  0.00000000E+00  0.00000000E+00  0.00000000E+00
  0.00000000E+00  0.00000000E+00  0.00000000E+00
  0.00000000E+00  0.00000000E+00  0.00000000E+00
  0.00000000E+00  0.00000000E+00  0.00000000E+00
  0.00000000E+00  0.00000000E+00  0.00000000E+00
  0.00000000E+00  0.00000000E+00  0.00000000E+00
  0.00000000E+00  0.00000000E+00  0.00000000E+00
  0.00000000E+00  0.00000000E+00  0.00000000E+00
  0.00000000E+00  0.00000000E+00  0.00000000E+00
  0.00000000E+00  0.00000000E+00  0.00000000E+00
  0.00000000E+00  0.00000000E+00  0.00000000E+00
  0.00000000E+00  0.00000000E+00  0.00000000E+00
  0.00000000E+00  0.00000000E+00  0.00000000E+00
  0.00000000E+00  0.00000000E+00  0.00000000E+00
  0.00000000E+00  0.00000000E+00  0.00000000E+00
  0.00000000E+00  0.00000000E+00  0.00000000E+00
  0.00000000E+00  0.00000000E+00  0.00000000E+00
  0.00000000E+00  0.00000000E+00  0.00000000E+00
  0.00000000E+00  0.00000000E+00  0.00000000E+00
  0.00000000E+00  0.00000000E+00  0.00000000E+00
  0.00000000E+00  0.00000000E+00  0.00000000E+00
  0.00000000E+00  0.00000000E+00  0.00000000E+00
  0.00000000E+00  0.00000000E+00  0.00000000E+00
  0.00000000E+00  0.00000000E+00  0.00000000E+00
  0.00000000E+00  0.00000000E+00  0.00000000E+00
  0.00000000E+00  0.00000000E+00  0.00000000E+00
  0.00000000E+00  0.00000000E+00  0.00000000E+00
  0.00000000E+00  0.00000000E+00  0.00000000E+00
  0.00000000E+00  0.00000000E+00  0.00000000E+00
  0.00000000E+00  0.00000000E+00  0.00000000E+00
  0.00000000E+00  0.00000000E+00  0.00000000E+00
  0.00000000E+00  0.00000000E+00  0.00000000E+00
  0.00000000E+00  0.00000000E+00  0.00000000E+00
  0.00000000E+00  0.00000000E+00  0.00000000E+00
  0.00000000E+00  0.00000000E+00  0.00000000E+00
  0.00000000E+00  0.00000000E+00  0.00000000E+00
  0.00000000E+00  0.00000000E+00  0.00000000E+00
  0.00000000E+00  0.00000000E+00  0.00000000E+00
  0.00000000E+00  0.00000000E+00  0.00000000E+00
  0.00000000E+00  0.00000000E+00  0.00000000E+00
  0.00000000E+00  0.00000000E+00  0.00000000E+00
  0.00000000E+00  0.00000000E+00  0.00000000E+00
  0.00000000E+00  0.00000000E+00  0.00000000E+00
  0.00000000E+00  0.00000000E+00  0.00000000E+00
  0.00000000E+00  0.00000000E+00  0.00000000E+00
  0.00000000E+00  0.00000000E+00  0.00000000E+00
  0.00000000E+00  0.00000000E+00  0.00000000E+00
  0.00000000E+00  0.00000000E+00  0.00000000E+00
  0.00000000E+00  0.00000000E+00  0.00000000E+00
  0.00000000E+00  0.00000000E+00  0.00000000E+00
  0.00000000E+00  0.00000000E+00  0.00000000E+00
  0.00000000E+00  0.00000000E+00  0.00000000E+00
  0.00000000E+00  0.00000000E+00  0.00000000E+00
  0.00000000E+00  0.00000000E+00  0.00000000E+00
  0.00000000E+00  0.00000000E+00  0.00000000E+00
  0.00000000E+00  0.00000000E+00  0.00000000E+00
  0.00000000E+00  0.00000000E+00  0.00000000E+00
  0.00000000E+00  0.00000000E+00  0.00000000E+00
  0.00000000E+00  0.00000000E+00  0.00000000E+00
  0.00000000E+00  0.00000000E+00  0.00000000E+00
  0.00000000E+00  0.00000000E+00  0.00000000E+00
  0.00000000E+00  0.00000000E+00  0.00000000E+00
  0.00000000E+00  0.00000000E+00  0.00000000E+00
  0.00000000E+00  0.00000000E+00  0.00000000E+00
  0.00000000E+00  0.00000000E+00  0.00000000E+00
  0.00000000E+00  0.00000000E+00  0.00000000E+00
  0.00000000E+00  0.00000000E+00  0.00000000E+00
  0.00000000E+00  0.00000000E+00  0.00000000E+00
  0.00000000E+00  0.00000000E+00  0.00000000E+00
  0.00000000E+00  0.00000000E+00  0.00000000E+00
  0.00000000E+00  0.00000000E+00  0.00000000E+00
  0.00000000E+00  0.00000000E+00  0.00000000E+00
  0.00000000E+00  0.00000000E+00  0.00000000E+00
  0.00000000E+00  0.00000000E+00  0.00000000E+00
  0.00000000E+00  0.00000000E+00  0.00000000E+00
  0.00000000E+00  0.00000000E+00  0.00000000E+00
  0.00000000E+00  0.00000000E+00  0.00000000E+00
  0.00000000E+00  0.00000000E+00  0.00000000E+00
  0.00000000E+00  0.00000000E+00  0.00000000E+00
  0.00000000E+00  0.00000000E+00  0.00000000E+00
  0.00000000E+00  0.00000000E+00  0.00000000E+00
  0.00000000E+00  0.00000000E+00  0.00000000E+00
  0.00000000E+00  0.00000000E+00  0.00000000E+00
  0.00000000E+00  0.00000000E+00  0.00000000E+00
  0.00000000E+00  0.00000000E+00  0.00000000E+00
  0.00000000E+00  0.00000000E+00  0.00000000E+00
  0.00000000E+00  0.00000000E+00  0.00000000E+00
  0.00000000E+00  0.00000000E+00  0.00000000E+00
  0.00000000E+00  0.00000000E+00  0.00000000E+00
  0.00000000E+00  0.00000000E+00  0.00000000E+00
  0.00000000E+00  0.00000000E+00  0.00000000E+00
  0.00000000E+00  0.00000000E+00  0.00000000E+00
  0.00000000E+00  0.00000000E+00  0.00000000E+00
  0.00000000E+00  0.00000000E+00  0.00000000E+00
  0.00000000E+00  0.00000000E+00  0.00000000E+00
  0.00000000E+00  0.00000000E+00  0.00000000E+00
  0.00000000E+00  0.00000000E+00  0.00000000E+00
  0.00000000E+00  0.00000000E+00  0.00000000E+00
  0.00000000E+00  0.00000000E+00  0.00000000E+00
  0.00000000E+00  0.00000000E+00  0.00000000E+00
  0.00000000E+00  0.00000000E+00  0.00000000E+00
  0.00000000E+00  0.00000000E+00  0.00000000E+00
  0.00000000E+00  0.00000000E+00  0.00000000E+00
  0.00000000E+00  0.00000000E+00  0.00000000E+00
  0.00000000E+00  0.00000000E+00  0.00000000E+00
  0.00000000E+00  0.00000000E+00  0.00000000E+00
  0.00000000E+00  0.00000000E+00  0.00000000E+00
  0.00000000E+00  0.00000000E+00  0.00000000E+00
  0.00000000E+00  0.00000000E+00  0.00000000E+00
  0.00000000E+00  0.00000000E+00  0.00000000E+00
  0.00000000E+00  0.00000000E+00  0.00000000E+00
  0.00000000E+00  0.00000000E+00  0.00000000E+00
  0.00000000E+00  0.00000000E+00  0.00000000E+00
  0.00000000E+00  0.00000000E+00  0.00000000E+00
  0.00000000E+00  0.00000000E+00  0.00000000E+00
  0.00000000E+00  0.00000000E+00  0.00000000E+00
  0.00000000E+00  0.00000000E+00  0.00000000E+00
  0.00000000E+00  0.00000000E+00  0.00000000E+00
  0.00000000E+00  0.00000000E+00  0.00000000E+00
  0.00000000E+00  0.00000000E+00  0.00000000E+00
  0.00000000E+00  0.00000000E+00  0.00000000E+00
  0.00000000E+00  0.00000000E+00  0.00000000E+00
  0.00000000E+00  0.00000000E+00  0.00000000E+00
  0.00000000E+00  0.00000000E+00  0.00000000E+00
  0.00000000E+00  0.00000000E+00  0.00000000E+00
  0.00000000E+00  0.00000000E+00  0.00000000E+00
  0.00000000E+00  0.00000000E+00  0.00000000E+00
  0.00000000E+00  0.00000000E+00  0.00000000E+00
  0.00000000E+00  0.00000000E+00  0.00000000E+00
  0.00000000E+00  0.00000000E+00  0.00000000E+00
  0.00000000E+00  0.00000000E+00  0.00000000E+00
  0.00000000E+00  0.00000000E+00  0.00000000E+00
  0.00000000E+00  0.00000000E+00  0.00000000E+00
  0.00000000E+00  0.00000000E+00  0.00000000E+00
  0.00000000E+00  0.00000000E+00  0.00000000E+00
  0.00000000E+00  0.00000000E+00  0.00000000E+00
  0.00000000E+00  0.00000000E+00  0.00000000E+00
  0.00000000E+00  0.00000000E+00  0.00000000E+00
  0.00000000E+00  0.00000000E+00  0.00000000E+00
  0.00000000E+00  0.00000000E+00  0.00000000E+00
  0.00000000E+00  0.00000000E+00  0.00000000E+00
  0.00000000E+00  0.00000000E+00  0.00000000E+00
  0.00000000E+00  0.00000000E+00  0.00000000E+00
  0.00000000E+00  0.00000000E+00  0.00000000E+00
  0.00000000E+00  0.00000000E+00  0.00000000E+00
  0.00000000E+00  0.00000000E+00  0.00000000E+00
  0.00000000E+00  0.00000000E+00  0.00000000E+00
  0.00000000E+00  0.00000000E+00  0.00000000E+00
  0.00000000E+00  0.00000000E+00  0.00000000E+00
  0.00000000E+00  0.00000000E+00  0.00000000E+00
  0.00000000E+00  0.00000000E+00  0.00000000E+00
  0.00000000E+00  0.00000000E+00  0.00000000E+00
  0.00000000E+00  0.00000000E+00  0.00000000E+00
  0.00000000E+00  0.00000000E+00  0.00000000E+00
  0.00000000E+00  0.00000000E+00  0.00000000E+00
  0.00000000E+00  0.00000000E+00  0.00000000E+00
  0.00000000E+00  0.00000000E+00  0.00000000E+00
  0.00000000E+00  0.00000000E+00  0.00000000E+00
  0.00000000E+00  0.00000000E+00  0.00000000E+00
  0.00000000E+00  0.00000000E+00  0.00000000E+00
  0.00000000E+00  0.00000000E+00  0.00000000E+00
  0.00000000E+00  0.00000000E+00  0.00000000E+00
  0.00000000E+00  0.00000000E+00  0.00000000E+00
  0.00000000E+00  0.00000000E+00  0.00000000E+00
  0.00000000E+00  0.00000000E+00  0.00000000E+00
  0.00000000E+00  0.00000000E+00  0.00000000E+00
  0.00000000E+00  0.00000000E+00  0.00000000E+00
  0.00000000E+00  0.00000000E+00  0.00000000E+00
  0.00000000E+00  0.00000000E+00  0.00000000E+00
  0.00000000E+00  0.00000000E+00  0.00000000E+00
  0.00000000E+00  0.00000000E+00  0.00000000E+00
  0.00000000E+00  0.00000000E+00  0.00000000E+00
  0.00000000E+00  0.00000000E+00  0.00000000E+00
  0.00000000E+00  0.00000000E+00  0.00000000E+00
  0.00000000E+00  0.00000000E+00  0.00000000E+00
  0.00000000E+00  0.00000000E+00  0.00000000E+00
  0.00000000E+00  0.00000000E+00  0.00000000E+00
  0.00000000E+00  0.00000000E+00  0.00000000E+00
  0.00000000E+00  0.00000000E+00  0.00000000E+00
  0.00000000E+00  0.00000000E+00  0.00000000E+00
  0.00000000E+00  0.00000000E+00  0.00000000E+00
  0.00000000E+00  0.00000000E+00  0.00000000E+00
  0.00000000E+00  0.00000000E+00  0.00000000E+00
  0.00000000E+00  0.00000000E+00  0.00000000E+00
  0.00000000E+00  0.00000000E+00  0.00000000E+00
  0.00000000E+00  0.00000000E+00  0.00000000E+00
  0.00000000E+00  0.00000000E+00  0.00000000E+00
  0.00000000E+00  0.00000000E+00  0.00000000E+00
  0.00000000E+00  0.00000000E+00  0.00000000E+00
  0.00000000E+00  0.00000000E+00  0.00000000E+00
  0.00000000E+00  0.00000000E+00  0.00000000E+00
  0.00000000E+00  0.00000000E+00  0.00000000E+00
  0.00000000E+00  0.00000000E+00  0.00000000E+00
  0.00000000E+00  0.00000000E+00  0.00000000E+00
  0.00000000E+00  0.00000000E+00  0.00000000E+00
  0.00000000E+00  0.00000000E+00  0.00000000E+00
  0.00000000E+00  0.00000000E+00  0.00000000E+00
  0.00000000E+00  0.00000000E+00  0.00000000E+00
  0.00000000E+00  0.00000000E+00  0.00000000E+00
  0.00000000E+00  0.00000000E+00  0.00000000E+00
  0.00000000E+00  0.00000000E+00  0.00000000E+00
  0.00000000E+00  0.00000000E+00  0.00000000E+00
  0.00000000E+00  0.00000000E+00  0.00000000E+00
  0.00000000E+00  0.00000000E+00  0.00000000E+00
  0.00000000E+00  0.00000000E+00  0.00000000E+00
  0.00000000E+00  0.00000000E+00  0.00000000E+00
  0.00000000E+00  0.00000000E+00  0.00000000E+00
  0.00000000E+00  0.00000000E+00  0.00000000E+00
  0.00000000E+00  0.00000000E+00  0.00000000E+00
  0.00000000E+00  0.00000000E+00  0.00000000E+00
  0.00000000E+00  0.00000000E+00  0.00000000E+00
  0.00000000E+00  0.00000000E+00  0.00000000E+00
  0.00000000E+00  0.00000000E+00  0.00000000E+00
  0.00000000E+00  0.00000000E+00  0.00000000E+00
  0.00000000E+00  0.00000000E+00  0.00000000E+00
  0.00000000E+00  0.00000000E+00  0.00000000E+00
  0.00000000E+00  0.00000000E+00  0.00000000E+00
  0.00000000E+00  0.00000000E+00  0.00000000E+00
  0.00000000E+00  0.00000000E+00  0.00000000E+00
  0.00000000E+00  0.00000000E+00  0.00000000E+00
