generated by phonopy                    
   1.00000000000000     
     0.0000000000000000    3.4527715017159331    3.4527715017160263
     3.4527715017159717    0.0000000000000000    3.4527715017160263
     3.4527715017159717    3.4527715017159331    0.0000000000000000
   Na   Y    Zr   Ce   H 
     1     1     1     1    24
Direct
  0.2500000000000000  0.2500000000000000  0.2500000000000000
  0.7500000000000000  0.7500000000000000  0.7500000000000000
  0.0000000000000000  0.0000000000000000  0.0000000000000000
  0.5000000000000000  0.5000000000000000  0.5000000000000000
  0.1321063972647210  0.8892932784356304  0.6151398334921083
  0.8892932784356304  0.1321063972647210  0.3634604908075403
  0.6151398334921083  0.3634604908075403  0.1321063972647210
  0.3634604908075403  0.6151398334921083  0.8892932784356304
  0.6151398334921083  0.1321063972647210  0.8892932784356304
  0.3634604908075403  0.8892932784356304  0.1321063972647210
  0.1321063972647210  0.6151398334921083  0.3634604908075403
  0.8892932784356304  0.3634604908075403  0.6151398334921083
  0.8892932784356304  0.6151398334921083  0.1321063972647210
  0.1321063972647210  0.3634604908075403  0.8892932784356304
  0.3634604908075403  0.1321063972647210  0.6151398334921083
  0.6151398334921083  0.8892932784356304  0.3634604908075403
  0.1321063972647210  0.3634604908075403  0.6151398334921083
  0.3634604908075403  0.1321063972647210  0.8892932784356304
  0.6151398334921083  0.8892932784356304  0.1321063972647210
  0.8892932784356304  0.6151398334921083  0.3634604908075403
  0.6151398334921083  0.1321063972647210  0.3634604908075403
  0.8892932784356304  0.3634604908075403  0.1321063972647210
  0.1321063972647210  0.6151398334921083  0.8892932784356304
  0.3634604908075403  0.8892932784356304  0.6151398334921083
  0.3634604908075403  0.6151398334921083  0.1321063972647210
  0.1321063972647210  0.8892932784356304  0.3634604908075403
  0.8892932784356304  0.1321063972647210  0.6151398334921083
  0.6151398334921083  0.3634604908075403  0.8892932784356304
 
  0.00000000E+00  0.00000000E+00  0.00000000E+00
  0.00000000E+00  0.00000000E+00  0.00000000E+00
  0.00000000E+00  0.00000000E+00  0.00000000E+00
  0.00000000E+00  0.00000000E+00  0.00000000E+00
  0.00000000E+00  0.00000000E+00  0.00000000E+00
  0.00000000E+00  0.00000000E+00  0.00000000E+00
  0.00000000E+00  0.00000000E+00  0.00000000E+00
  0.00000000E+00  0.00000000E+00  0.00000000E+00
  0.00000000E+00  0.00000000E+00  0.00000000E+00
  0.00000000E+00  0.00000000E+00  0.00000000E+00
  0.00000000E+00  0.00000000E+00  0.00000000E+00
  0.00000000E+00  0.00000000E+00  0.00000000E+00
  0.00000000E+00  0.00000000E+00  0.00000000E+00
  0.00000000E+00  0.00000000E+00  0.00000000E+00
  0.00000000E+00  0.00000000E+00  0.00000000E+00
  0.00000000E+00  0.00000000E+00  0.00000000E+00
  0.00000000E+00  0.00000000E+00  0.00000000E+00
  0.00000000E+00  0.00000000E+00  0.00000000E+00
  0.00000000E+00  0.00000000E+00  0.00000000E+00
  0.00000000E+00  0.00000000E+00  0.00000000E+00
  0.00000000E+00  0.00000000E+00  0.00000000E+00
  0.00000000E+00  0.00000000E+00  0.00000000E+00
  0.00000000E+00  0.00000000E+00  0.00000000E+00
  0.00000000E+00  0.00000000E+00  0.00000000E+00
  0.00000000E+00  0.00000000E+00  0.00000000E+00
  0.00000000E+00  0.00000000E+00  0.00000000E+00
  0.00000000E+00  0.00000000E+00  0.00000000E+00
  0.00000000E+00  0.00000000E+00  0.00000000E+00
