       N       E                     dE             d eps       ncg     rms          rms(c)
DAV:   1     0.119962568984E+04    0.11996E+04   -0.34870E+04  8216   0.243E+03
DAV:   2     0.887125864318E+02   -0.11109E+04   -0.10453E+04 10448   0.958E+02
DAV:   3    -0.877079989784E+02   -0.17642E+03   -0.16969E+03 11648   0.365E+02
DAV:   4    -0.997984474896E+02   -0.12090E+02   -0.11848E+02 11840   0.995E+01
DAV:   5    -0.100511936944E+03   -0.71349E+00   -0.70538E+00 11904   0.276E+01    0.569E+01
DAV:   6    -0.843578346640E+02    0.16154E+02   -0.25429E+01 12240   0.475E+01    0.294E+01
DAV:   7    -0.840432774271E+02    0.31456E+00   -0.17420E+01 11688   0.258E+01    0.115E+01
DAV:   8    -0.843361283344E+02   -0.29285E+00   -0.87977E+00 11296   0.350E+01    0.777E+00
DAV:   9    -0.836053176263E+02    0.73081E+00   -0.21447E+00 11824   0.188E+01    0.113E+00
DAV:  10    -0.836374198224E+02   -0.32102E-01   -0.31404E-01 10904   0.311E+00    0.150E+00
DAV:  11    -0.836395557616E+02   -0.21359E-02   -0.16515E-02 12248   0.120E+00    0.176E+00
DAV:  12    -0.836236749617E+02    0.15881E-01   -0.42321E-02 11680   0.244E+00    0.192E+00
DAV:  13    -0.836269021168E+02   -0.32272E-02   -0.91175E-03 11528   0.137E+00    0.173E+00
DAV:  14    -0.836249938799E+02    0.19082E-02   -0.10657E-03 10832   0.477E-01    0.156E+00
DAV:  15    -0.836244703434E+02    0.52354E-03   -0.75923E-04 11800   0.178E-01    0.143E+00
DAV:  16    -0.836245010771E+02   -0.30734E-04   -0.51833E-05 11648   0.708E-02    0.134E+00
DAV:  17    -0.836242139792E+02    0.28710E-03   -0.10012E-04 11568   0.104E-01    0.114E+00
DAV:  18    -0.836241023988E+02    0.11158E-03   -0.60471E-05 12000   0.508E-02    0.937E-01
DAV:  19    -0.836238095862E+02    0.29281E-03   -0.27825E-04 11504   0.156E-01    0.544E-01
DAV:  20    -0.836237130242E+02    0.96562E-04   -0.24488E-04 12152   0.112E-01    0.203E-01
DAV:  21    -0.836237024843E+02    0.10540E-04   -0.27952E-05 12568   0.452E-02    0.117E-01
DAV:  22    -0.836237022788E+02    0.20556E-06   -0.34329E-06 11600   0.147E-02    0.723E-02
DAV:  23    -0.836236995178E+02    0.27610E-05   -0.31989E-06 11432   0.180E-02    0.362E-02
DAV:  24    -0.836236986105E+02    0.90727E-06   -0.55193E-06 12608   0.197E-02    0.762E-03
DAV:  25    -0.836236987098E+02   -0.99358E-07   -0.30601E-07  7520   0.497E-03
   1 F= -.83623699E+02 E0= -.83623697E+02  d E =-.454461E-05
