generated by phonopy                    
   1.00000000000000     
    -0.0000000000000000    3.3577571554802050    3.3577571554802832
     3.3577571554802397   -0.0000000000000000    3.3577571554802832
     3.3577571554802397    3.3577571554802050   -0.0000000000000000
   Mg   Zr   Ca   Sc   H 
     1     1     1     1    24
Direct
  0.2500000000000000  0.2500000000000000  0.2500000000000000
  0.7500000000000000  0.7500000000000000  0.7500000000000000
  0.0000000000000000  0.0000000000000000 -0.0000000000000000
  0.5000000000000000  0.5000000000000000  0.5000000000000000
  0.1362746257763466  0.8824347908531895  0.6171978801292439
  0.8824347908531895  0.1362746257763466  0.3640927032412197
  0.6171978801292439  0.3640927032412197  0.1362746257763466
  0.3640927032412197  0.6171978801292439  0.8824347908531895
  0.6171978801292439  0.1362746257763466  0.8824347908531895
  0.3640927032412197  0.8824347908531895  0.1362746257763466
  0.1362746257763466  0.6171978801292439  0.3640927032412197
  0.8824347908531895  0.3640927032412197  0.6171978801292439
  0.8824347908531895  0.6171978801292439  0.1362746257763466
  0.1362746257763466  0.3640927032412197  0.8824347908531895
  0.3640927032412197  0.1362746257763466  0.6171978801292439
  0.6171978801292439  0.8824347908531895  0.3640927032412197
  0.1362746257763466  0.3640927032412197  0.6171978801292439
  0.3640927032412197  0.1362746257763466  0.8824347908531895
  0.6171978801292439  0.8824347908531895  0.1362746257763466
  0.8824347908531895  0.6171978801292439  0.3640927032412197
  0.6171978801292439  0.1362746257763466  0.3640927032412197
  0.8824347908531895  0.3640927032412197  0.1362746257763466
  0.1362746257763466  0.6171978801292439  0.8824347908531895
  0.3640927032412197  0.8824347908531895  0.6171978801292439
  0.3640927032412197  0.6171978801292439  0.1362746257763466
  0.1362746257763466  0.8824347908531895  0.3640927032412197
  0.8824347908531895  0.1362746257763466  0.6171978801292439
  0.6171978801292439  0.3640927032412197  0.8824347908531895
 
  0.00000000E+00  0.00000000E+00  0.00000000E+00
  0.00000000E+00  0.00000000E+00  0.00000000E+00
  0.00000000E+00  0.00000000E+00  0.00000000E+00
  0.00000000E+00  0.00000000E+00  0.00000000E+00
  0.00000000E+00  0.00000000E+00  0.00000000E+00
  0.00000000E+00  0.00000000E+00  0.00000000E+00
  0.00000000E+00  0.00000000E+00  0.00000000E+00
  0.00000000E+00  0.00000000E+00  0.00000000E+00
  0.00000000E+00  0.00000000E+00  0.00000000E+00
  0.00000000E+00  0.00000000E+00  0.00000000E+00
  0.00000000E+00  0.00000000E+00  0.00000000E+00
  0.00000000E+00  0.00000000E+00  0.00000000E+00
  0.00000000E+00  0.00000000E+00  0.00000000E+00
  0.00000000E+00  0.00000000E+00  0.00000000E+00
  0.00000000E+00  0.00000000E+00  0.00000000E+00
  0.00000000E+00  0.00000000E+00  0.00000000E+00
  0.00000000E+00  0.00000000E+00  0.00000000E+00
  0.00000000E+00  0.00000000E+00  0.00000000E+00
  0.00000000E+00  0.00000000E+00  0.00000000E+00
  0.00000000E+00  0.00000000E+00  0.00000000E+00
  0.00000000E+00  0.00000000E+00  0.00000000E+00
  0.00000000E+00  0.00000000E+00  0.00000000E+00
  0.00000000E+00  0.00000000E+00  0.00000000E+00
  0.00000000E+00  0.00000000E+00  0.00000000E+00
  0.00000000E+00  0.00000000E+00  0.00000000E+00
  0.00000000E+00  0.00000000E+00  0.00000000E+00
  0.00000000E+00  0.00000000E+00  0.00000000E+00
  0.00000000E+00  0.00000000E+00  0.00000000E+00
