generated by phonopy                    
   1.00000000000000     
     0.0000000000000000    3.1571211486916635    3.1571211486917656
     3.1571211486917079    0.0000000000000000    3.1571211486917656
     3.1571211486917079    3.1571211486916635    0.0000000000000000
   Na   Sc   K    Mg   H 
     1     1     1     1    24
Direct
  0.2500000000000000  0.2500000000000000  0.2500000000000000
  0.7500000000000000  0.7500000000000000  0.7500000000000000
  0.0000000000000000  0.0000000000000000  0.0000000000000000
  0.5000000000000000  0.5000000000000000  0.5000000000000000
  0.1408009163690522  0.8718428169963133  0.6107490699074631
  0.8718428169963133  0.1408009163690522  0.3766071967271643
  0.6107490699074631  0.3766071967271643  0.1408009163690522
  0.3766071967271643  0.6107490699074631  0.8718428169963133
  0.6107490699074631  0.1408009163690522  0.8718428169963133
  0.3766071967271643  0.8718428169963133  0.1408009163690522
  0.1408009163690522  0.6107490699074631  0.3766071967271643
  0.8718428169963133  0.3766071967271643  0.6107490699074631
  0.8718428169963133  0.6107490699074631  0.1408009163690522
  0.1408009163690522  0.3766071967271643  0.8718428169963133
  0.3766071967271643  0.1408009163690522  0.6107490699074631
  0.6107490699074631  0.8718428169963133  0.3766071967271643
  0.1408009163690522  0.3766071967271643  0.6107490699074631
  0.3766071967271643  0.1408009163690522  0.8718428169963133
  0.6107490699074631  0.8718428169963133  0.1408009163690522
  0.8718428169963133  0.6107490699074631  0.3766071967271643
  0.6107490699074631  0.1408009163690522  0.3766071967271643
  0.8718428169963133  0.3766071967271643  0.1408009163690522
  0.1408009163690522  0.6107490699074631  0.8718428169963133
  0.3766071967271643  0.8718428169963133  0.6107490699074631
  0.3766071967271643  0.6107490699074631  0.1408009163690522
  0.1408009163690522  0.8718428169963133  0.3766071967271643
  0.8718428169963133  0.1408009163690522  0.6107490699074631
  0.6107490699074631  0.3766071967271643  0.8718428169963133
 
  0.00000000E+00  0.00000000E+00  0.00000000E+00
  0.00000000E+00  0.00000000E+00  0.00000000E+00
  0.00000000E+00  0.00000000E+00  0.00000000E+00
  0.00000000E+00  0.00000000E+00  0.00000000E+00
  0.00000000E+00  0.00000000E+00  0.00000000E+00
  0.00000000E+00  0.00000000E+00  0.00000000E+00
  0.00000000E+00  0.00000000E+00  0.00000000E+00
  0.00000000E+00  0.00000000E+00  0.00000000E+00
  0.00000000E+00  0.00000000E+00  0.00000000E+00
  0.00000000E+00  0.00000000E+00  0.00000000E+00
  0.00000000E+00  0.00000000E+00  0.00000000E+00
  0.00000000E+00  0.00000000E+00  0.00000000E+00
  0.00000000E+00  0.00000000E+00  0.00000000E+00
  0.00000000E+00  0.00000000E+00  0.00000000E+00
  0.00000000E+00  0.00000000E+00  0.00000000E+00
  0.00000000E+00  0.00000000E+00  0.00000000E+00
  0.00000000E+00  0.00000000E+00  0.00000000E+00
  0.00000000E+00  0.00000000E+00  0.00000000E+00
  0.00000000E+00  0.00000000E+00  0.00000000E+00
  0.00000000E+00  0.00000000E+00  0.00000000E+00
  0.00000000E+00  0.00000000E+00  0.00000000E+00
  0.00000000E+00  0.00000000E+00  0.00000000E+00
  0.00000000E+00  0.00000000E+00  0.00000000E+00
  0.00000000E+00  0.00000000E+00  0.00000000E+00
  0.00000000E+00  0.00000000E+00  0.00000000E+00
  0.00000000E+00  0.00000000E+00  0.00000000E+00
  0.00000000E+00  0.00000000E+00  0.00000000E+00
  0.00000000E+00  0.00000000E+00  0.00000000E+00
