generated by phonopy                    
   1.00000000000000     
     0.0000000000000000    3.2973437066486055    3.2973437066486806
     3.2973437066486371    0.0000000000000000    3.2973437066486806
     3.2973437066486371    3.2973437066486055    0.0000000000000000
   Y    Hf   Ti   Zr   H 
     1     1     1     1    24
Direct
  0.2500000000000000  0.2500000000000000  0.2500000000000000
  0.7500000000000000  0.7500000000000000  0.7500000000000000
  0.0000000000000000  0.0000000000000000  0.0000000000000000
  0.5000000000000000  0.5000000000000000  0.5000000000000000
  0.1222624714185159  0.8787689963829379  0.6325692661444364
  0.8787689963829379  0.1222624714185159  0.3663992660541027
  0.6325692661444364  0.3663992660541027  0.1222624714185159
  0.3663992660541027  0.6325692661444364  0.8787689963829379
  0.6325692661444364  0.1222624714185159  0.8787689963829379
  0.3663992660541027  0.8787689963829379  0.1222624714185159
  0.1222624714185159  0.6325692661444364  0.3663992660541027
  0.8787689963829379  0.3663992660541027  0.6325692661444364
  0.8787689963829379  0.6325692661444364  0.1222624714185159
  0.1222624714185159  0.3663992660541027  0.8787689963829379
  0.3663992660541027  0.1222624714185159  0.6325692661444364
  0.6325692661444364  0.8787689963829379  0.3663992660541027
  0.1222624714185159  0.3663992660541027  0.6325692661444364
  0.3663992660541027  0.1222624714185159  0.8787689963829379
  0.6325692661444364  0.8787689963829379  0.1222624714185159
  0.8787689963829379  0.6325692661444364  0.3663992660541027
  0.6325692661444364  0.1222624714185159  0.3663992660541027
  0.8787689963829379  0.3663992660541027  0.1222624714185159
  0.1222624714185159  0.6325692661444364  0.8787689963829379
  0.3663992660541027  0.8787689963829379  0.6325692661444364
  0.3663992660541027  0.6325692661444364  0.1222624714185159
  0.1222624714185159  0.8787689963829379  0.3663992660541027
  0.8787689963829379  0.1222624714185159  0.6325692661444364
  0.6325692661444364  0.3663992660541027  0.8787689963829379
 
  0.00000000E+00  0.00000000E+00  0.00000000E+00
  0.00000000E+00  0.00000000E+00  0.00000000E+00
  0.00000000E+00  0.00000000E+00  0.00000000E+00
  0.00000000E+00  0.00000000E+00  0.00000000E+00
  0.00000000E+00  0.00000000E+00  0.00000000E+00
  0.00000000E+00  0.00000000E+00  0.00000000E+00
  0.00000000E+00  0.00000000E+00  0.00000000E+00
  0.00000000E+00  0.00000000E+00  0.00000000E+00
  0.00000000E+00  0.00000000E+00  0.00000000E+00
  0.00000000E+00  0.00000000E+00  0.00000000E+00
  0.00000000E+00  0.00000000E+00  0.00000000E+00
  0.00000000E+00  0.00000000E+00  0.00000000E+00
  0.00000000E+00  0.00000000E+00  0.00000000E+00
  0.00000000E+00  0.00000000E+00  0.00000000E+00
  0.00000000E+00  0.00000000E+00  0.00000000E+00
  0.00000000E+00  0.00000000E+00  0.00000000E+00
  0.00000000E+00  0.00000000E+00  0.00000000E+00
  0.00000000E+00  0.00000000E+00  0.00000000E+00
  0.00000000E+00  0.00000000E+00  0.00000000E+00
  0.00000000E+00  0.00000000E+00  0.00000000E+00
  0.00000000E+00  0.00000000E+00  0.00000000E+00
  0.00000000E+00  0.00000000E+00  0.00000000E+00
  0.00000000E+00  0.00000000E+00  0.00000000E+00
  0.00000000E+00  0.00000000E+00  0.00000000E+00
  0.00000000E+00  0.00000000E+00  0.00000000E+00
  0.00000000E+00  0.00000000E+00  0.00000000E+00
  0.00000000E+00  0.00000000E+00  0.00000000E+00
  0.00000000E+00  0.00000000E+00  0.00000000E+00
