generated by phonopy                    
   1.00000000000000     
     0.0000000000000000    3.3862149482552590    3.3862149482553803
     3.3862149482553101    0.0000000000000000    3.3862149482553803
     3.3862149482553101    3.3862149482552590    0.0000000000000000
   Na   Zr   Sc   Y    H 
     1     1     1     1    24
Direct
  0.2500000000000000  0.2500000000000000  0.2500000000000000
  0.7500000000000000  0.7500000000000000  0.7500000000000000
  0.0000000000000000  0.0000000000000000  0.0000000000000000
  0.5000000000000000  0.5000000000000000  0.5000000000000000
  0.1308503696062502  0.8906452521132309  0.6188083699185327
  0.8906452521132309  0.1308503696062502  0.3596960083619933
  0.6188083699185327  0.3596960083619933  0.1308503696062502
  0.3596960083619933  0.6188083699185327  0.8906452521132309
  0.6188083699185327  0.1308503696062502  0.8906452521132309
  0.3596960083619933  0.8906452521132309  0.1308503696062502
  0.1308503696062502  0.6188083699185327  0.3596960083619933
  0.8906452521132309  0.3596960083619933  0.6188083699185327
  0.8906452521132309  0.6188083699185327  0.1308503696062502
  0.1308503696062502  0.3596960083619933  0.8906452521132309
  0.3596960083619933  0.1308503696062502  0.6188083699185327
  0.6188083699185327  0.8906452521132309  0.3596960083619933
  0.1308503696062502  0.3596960083619933  0.6188083699185327
  0.3596960083619933  0.1308503696062502  0.8906452521132309
  0.6188083699185327  0.8906452521132309  0.1308503696062502
  0.8906452521132309  0.6188083699185327  0.3596960083619933
  0.6188083699185327  0.1308503696062502  0.3596960083619933
  0.8906452521132309  0.3596960083619933  0.1308503696062502
  0.1308503696062502  0.6188083699185327  0.8906452521132309
  0.3596960083619933  0.8906452521132309  0.6188083699185327
  0.3596960083619933  0.6188083699185327  0.1308503696062502
  0.1308503696062502  0.8906452521132309  0.3596960083619933
  0.8906452521132309  0.1308503696062502  0.6188083699185327
  0.6188083699185327  0.3596960083619933  0.8906452521132309
 
  0.00000000E+00  0.00000000E+00  0.00000000E+00
  0.00000000E+00  0.00000000E+00  0.00000000E+00
  0.00000000E+00  0.00000000E+00  0.00000000E+00
  0.00000000E+00  0.00000000E+00  0.00000000E+00
  0.00000000E+00  0.00000000E+00  0.00000000E+00
  0.00000000E+00  0.00000000E+00  0.00000000E+00
  0.00000000E+00  0.00000000E+00  0.00000000E+00
  0.00000000E+00  0.00000000E+00  0.00000000E+00
  0.00000000E+00  0.00000000E+00  0.00000000E+00
  0.00000000E+00  0.00000000E+00  0.00000000E+00
  0.00000000E+00  0.00000000E+00  0.00000000E+00
  0.00000000E+00  0.00000000E+00  0.00000000E+00
  0.00000000E+00  0.00000000E+00  0.00000000E+00
  0.00000000E+00  0.00000000E+00  0.00000000E+00
  0.00000000E+00  0.00000000E+00  0.00000000E+00
  0.00000000E+00  0.00000000E+00  0.00000000E+00
  0.00000000E+00  0.00000000E+00  0.00000000E+00
  0.00000000E+00  0.00000000E+00  0.00000000E+00
  0.00000000E+00  0.00000000E+00  0.00000000E+00
  0.00000000E+00  0.00000000E+00  0.00000000E+00
  0.00000000E+00  0.00000000E+00  0.00000000E+00
  0.00000000E+00  0.00000000E+00  0.00000000E+00
  0.00000000E+00  0.00000000E+00  0.00000000E+00
  0.00000000E+00  0.00000000E+00  0.00000000E+00
  0.00000000E+00  0.00000000E+00  0.00000000E+00
  0.00000000E+00  0.00000000E+00  0.00000000E+00
  0.00000000E+00  0.00000000E+00  0.00000000E+00
  0.00000000E+00  0.00000000E+00  0.00000000E+00
