generated by phonopy                    
   1.00000000000000     
     0.0000000000000000    3.2637412765903564    3.2637412765904483
     3.2637412765903968    0.0000000000000000    3.2637412765904483
     3.2637412765903968    3.2637412765903564    0.0000000000000000
   Mg   Zr   Ti   Ce   H 
     1     1     1     1    24
Direct
  0.2500000000000000  0.2500000000000000  0.2500000000000000
  0.7500000000000000  0.7500000000000000  0.7500000000000000
  0.0000000000000000  0.0000000000000000  0.0000000000000000
  0.5000000000000000  0.5000000000000000  0.5000000000000000
  0.1283804186854312  0.8908733922749548  0.6232596536961807
  0.8908733922749548  0.1283804186854312  0.3574865353434333
  0.6232596536961807  0.3574865353434333  0.1283804186854312
  0.3574865353434333  0.6232596536961807  0.8908733922749548
  0.6232596536961807  0.1283804186854312  0.8908733922749548
  0.3574865353434333  0.8908733922749548  0.1283804186854312
  0.1283804186854312  0.6232596536961807  0.3574865353434333
  0.8908733922749548  0.3574865353434333  0.6232596536961807
  0.8908733922749548  0.6232596536961807  0.1283804186854312
  0.1283804186854312  0.3574865353434333  0.8908733922749548
  0.3574865353434333  0.1283804186854312  0.6232596536961807
  0.6232596536961807  0.8908733922749548  0.3574865353434333
  0.1283804186854312  0.3574865353434333  0.6232596536961807
  0.3574865353434333  0.1283804186854312  0.8908733922749548
  0.6232596536961807  0.8908733922749548  0.1283804186854312
  0.8908733922749548  0.6232596536961807  0.3574865353434333
  0.6232596536961807  0.1283804186854312  0.3574865353434333
  0.8908733922749548  0.3574865353434333  0.1283804186854312
  0.1283804186854312  0.6232596536961807  0.8908733922749548
  0.3574865353434333  0.8908733922749548  0.6232596536961807
  0.3574865353434333  0.6232596536961807  0.1283804186854312
  0.1283804186854312  0.8908733922749548  0.3574865353434333
  0.8908733922749548  0.1283804186854312  0.6232596536961807
  0.6232596536961807  0.3574865353434333  0.8908733922749548
 
  0.00000000E+00  0.00000000E+00  0.00000000E+00
  0.00000000E+00  0.00000000E+00  0.00000000E+00
  0.00000000E+00  0.00000000E+00  0.00000000E+00
  0.00000000E+00  0.00000000E+00  0.00000000E+00
  0.00000000E+00  0.00000000E+00  0.00000000E+00
  0.00000000E+00  0.00000000E+00  0.00000000E+00
  0.00000000E+00  0.00000000E+00  0.00000000E+00
  0.00000000E+00  0.00000000E+00  0.00000000E+00
  0.00000000E+00  0.00000000E+00  0.00000000E+00
  0.00000000E+00  0.00000000E+00  0.00000000E+00
  0.00000000E+00  0.00000000E+00  0.00000000E+00
  0.00000000E+00  0.00000000E+00  0.00000000E+00
  0.00000000E+00  0.00000000E+00  0.00000000E+00
  0.00000000E+00  0.00000000E+00  0.00000000E+00
  0.00000000E+00  0.00000000E+00  0.00000000E+00
  0.00000000E+00  0.00000000E+00  0.00000000E+00
  0.00000000E+00  0.00000000E+00  0.00000000E+00
  0.00000000E+00  0.00000000E+00  0.00000000E+00
  0.00000000E+00  0.00000000E+00  0.00000000E+00
  0.00000000E+00  0.00000000E+00  0.00000000E+00
  0.00000000E+00  0.00000000E+00  0.00000000E+00
  0.00000000E+00  0.00000000E+00  0.00000000E+00
  0.00000000E+00  0.00000000E+00  0.00000000E+00
  0.00000000E+00  0.00000000E+00  0.00000000E+00
  0.00000000E+00  0.00000000E+00  0.00000000E+00
  0.00000000E+00  0.00000000E+00  0.00000000E+00
  0.00000000E+00  0.00000000E+00  0.00000000E+00
  0.00000000E+00  0.00000000E+00  0.00000000E+00
