generated by phonopy                    
   1.00000000000000     
     0.0000000000000000    3.2556804735504286    3.2556804735504863
     3.2556804735504534    0.0000000000000000    3.2556804735504863
     3.2556804735504534    3.2556804735504286    0.0000000000000000
   Sc   Zr   Ti   Hf   H 
     1     1     1     1    24
Direct
  0.2500000000000000  0.2500000000000000  0.2500000000000000
  0.7500000000000000  0.7500000000000000  0.7500000000000000
  0.0000000000000000  0.0000000000000000  0.0000000000000000
  0.5000000000000000  0.5000000000000000  0.5000000000000000
  0.1233750444094994  0.8864353942799283  0.6260099142949684
  0.8864353942799283  0.1233750444094994  0.3641796470156038
  0.6260099142949684  0.3641796470156038  0.1233750444094994
  0.3641796470156038  0.6260099142949684  0.8864353942799283
  0.6260099142949684  0.1233750444094994  0.8864353942799283
  0.3641796470156038  0.8864353942799283  0.1233750444094994
  0.1233750444094994  0.6260099142949684  0.3641796470156038
  0.8864353942799283  0.3641796470156038  0.6260099142949684
  0.8864353942799283  0.6260099142949684  0.1233750444094994
  0.1233750444094994  0.3641796470156038  0.8864353942799283
  0.3641796470156038  0.1233750444094994  0.6260099142949684
  0.6260099142949684  0.8864353942799283  0.3641796470156038
  0.1233750444094994  0.3641796470156038  0.6260099142949684
  0.3641796470156038  0.1233750444094994  0.8864353942799283
  0.6260099142949684  0.8864353942799283  0.1233750444094994
  0.8864353942799283  0.6260099142949684  0.3641796470156038
  0.6260099142949684  0.1233750444094994  0.3641796470156038
  0.8864353942799283  0.3641796470156038  0.1233750444094994
  0.1233750444094994  0.6260099142949684  0.8864353942799283
  0.3641796470156038  0.8864353942799283  0.6260099142949684
  0.3641796470156038  0.6260099142949684  0.1233750444094994
  0.1233750444094994  0.8864353942799283  0.3641796470156038
  0.8864353942799283  0.1233750444094994  0.6260099142949684
  0.6260099142949684  0.3641796470156038  0.8864353942799283
 
  0.00000000E+00  0.00000000E+00  0.00000000E+00
  0.00000000E+00  0.00000000E+00  0.00000000E+00
  0.00000000E+00  0.00000000E+00  0.00000000E+00
  0.00000000E+00  0.00000000E+00  0.00000000E+00
  0.00000000E+00  0.00000000E+00  0.00000000E+00
  0.00000000E+00  0.00000000E+00  0.00000000E+00
  0.00000000E+00  0.00000000E+00  0.00000000E+00
  0.00000000E+00  0.00000000E+00  0.00000000E+00
  0.00000000E+00  0.00000000E+00  0.00000000E+00
  0.00000000E+00  0.00000000E+00  0.00000000E+00
  0.00000000E+00  0.00000000E+00  0.00000000E+00
  0.00000000E+00  0.00000000E+00  0.00000000E+00
  0.00000000E+00  0.00000000E+00  0.00000000E+00
  0.00000000E+00  0.00000000E+00  0.00000000E+00
  0.00000000E+00  0.00000000E+00  0.00000000E+00
  0.00000000E+00  0.00000000E+00  0.00000000E+00
  0.00000000E+00  0.00000000E+00  0.00000000E+00
  0.00000000E+00  0.00000000E+00  0.00000000E+00
  0.00000000E+00  0.00000000E+00  0.00000000E+00
  0.00000000E+00  0.00000000E+00  0.00000000E+00
  0.00000000E+00  0.00000000E+00  0.00000000E+00
  0.00000000E+00  0.00000000E+00  0.00000000E+00
  0.00000000E+00  0.00000000E+00  0.00000000E+00
  0.00000000E+00  0.00000000E+00  0.00000000E+00
  0.00000000E+00  0.00000000E+00  0.00000000E+00
  0.00000000E+00  0.00000000E+00  0.00000000E+00
  0.00000000E+00  0.00000000E+00  0.00000000E+00
  0.00000000E+00  0.00000000E+00  0.00000000E+00
