generated by phonopy                    
   1.00000000000000     
     0.0000000000000000    3.2491491378841744    3.2491491378842667
     3.2491491378842148    0.0000000000000000    3.2491491378842667
     3.2491491378842148    3.2491491378841744    0.0000000000000000
   Na   Zr   Ca   Hf   H 
     1     1     1     1    24
Direct
  0.2500000000000000  0.2500000000000000  0.2500000000000000
  0.7500000000000000  0.7500000000000000  0.7500000000000000
  0.0000000000000000  0.0000000000000000  0.0000000000000000
  0.5000000000000000  0.5000000000000000  0.5000000000000000
  0.1291561348401231  0.8930294905801972  0.6171968333422697
  0.8930294905801972  0.1291561348401231  0.3606175412374171
  0.6171968333422697  0.3606175412374171  0.1291561348401231
  0.3606175412374171  0.6171968333422697  0.8930294905801972
  0.6171968333422697  0.1291561348401231  0.8930294905801972
  0.3606175412374171  0.8930294905801972  0.1291561348401231
  0.1291561348401231  0.6171968333422697  0.3606175412374171
  0.8930294905801972  0.3606175412374171  0.6171968333422697
  0.8930294905801972  0.6171968333422697  0.1291561348401231
  0.1291561348401231  0.3606175412374171  0.8930294905801972
  0.3606175412374171  0.1291561348401231  0.6171968333422697
  0.6171968333422697  0.8930294905801972  0.3606175412374171
  0.1291561348401231  0.3606175412374171  0.6171968333422697
  0.3606175412374171  0.1291561348401231  0.8930294905801972
  0.6171968333422697  0.8930294905801972  0.1291561348401231
  0.8930294905801972  0.6171968333422697  0.3606175412374171
  0.6171968333422697  0.1291561348401231  0.3606175412374171
  0.8930294905801972  0.3606175412374171  0.1291561348401231
  0.1291561348401231  0.6171968333422697  0.8930294905801972
  0.3606175412374171  0.8930294905801972  0.6171968333422697
  0.3606175412374171  0.6171968333422697  0.1291561348401231
  0.1291561348401231  0.8930294905801972  0.3606175412374171
  0.8930294905801972  0.1291561348401231  0.6171968333422697
  0.6171968333422697  0.3606175412374171  0.8930294905801972
 
  0.00000000E+00  0.00000000E+00  0.00000000E+00
  0.00000000E+00  0.00000000E+00  0.00000000E+00
  0.00000000E+00  0.00000000E+00  0.00000000E+00
  0.00000000E+00  0.00000000E+00  0.00000000E+00
  0.00000000E+00  0.00000000E+00  0.00000000E+00
  0.00000000E+00  0.00000000E+00  0.00000000E+00
  0.00000000E+00  0.00000000E+00  0.00000000E+00
  0.00000000E+00  0.00000000E+00  0.00000000E+00
  0.00000000E+00  0.00000000E+00  0.00000000E+00
  0.00000000E+00  0.00000000E+00  0.00000000E+00
  0.00000000E+00  0.00000000E+00  0.00000000E+00
  0.00000000E+00  0.00000000E+00  0.00000000E+00
  0.00000000E+00  0.00000000E+00  0.00000000E+00
  0.00000000E+00  0.00000000E+00  0.00000000E+00
  0.00000000E+00  0.00000000E+00  0.00000000E+00
  0.00000000E+00  0.00000000E+00  0.00000000E+00
  0.00000000E+00  0.00000000E+00  0.00000000E+00
  0.00000000E+00  0.00000000E+00  0.00000000E+00
  0.00000000E+00  0.00000000E+00  0.00000000E+00
  0.00000000E+00  0.00000000E+00  0.00000000E+00
  0.00000000E+00  0.00000000E+00  0.00000000E+00
  0.00000000E+00  0.00000000E+00  0.00000000E+00
  0.00000000E+00  0.00000000E+00  0.00000000E+00
  0.00000000E+00  0.00000000E+00  0.00000000E+00
  0.00000000E+00  0.00000000E+00  0.00000000E+00
  0.00000000E+00  0.00000000E+00  0.00000000E+00
  0.00000000E+00  0.00000000E+00  0.00000000E+00
  0.00000000E+00  0.00000000E+00  0.00000000E+00
