all                                     
           1
     0.000000    3.357757    3.357757
     3.357757    0.000000    3.357757
     3.357757    3.357757    0.000000
   Mg   Zr   Ca   Sc   H 
   1   1   1   1  24
Direct configuration=     1
   0.25000000  0.25000000  0.25000000
   0.75000000  0.75000000  0.75000000
   0.00000000  0.00000000  0.00000000
   0.50000000  0.50000000  0.50000000
   0.13627463  0.88243479  0.61719788
   0.88243479  0.13627463  0.36409270
   0.61719788  0.36409270  0.13627463
   0.36409270  0.61719788  0.88243479
   0.61719788  0.13627463  0.88243479
   0.36409270  0.88243479  0.13627463
   0.13627463  0.61719788  0.36409270
   0.88243479  0.36409270  0.61719788
   0.88243479  0.61719788  0.13627463
   0.13627463  0.36409270  0.88243479
   0.36409270  0.13627463  0.61719788
   0.61719788  0.88243479  0.36409270
   0.13627463  0.36409270  0.61719788
   0.36409270  0.13627463  0.88243479
   0.61719788  0.88243479  0.13627463
   0.88243479  0.61719788  0.36409270
   0.61719788  0.13627463  0.36409270
   0.88243479  0.36409270  0.13627463
   0.13627463  0.61719788  0.88243479
   0.36409270  0.88243479  0.61719788
   0.36409270  0.61719788  0.13627463
   0.13627463  0.88243479  0.36409270
   0.88243479  0.13627463  0.61719788
   0.61719788  0.36409270  0.88243479
