generated by phonopy                    
   1.00000000000000     
     0.0000000000000000    3.1984440820729034    3.1984440820730495
     3.1984440820729652    0.0000000000000000    3.1984440820730495
     3.1984440820729652    3.1984440820729034    0.0000000000000000
   Na   Ca   Mg   Y    H 
     1     1     1     1    24
Direct
  0.2500000000000000  0.2500000000000000  0.2500000000000000
  0.7500000000000000  0.7500000000000000  0.7500000000000000
  0.0000000000000000  0.0000000000000000  0.0000000000000000
  0.5000000000000000  0.5000000000000000  0.5000000000000000
  0.1180303957704609  0.8955460051165076  0.6279767240563316
  0.8955460051165076  0.1180303957704609  0.3584468750567069
  0.6279767240563316  0.3584468750567069  0.1180303957704609
  0.3584468750567069  0.6279767240563316  0.8955460051165076
  0.6279767240563316  0.1180303957704609  0.8955460051165076
  0.3584468750567069  0.8955460051165076  0.1180303957704609
  0.1180303957704609  0.6279767240563316  0.3584468750567069
  0.8955460051165076  0.3584468750567069  0.6279767240563316
  0.8955460051165076  0.6279767240563316  0.1180303957704609
  0.1180303957704609  0.3584468750567069  0.8955460051165076
  0.3584468750567069  0.1180303957704609  0.6279767240563316
  0.6279767240563316  0.8955460051165076  0.3584468750567069
  0.1180303957704609  0.3584468750567069  0.6279767240563316
  0.3584468750567069  0.1180303957704609  0.8955460051165076
  0.6279767240563316  0.8955460051165076  0.1180303957704609
  0.8955460051165076  0.6279767240563316  0.3584468750567069
  0.6279767240563316  0.1180303957704609  0.3584468750567069
  0.8955460051165076  0.3584468750567069  0.1180303957704609
  0.1180303957704609  0.6279767240563316  0.8955460051165076
  0.3584468750567069  0.8955460051165076  0.6279767240563316
  0.3584468750567069  0.6279767240563316  0.1180303957704609
  0.1180303957704609  0.8955460051165076  0.3584468750567069
  0.8955460051165076  0.1180303957704609  0.6279767240563316
  0.6279767240563316  0.3584468750567069  0.8955460051165076
 
  0.00000000E+00  0.00000000E+00  0.00000000E+00
  0.00000000E+00  0.00000000E+00  0.00000000E+00
  0.00000000E+00  0.00000000E+00  0.00000000E+00
  0.00000000E+00  0.00000000E+00  0.00000000E+00
  0.00000000E+00  0.00000000E+00  0.00000000E+00
  0.00000000E+00  0.00000000E+00  0.00000000E+00
  0.00000000E+00  0.00000000E+00  0.00000000E+00
  0.00000000E+00  0.00000000E+00  0.00000000E+00
  0.00000000E+00  0.00000000E+00  0.00000000E+00
  0.00000000E+00  0.00000000E+00  0.00000000E+00
  0.00000000E+00  0.00000000E+00  0.00000000E+00
  0.00000000E+00  0.00000000E+00  0.00000000E+00
  0.00000000E+00  0.00000000E+00  0.00000000E+00
  0.00000000E+00  0.00000000E+00  0.00000000E+00
  0.00000000E+00  0.00000000E+00  0.00000000E+00
  0.00000000E+00  0.00000000E+00  0.00000000E+00
  0.00000000E+00  0.00000000E+00  0.00000000E+00
  0.00000000E+00  0.00000000E+00  0.00000000E+00
  0.00000000E+00  0.00000000E+00  0.00000000E+00
  0.00000000E+00  0.00000000E+00  0.00000000E+00
  0.00000000E+00  0.00000000E+00  0.00000000E+00
  0.00000000E+00  0.00000000E+00  0.00000000E+00
  0.00000000E+00  0.00000000E+00  0.00000000E+00
  0.00000000E+00  0.00000000E+00  0.00000000E+00
  0.00000000E+00  0.00000000E+00  0.00000000E+00
  0.00000000E+00  0.00000000E+00  0.00000000E+00
  0.00000000E+00  0.00000000E+00  0.00000000E+00
  0.00000000E+00  0.00000000E+00  0.00000000E+00
