POSCAR                                  
   1.00000000000000     
     9.8815812001489114   -0.0334323629241105    0.0393007094245152
    -0.0334372294411135    9.8996728592122221   -0.0066232763078264
     0.0261624055832109   -0.0043063100345646    6.5505455920026900
   Sc   Zr   K    Na   H 
     9     9     9     9   216
Direct
  0.1661041576287801  0.1603486976506190  0.2541744216664839
  0.1620859704200939  0.8395525481276067  0.2488390357738837
  0.3367692350655247  0.6774853041164022  0.4926743787639936
  0.3342477611539962  0.0016089707828115  0.4960345532483217
  0.8314805738076529  0.5047370981522405  0.2554321812684606
  0.9870072081506081  0.3259978375400223  0.4963605937645994
  0.8396046040221847  0.5070077113214211  0.7528727987787036
  0.6734450163352008  0.9888499929398264  0.4987719926566001
  0.9955074485336866  0.6785649080444358  0.5013560122679692
  0.1555036046065155  0.1592446849404183  0.7529228359013160
  0.1644725166782308  0.5056786645751146  0.2488780306179379
  0.5035006210136217  0.1616087869950817  0.7445426640360466
  0.3383198630561211  0.3381570788572503  0.0062685246549705
  0.3327910237995440  0.6697842746372871  0.9862812173861784
  0.8349251265392468  0.1521358538314601  0.7519917598107781
  0.3402813087211882  0.9975548904953015  0.0008392934796646
  0.6757203235890188  0.6707165358556111  0.0076352760718805
  0.9892071855399465  0.3331297233426298  0.0057663058021689
  0.5150710437824984  0.1804363037783574  0.2494377040919602
  0.3114052136989045  0.3459401644618012  0.5119828185559214
  0.1730921462307933  0.4897710368431163  0.7366441697452615
  0.1682455646028203  0.8300537917393029  0.7516218059396351
  0.6489507981560081  0.3308391154715835  0.5100052973002960
  0.5197455450939898  0.5022113649985798  0.7197596433415399
  0.6610689043728541  0.3184885722594544  0.0207732010818802
  0.6573253336018539  0.6626888599619960  0.5124937030972987
  0.8352034044490964  0.8390268343420786  0.2463581009013396
  0.4989316285756189  0.5154851090884094  0.2292457947055837
  0.8390393152851416  0.1664190019161964  0.2527749829930954
  0.5042883904056552  0.8389650829119120  0.2447792247697649
  0.5068309879043582  0.8325696192400613  0.7450413827117401
  0.8354393583337085  0.8311267967083609  0.7500399499251742
  0.6734196985035013  0.9930647916799273  0.0010531062727708
  0.0042816007074151  0.6689458500836167  0.9990279994448699
  0.9978807471810569  0.9950376167781911  0.5023795773024418
  0.9940041333911012  0.9918532110414517  0.0098371971167239
  0.1559743115794134  0.0793655549477421  0.0127864906710258
  0.1550212529953114  0.0803007997661283  0.4919791613139139
  0.1642989792697378  0.4144637827494648  0.0009836305163020
  0.5153170822584485  0.0806222199316409  0.0097664449875410
  0.3345193740358567  0.2539316691385665  0.2599212592152469
  0.1371100383346047  0.4143066368490906  0.4845973284359104
  0.5037450043458520  0.0810041044837959  0.4870236583170708
  0.3359722598888766  0.2464184604499167  0.7579334849481540
  0.1640890015988248  0.7492229509641675  0.0093948254130325
  0.4998371337164613  0.4204243413654609  0.9855077858341090
  0.3396423396703483  0.5922112247054230  0.2466804644102112
  0.1664481753944713  0.7538865285003027  0.4898004508203542
  0.8364323971948551  0.0737873344207713  0.0284454327521004
  0.6938384256984804  0.2444280511019983  0.2768430944706068
  0.4794046037767146  0.4236570695501172  0.4553843759422662
  0.3444050481026082  0.5801828401111351  0.7346947328599072
  0.8386081175916758  0.0795657858016696  0.4880833700052278
  0.6806621949714469  0.2511987997323715  0.7576912592303557
  0.5005106452346126  0.7558121913181566  0.9964470836623960
  0.3352149775417246  0.9174620435251413  0.2523720403063976
  0.8201927636934201  0.4171035902895852  0.0017155985025994
  0.6689809289255635  0.5843535831123603  0.2516529751897636
  0.4977525073322511  0.7595688761007011  0.4964494160273958
  0.3413619752708641  0.9150751862964341  0.7391643545595272
  0.9956762444785525  0.2465633632466435  0.2550546752315270
  0.8254853319901443  0.4146303075175624  0.4967228633406933
  0.6844625596435279  0.5815713330123700  0.7696558613891966
  0.9882782044802667  0.2528147972829373  0.7514301931290746
  0.8483179135973558  0.7550369482856567  0.9932590388054408
  0.6645042320233259  0.9137062318147500  0.2333310861312512
  0.9955793298697131  0.5874441443744445  0.2503169416013975
  0.8303818305050825  0.7542891471453501  0.5084313944933569
  0.6658073846020329  0.9111617976755255  0.7551531646240477
  0.0037796052629844  0.5792930519329360  0.7551803373269479
  0.0050156255737051  0.9190320483934968  0.2598471694868323
  0.9964253206051339  0.9074497346063097  0.7603171134982816
  0.0834270088788358  0.1532076084911935  0.0115535187789888
  0.0808707551226604  0.1470432137374189  0.4943749143201259
  0.0790491336930472  0.5040586351019840  0.9936653620539317
  0.4178576758210539  0.1635392162434002  0.0081364593576794
  0.2398012747316685  0.3322132519202441  0.2508740971251555
  0.0782955145043331  0.5206744719706791  0.4989727843969050
  0.4131667769779241  0.1764932406032713  0.4906331147105689
  0.2476368684328563  0.3177300512845349  0.7727664737392530
  0.0845055192773358  0.8414300151953356  0.0066773766297388
  0.4283752905513722  0.5101758607937938  0.9863416130316693
  0.2465390405073151  0.6740435580807542  0.2568062209300592
  0.0867138323368479  0.8410257136333712  0.5001077876839304
  0.7563720178926943  0.1562820968578436  0.0012240723201344
  0.5699344884157398  0.3645566332084798  0.2484356441358955
  0.4163807224116951  0.5154970165448631  0.4812487217520527
  0.2487185722140524  0.6616410991290707  0.7308567820043592
  0.7506059042550390  0.1640770996444019  0.4947160800152091
  0.5807308456526528  0.3282404165049755  0.7772986727886817
  0.4227745315945342  0.8321342500282967  0.0053780982622555
  0.2516201876371014  0.0010981211383125  0.2563142052513001
  0.7523367044247493  0.4941751982762952  0.0133073886505457
  0.5783532131631333  0.6758093381563981  0.2483750370871647
  0.4155693656840711  0.8412252959993722  0.4788990835462030
  0.2501432095282823  0.9997689530702232  0.7423467763341023
  0.9073627966827686  0.3326873544825446  0.2589336646200522
  0.7500759784912532  0.4958926632605127  0.5091015388051616
  0.5860377159024424  0.6788647725345953  0.7734696496710640
  0.9078771214400092  0.3312265877038101  0.7447740611553044
  0.7499334036867538  0.8370009496354882  0.9858129467147378
  0.5840988776677136  0.0024912561325579  0.2503742396967183
  0.9230374574106577  0.6729413760771408  0.2441288246044166
  0.7492535873310970  0.8265733067002188  0.5127895333546419
  0.5890400611366360  0.9911477380009828  0.7548429435859347
  0.9257720682327388  0.6802621726779208  0.7622727071176740
  0.9211326712759700  0.0082213631708612  0.2638479512435765
  0.9164054428734829  0.9905813762285689  0.7482454237795082
  0.1627551812805166  0.0019618730493747  0.1245928963184113
  0.1668197007743970  0.9943182199373766  0.6228820814693563
  0.1575402316931616  0.3250157004689669  0.1254270623107203
  0.5160687831171131  0.0024023296185050  0.1292875865719694
  0.3334451735151163  0.1684958710861224  0.3763086479536426
  0.1398560661945965  0.3212227255755451  0.6241300657757876
  0.4948383553692324  0.9866585338652811  0.6197914615502143
  0.3339495030355550  0.1646079948575405  0.8757167530689287
  0.1575373292885160  0.6737158982813440  0.1257562776759968
  0.5041513224729712  0.3567385947533168  0.1521132527013904
  0.3375285132698096  0.5069048267769958  0.3609762004170634
  0.1694961372901886  0.6635116308189168  0.6218126924427878
  0.8293666915469160  0.0129417166473473  0.1298029674299173
  0.6793557347790227  0.1476646490104940  0.3845803780641361
  0.4761400589895928  0.3258315416119402  0.6292971639224234
  0.3424203748273058  0.5053834658832912  0.8618644883599629
  0.8417344177723791  0.9800087613445712  0.6216552642387398
  0.6711237005234878  0.1492924245484630  0.8806456853467850
  0.4995591029490356  0.6776263022063702  0.1221483626581374
  0.3474467079224368  0.8406317148197644  0.3731114650486020
  0.8269476784080112  0.3354955938154944  0.1351888860906172
  0.6458516832228796  0.4951596676651775  0.3750674134511343
  0.4859262180540327  0.6822211747921330  0.6176759176743261
  0.3463758661119769  0.8356889408185850  0.8613827407797672
  0.9991388131835208  0.1624313032375042  0.3738147148108197
  0.8296646433027774  0.3461493910267279  0.6277384041991283
  0.6768901952512607  0.4834067439398240  0.8729123837597115
  0.9945695152938256  0.1527156760232273  0.8899194902927619
  0.8440448929969762  0.6655606028998520  0.1291197323638400
  0.6622571631210050  0.8294327013674305  0.3766937572385132
  0.9903673540066364  0.4993289442554456  0.3768464166997845
  0.8313403141142501  0.6709519370090149  0.6290916053167734
  0.6766878996822712  0.8393013835338792  0.8779003999447212
  0.0034259859481480  0.5127862909180081  0.8674251294055821
  0.9969413800925224  0.8390271073735178  0.3780507844922738
  0.9923945724228460  0.8416920602776017  0.8752561768841076
  0.0823981590553302  0.9977952261442624  0.2531182611970735
  0.0799595613596722  0.9927610301585403  0.7546494921457523
  0.0782561818070278  0.3314840631372320  0.2513443667750508
  0.4221309448366242  0.0041378897303517  0.2596138799889900
  0.2486414782731643  0.1642463052735934  0.5032824905411459
  0.0789856983011319  0.3310404473240283  0.7494374824339332
  0.4246140636767421  0.9918077456493108  0.7383009511858702
  0.2477492432443356  0.1667453228095752  0.9998841668707854
  0.0820854427183733  0.6707292901270492  0.2492635175752298
  0.4017543836870487  0.3388258970375162  0.2604080605647852
  0.2474203794004382  0.5240539867245886  0.4860117699311601
  0.0863821821440283  0.6600883552204166  0.7533171282996989
  0.7524585470013818  0.0042698938938557  0.2566918370843823
  0.5872770725970824  0.1438977971967788  0.4998865146761347
  0.4176047922232797  0.3432882641083665  0.7335432774989457
  0.2449292033630854  0.5010124186510367  0.9942956628130091
  0.7496708195506088  0.9913144630144757  0.7591804571696343
  0.5858080337019373  0.1420459127948277  0.9875104530480741
  0.4148395817629407  0.6757621417582627  0.2402490384287148
  0.2489065157094643  0.8349845150247077  0.4904002940840542
  0.7394465350397610  0.3121604591972869  0.2672994954838828
  0.5787010702797630  0.4997310225537177  0.4499328431403313
  0.4245409606600248  0.6677890265393600  0.7331229071458978
  0.2499011137578080  0.8360144587441596  0.0070227730269110
  0.9167858973730034  0.1533729258937413  0.4936644533002763
  0.7451783211600684  0.3165845735565540  0.7578773031991020
  0.5915628329495703  0.5007278771731407  0.9979796890741355
  0.9200917990871957  0.1522485492818006  0.0085019128423411
  0.7490154423816193  0.6706421047575830  0.2659265814436225
  0.5778915358676571  0.8361141000373351  0.4898050043543449
  0.9183665486535233  0.5050007874001636  0.5010687305037465
  0.7582138359799870  0.6735531955376004  0.7474745037870107
  0.5800847556135480  0.8375298667905753  0.9891806601305291
  0.9159034928851639  0.5098764717172699  0.9996556671698897
  0.9210092028956183  0.8353451418693183  0.5037721949134379
  0.9220505124174494  0.8218349810227394  0.9843232362319085
  0.9999695063695029  0.1530308499061803  0.1360298293926263
  0.9976695335872776  0.1607083321465765  0.6156203956062853
  0.9970354755404571  0.5082856028837242  0.1271366682254609
  0.3349767273079038  0.1648235954049824  0.1340718865404895
  0.1501033421962390  0.3235892338114255  0.3783157943747000
  0.9961668691393868  0.5006285820251080  0.6186857531056020
  0.3320532149332038  0.1644997709164713  0.6222393402768063
  0.1545097808856823  0.3284358514188170  0.8765497767210846
  0.0040753326338034  0.8244372759937733  0.1284114797708611
  0.3392847274947925  0.5076821855480134  0.1189730614164262
  0.1662490837916053  0.6777039139057308  0.3768948213527494
  0.9948507889568319  0.8392832273166633  0.6277005255291428
  0.6845579223690450  0.1411355622015691  0.1273127684258100
  0.4827846499796351  0.3550836892190929  0.3846580054150621
  0.3465684941744840  0.5208951984071177  0.6119377364646823
  0.1538192956646824  0.6587555670830483  0.8650093699476784
  0.6718954874629190  0.1554351236897702  0.6242775227570050
  0.5094170496146901  0.3417838309994252  0.8719896107215206
  0.3422600965171299  0.8357766739871337  0.1327864834135326
  0.1639680571054569  0.0011963289317691  0.3763511816988157
  0.6692018847973529  0.4962613439777641  0.1273904327836064
  0.4976156512169609  0.6727295762866774  0.3651290381199459
  0.3443034652854209  0.8393485214905354  0.6219967459975138
  0.1622751650183858  0.9949790765061834  0.8791960743475329
  0.8261272555131427  0.3360402043025346  0.3854370269936283
  0.6942358789405318  0.4948057888772510  0.6263744715234765
  0.5096193035834560  0.6720226061480403  0.8609431080367500
  0.8283516170285878  0.3415188526724435  0.8787236465520465
  0.6634974782644107  0.8485734829296518  0.1333672967908868
  0.5021405024252843  0.0024831573908273  0.3694404760941552
  0.8295500811901135  0.6648775592293532  0.3809259002989975
  0.6763417616907432  0.8331098269603174  0.6290095091457246
  0.5064512457594432  0.9892990734885743  0.8712459147987346
  0.8451034750762503  0.6673041093666825  0.8768433664731035
  0.8354333137472452  0.0105003431445283  0.3709692631271650
  0.8368584165106441  0.9775268980834682  0.8849739995713719
  0.9943303395542813  0.0799037565639225  0.2490154242995786
  0.9982560311502624  0.0695576806190346  0.7568761625114035
  0.9922089138008516  0.4184131781151308  0.2624670177070456
  0.3379928592448778  0.0887634148735117  0.2520709890621902
  0.1522099119583444  0.2472124322602554  0.4866610766916963
  0.9954945164869002  0.4160019138550695  0.7426898020245503
  0.3347457790151225  0.0804500081002715  0.7473443282336447
  0.1636562082106749  0.2482635236431747  0.0170352103962230
  0.9989458011404508  0.7508310231227782  0.2384840985884367
  0.3455383492400017  0.4252498621745602  0.2589022559536360
  0.1517011859370001  0.5864388513904899  0.5025887817341399
  0.9918908056353004  0.7456052284063048  0.7534756111635517
  0.6795259619695173  0.0869556426820424  0.2289565193763679
  0.4740091991977522  0.2511094054807117  0.5006962163810584
  0.3526187036730519  0.4173276396146193  0.7657595537026509
  0.1626967412117537  0.5809988585960042  0.9887823190489655
  0.6686285165990782  0.0706725809492781  0.7606011400811994
  0.4897781858057400  0.2510634662301356  0.9910151992873821
  0.3328571626425187  0.7581709301844768  0.2483337383140665
  0.1594371891182931  0.9171931594415241  0.4992482540946881
  0.6784092024074724  0.4202169583668294  0.2581465251793844
  0.4864230331773953  0.5919410058643209  0.4608294761354230
  0.3446340231245628  0.7581567428028180  0.7396196965648727
  0.1506165832774755  0.9131867873872110  0.0026106525296399
  0.8209857310117528  0.2475084244502241  0.4955979515336466
  0.6860207188636096  0.4149668038122343  0.7751999530797846
  0.4967055110710064  0.5830016661188964  0.9818652088196487
  0.8282936774379266  0.2426431569792342  0.0074079583935216
  0.6651672987919355  0.7508042635562688  0.2664343091589103
  0.5081299745669341  0.9167026061764432  0.5048074254940929
  0.8371382066663671  0.5873293242725879  0.4942669715054819
  0.6764873386149546  0.7522514769753386  0.7563844393126615
  0.5151093077121516  0.9142968288233746  0.9913716794776306
  0.8478977545887219  0.5849299207124190  0.0019669926450376
  0.8347652198722741  0.9164161455621382  0.5138236793955429
  0.8347426023789097  0.9153492249892849  0.9819434735712420
 
  0.00000000E+00  0.00000000E+00  0.00000000E+00
  0.00000000E+00  0.00000000E+00  0.00000000E+00
  0.00000000E+00  0.00000000E+00  0.00000000E+00
  0.00000000E+00  0.00000000E+00  0.00000000E+00
  0.00000000E+00  0.00000000E+00  0.00000000E+00
  0.00000000E+00  0.00000000E+00  0.00000000E+00
  0.00000000E+00  0.00000000E+00  0.00000000E+00
  0.00000000E+00  0.00000000E+00  0.00000000E+00
  0.00000000E+00  0.00000000E+00  0.00000000E+00
  0.00000000E+00  0.00000000E+00  0.00000000E+00
  0.00000000E+00  0.00000000E+00  0.00000000E+00
  0.00000000E+00  0.00000000E+00  0.00000000E+00
  0.00000000E+00  0.00000000E+00  0.00000000E+00
  0.00000000E+00  0.00000000E+00  0.00000000E+00
  0.00000000E+00  0.00000000E+00  0.00000000E+00
  0.00000000E+00  0.00000000E+00  0.00000000E+00
  0.00000000E+00  0.00000000E+00  0.00000000E+00
  0.00000000E+00  0.00000000E+00  0.00000000E+00
  0.00000000E+00  0.00000000E+00  0.00000000E+00
  0.00000000E+00  0.00000000E+00  0.00000000E+00
  0.00000000E+00  0.00000000E+00  0.00000000E+00
  0.00000000E+00  0.00000000E+00  0.00000000E+00
  0.00000000E+00  0.00000000E+00  0.00000000E+00
  0.00000000E+00  0.00000000E+00  0.00000000E+00
  0.00000000E+00  0.00000000E+00  0.00000000E+00
  0.00000000E+00  0.00000000E+00  0.00000000E+00
  0.00000000E+00  0.00000000E+00  0.00000000E+00
  0.00000000E+00  0.00000000E+00  0.00000000E+00
  0.00000000E+00  0.00000000E+00  0.00000000E+00
  0.00000000E+00  0.00000000E+00  0.00000000E+00
  0.00000000E+00  0.00000000E+00  0.00000000E+00
  0.00000000E+00  0.00000000E+00  0.00000000E+00
  0.00000000E+00  0.00000000E+00  0.00000000E+00
  0.00000000E+00  0.00000000E+00  0.00000000E+00
  0.00000000E+00  0.00000000E+00  0.00000000E+00
  0.00000000E+00  0.00000000E+00  0.00000000E+00
  0.00000000E+00  0.00000000E+00  0.00000000E+00
  0.00000000E+00  0.00000000E+00  0.00000000E+00
  0.00000000E+00  0.00000000E+00  0.00000000E+00
  0.00000000E+00  0.00000000E+00  0.00000000E+00
  0.00000000E+00  0.00000000E+00  0.00000000E+00
  0.00000000E+00  0.00000000E+00  0.00000000E+00
  0.00000000E+00  0.00000000E+00  0.00000000E+00
  0.00000000E+00  0.00000000E+00  0.00000000E+00
  0.00000000E+00  0.00000000E+00  0.00000000E+00
  0.00000000E+00  0.00000000E+00  0.00000000E+00
  0.00000000E+00  0.00000000E+00  0.00000000E+00
  0.00000000E+00  0.00000000E+00  0.00000000E+00
  0.00000000E+00  0.00000000E+00  0.00000000E+00
  0.00000000E+00  0.00000000E+00  0.00000000E+00
  0.00000000E+00  0.00000000E+00  0.00000000E+00
  0.00000000E+00  0.00000000E+00  0.00000000E+00
  0.00000000E+00  0.00000000E+00  0.00000000E+00
  0.00000000E+00  0.00000000E+00  0.00000000E+00
  0.00000000E+00  0.00000000E+00  0.00000000E+00
  0.00000000E+00  0.00000000E+00  0.00000000E+00
  0.00000000E+00  0.00000000E+00  0.00000000E+00
  0.00000000E+00  0.00000000E+00  0.00000000E+00
  0.00000000E+00  0.00000000E+00  0.00000000E+00
  0.00000000E+00  0.00000000E+00  0.00000000E+00
  0.00000000E+00  0.00000000E+00  0.00000000E+00
  0.00000000E+00  0.00000000E+00  0.00000000E+00
  0.00000000E+00  0.00000000E+00  0.00000000E+00
  0.00000000E+00  0.00000000E+00  0.00000000E+00
  0.00000000E+00  0.00000000E+00  0.00000000E+00
  0.00000000E+00  0.00000000E+00  0.00000000E+00
  0.00000000E+00  0.00000000E+00  0.00000000E+00
  0.00000000E+00  0.00000000E+00  0.00000000E+00
  0.00000000E+00  0.00000000E+00  0.00000000E+00
  0.00000000E+00  0.00000000E+00  0.00000000E+00
  0.00000000E+00  0.00000000E+00  0.00000000E+00
  0.00000000E+00  0.00000000E+00  0.00000000E+00
  0.00000000E+00  0.00000000E+00  0.00000000E+00
  0.00000000E+00  0.00000000E+00  0.00000000E+00
  0.00000000E+00  0.00000000E+00  0.00000000E+00
  0.00000000E+00  0.00000000E+00  0.00000000E+00
  0.00000000E+00  0.00000000E+00  0.00000000E+00
  0.00000000E+00  0.00000000E+00  0.00000000E+00
  0.00000000E+00  0.00000000E+00  0.00000000E+00
  0.00000000E+00  0.00000000E+00  0.00000000E+00
  0.00000000E+00  0.00000000E+00  0.00000000E+00
  0.00000000E+00  0.00000000E+00  0.00000000E+00
  0.00000000E+00  0.00000000E+00  0.00000000E+00
  0.00000000E+00  0.00000000E+00  0.00000000E+00
  0.00000000E+00  0.00000000E+00  0.00000000E+00
  0.00000000E+00  0.00000000E+00  0.00000000E+00
  0.00000000E+00  0.00000000E+00  0.00000000E+00
  0.00000000E+00  0.00000000E+00  0.00000000E+00
  0.00000000E+00  0.00000000E+00  0.00000000E+00
  0.00000000E+00  0.00000000E+00  0.00000000E+00
  0.00000000E+00  0.00000000E+00  0.00000000E+00
  0.00000000E+00  0.00000000E+00  0.00000000E+00
  0.00000000E+00  0.00000000E+00  0.00000000E+00
  0.00000000E+00  0.00000000E+00  0.00000000E+00
  0.00000000E+00  0.00000000E+00  0.00000000E+00
  0.00000000E+00  0.00000000E+00  0.00000000E+00
  0.00000000E+00  0.00000000E+00  0.00000000E+00
  0.00000000E+00  0.00000000E+00  0.00000000E+00
  0.00000000E+00  0.00000000E+00  0.00000000E+00
  0.00000000E+00  0.00000000E+00  0.00000000E+00
  0.00000000E+00  0.00000000E+00  0.00000000E+00
  0.00000000E+00  0.00000000E+00  0.00000000E+00
  0.00000000E+00  0.00000000E+00  0.00000000E+00
  0.00000000E+00  0.00000000E+00  0.00000000E+00
  0.00000000E+00  0.00000000E+00  0.00000000E+00
  0.00000000E+00  0.00000000E+00  0.00000000E+00
  0.00000000E+00  0.00000000E+00  0.00000000E+00
  0.00000000E+00  0.00000000E+00  0.00000000E+00
  0.00000000E+00  0.00000000E+00  0.00000000E+00
  0.00000000E+00  0.00000000E+00  0.00000000E+00
  0.00000000E+00  0.00000000E+00  0.00000000E+00
  0.00000000E+00  0.00000000E+00  0.00000000E+00
  0.00000000E+00  0.00000000E+00  0.00000000E+00
  0.00000000E+00  0.00000000E+00  0.00000000E+00
  0.00000000E+00  0.00000000E+00  0.00000000E+00
  0.00000000E+00  0.00000000E+00  0.00000000E+00
  0.00000000E+00  0.00000000E+00  0.00000000E+00
  0.00000000E+00  0.00000000E+00  0.00000000E+00
  0.00000000E+00  0.00000000E+00  0.00000000E+00
  0.00000000E+00  0.00000000E+00  0.00000000E+00
  0.00000000E+00  0.00000000E+00  0.00000000E+00
  0.00000000E+00  0.00000000E+00  0.00000000E+00
  0.00000000E+00  0.00000000E+00  0.00000000E+00
  0.00000000E+00  0.00000000E+00  0.00000000E+00
  0.00000000E+00  0.00000000E+00  0.00000000E+00
  0.00000000E+00  0.00000000E+00  0.00000000E+00
  0.00000000E+00  0.00000000E+00  0.00000000E+00
  0.00000000E+00  0.00000000E+00  0.00000000E+00
  0.00000000E+00  0.00000000E+00  0.00000000E+00
  0.00000000E+00  0.00000000E+00  0.00000000E+00
  0.00000000E+00  0.00000000E+00  0.00000000E+00
  0.00000000E+00  0.00000000E+00  0.00000000E+00
  0.00000000E+00  0.00000000E+00  0.00000000E+00
  0.00000000E+00  0.00000000E+00  0.00000000E+00
  0.00000000E+00  0.00000000E+00  0.00000000E+00
  0.00000000E+00  0.00000000E+00  0.00000000E+00
  0.00000000E+00  0.00000000E+00  0.00000000E+00
  0.00000000E+00  0.00000000E+00  0.00000000E+00
  0.00000000E+00  0.00000000E+00  0.00000000E+00
  0.00000000E+00  0.00000000E+00  0.00000000E+00
  0.00000000E+00  0.00000000E+00  0.00000000E+00
  0.00000000E+00  0.00000000E+00  0.00000000E+00
  0.00000000E+00  0.00000000E+00  0.00000000E+00
  0.00000000E+00  0.00000000E+00  0.00000000E+00
  0.00000000E+00  0.00000000E+00  0.00000000E+00
  0.00000000E+00  0.00000000E+00  0.00000000E+00
  0.00000000E+00  0.00000000E+00  0.00000000E+00
  0.00000000E+00  0.00000000E+00  0.00000000E+00
  0.00000000E+00  0.00000000E+00  0.00000000E+00
  0.00000000E+00  0.00000000E+00  0.00000000E+00
  0.00000000E+00  0.00000000E+00  0.00000000E+00
  0.00000000E+00  0.00000000E+00  0.00000000E+00
  0.00000000E+00  0.00000000E+00  0.00000000E+00
  0.00000000E+00  0.00000000E+00  0.00000000E+00
  0.00000000E+00  0.00000000E+00  0.00000000E+00
  0.00000000E+00  0.00000000E+00  0.00000000E+00
  0.00000000E+00  0.00000000E+00  0.00000000E+00
  0.00000000E+00  0.00000000E+00  0.00000000E+00
  0.00000000E+00  0.00000000E+00  0.00000000E+00
  0.00000000E+00  0.00000000E+00  0.00000000E+00
  0.00000000E+00  0.00000000E+00  0.00000000E+00
  0.00000000E+00  0.00000000E+00  0.00000000E+00
  0.00000000E+00  0.00000000E+00  0.00000000E+00
  0.00000000E+00  0.00000000E+00  0.00000000E+00
  0.00000000E+00  0.00000000E+00  0.00000000E+00
  0.00000000E+00  0.00000000E+00  0.00000000E+00
  0.00000000E+00  0.00000000E+00  0.00000000E+00
  0.00000000E+00  0.00000000E+00  0.00000000E+00
  0.00000000E+00  0.00000000E+00  0.00000000E+00
  0.00000000E+00  0.00000000E+00  0.00000000E+00
  0.00000000E+00  0.00000000E+00  0.00000000E+00
  0.00000000E+00  0.00000000E+00  0.00000000E+00
  0.00000000E+00  0.00000000E+00  0.00000000E+00
  0.00000000E+00  0.00000000E+00  0.00000000E+00
  0.00000000E+00  0.00000000E+00  0.00000000E+00
  0.00000000E+00  0.00000000E+00  0.00000000E+00
  0.00000000E+00  0.00000000E+00  0.00000000E+00
  0.00000000E+00  0.00000000E+00  0.00000000E+00
  0.00000000E+00  0.00000000E+00  0.00000000E+00
  0.00000000E+00  0.00000000E+00  0.00000000E+00
  0.00000000E+00  0.00000000E+00  0.00000000E+00
  0.00000000E+00  0.00000000E+00  0.00000000E+00
  0.00000000E+00  0.00000000E+00  0.00000000E+00
  0.00000000E+00  0.00000000E+00  0.00000000E+00
  0.00000000E+00  0.00000000E+00  0.00000000E+00
  0.00000000E+00  0.00000000E+00  0.00000000E+00
  0.00000000E+00  0.00000000E+00  0.00000000E+00
  0.00000000E+00  0.00000000E+00  0.00000000E+00
  0.00000000E+00  0.00000000E+00  0.00000000E+00
  0.00000000E+00  0.00000000E+00  0.00000000E+00
  0.00000000E+00  0.00000000E+00  0.00000000E+00
  0.00000000E+00  0.00000000E+00  0.00000000E+00
  0.00000000E+00  0.00000000E+00  0.00000000E+00
  0.00000000E+00  0.00000000E+00  0.00000000E+00
  0.00000000E+00  0.00000000E+00  0.00000000E+00
  0.00000000E+00  0.00000000E+00  0.00000000E+00
  0.00000000E+00  0.00000000E+00  0.00000000E+00
  0.00000000E+00  0.00000000E+00  0.00000000E+00
  0.00000000E+00  0.00000000E+00  0.00000000E+00
  0.00000000E+00  0.00000000E+00  0.00000000E+00
  0.00000000E+00  0.00000000E+00  0.00000000E+00
  0.00000000E+00  0.00000000E+00  0.00000000E+00
  0.00000000E+00  0.00000000E+00  0.00000000E+00
  0.00000000E+00  0.00000000E+00  0.00000000E+00
  0.00000000E+00  0.00000000E+00  0.00000000E+00
  0.00000000E+00  0.00000000E+00  0.00000000E+00
  0.00000000E+00  0.00000000E+00  0.00000000E+00
  0.00000000E+00  0.00000000E+00  0.00000000E+00
  0.00000000E+00  0.00000000E+00  0.00000000E+00
  0.00000000E+00  0.00000000E+00  0.00000000E+00
  0.00000000E+00  0.00000000E+00  0.00000000E+00
  0.00000000E+00  0.00000000E+00  0.00000000E+00
  0.00000000E+00  0.00000000E+00  0.00000000E+00
  0.00000000E+00  0.00000000E+00  0.00000000E+00
  0.00000000E+00  0.00000000E+00  0.00000000E+00
  0.00000000E+00  0.00000000E+00  0.00000000E+00
  0.00000000E+00  0.00000000E+00  0.00000000E+00
  0.00000000E+00  0.00000000E+00  0.00000000E+00
  0.00000000E+00  0.00000000E+00  0.00000000E+00
  0.00000000E+00  0.00000000E+00  0.00000000E+00
  0.00000000E+00  0.00000000E+00  0.00000000E+00
  0.00000000E+00  0.00000000E+00  0.00000000E+00
  0.00000000E+00  0.00000000E+00  0.00000000E+00
  0.00000000E+00  0.00000000E+00  0.00000000E+00
  0.00000000E+00  0.00000000E+00  0.00000000E+00
  0.00000000E+00  0.00000000E+00  0.00000000E+00
  0.00000000E+00  0.00000000E+00  0.00000000E+00
  0.00000000E+00  0.00000000E+00  0.00000000E+00
  0.00000000E+00  0.00000000E+00  0.00000000E+00
  0.00000000E+00  0.00000000E+00  0.00000000E+00
  0.00000000E+00  0.00000000E+00  0.00000000E+00
  0.00000000E+00  0.00000000E+00  0.00000000E+00
  0.00000000E+00  0.00000000E+00  0.00000000E+00
  0.00000000E+00  0.00000000E+00  0.00000000E+00
  0.00000000E+00  0.00000000E+00  0.00000000E+00
  0.00000000E+00  0.00000000E+00  0.00000000E+00
  0.00000000E+00  0.00000000E+00  0.00000000E+00
  0.00000000E+00  0.00000000E+00  0.00000000E+00
  0.00000000E+00  0.00000000E+00  0.00000000E+00
  0.00000000E+00  0.00000000E+00  0.00000000E+00
  0.00000000E+00  0.00000000E+00  0.00000000E+00
  0.00000000E+00  0.00000000E+00  0.00000000E+00
  0.00000000E+00  0.00000000E+00  0.00000000E+00
  0.00000000E+00  0.00000000E+00  0.00000000E+00
  0.00000000E+00  0.00000000E+00  0.00000000E+00
  0.00000000E+00  0.00000000E+00  0.00000000E+00
  0.00000000E+00  0.00000000E+00  0.00000000E+00
  0.00000000E+00  0.00000000E+00  0.00000000E+00
  0.00000000E+00  0.00000000E+00  0.00000000E+00
  0.00000000E+00  0.00000000E+00  0.00000000E+00
  0.00000000E+00  0.00000000E+00  0.00000000E+00
  0.00000000E+00  0.00000000E+00  0.00000000E+00
