generated by phonopy                    
   1.00000000000000     
     0.0000000000000000    3.4181189080878664    3.4181189080879619
     3.4181189080879038    0.0000000000000000    3.4181189080879619
     3.4181189080879038    3.4181189080878664    0.0000000000000000
   K    Y    Zr   Ce   H 
     1     1     1     1    24
Direct
  0.2500000000000000  0.2500000000000000  0.2500000000000000
  0.7500000000000000  0.7500000000000000  0.7500000000000000
  0.0000000000000000  0.0000000000000000  0.0000000000000000
  0.5000000000000000  0.5000000000000000  0.5000000000000000
  0.1245183802097642  0.8828071263485100  0.6238232604272582
  0.8828071263485100  0.1245183802097642  0.3688512330144604
  0.6238232604272582  0.3688512330144604  0.1245183802097642
  0.3688512330144604  0.6238232604272582  0.8828071263485100
  0.6238232604272582  0.1245183802097642  0.8828071263485100
  0.3688512330144604  0.8828071263485100  0.1245183802097642
  0.1245183802097642  0.6238232604272582  0.3688512330144604
  0.8828071263485100  0.3688512330144604  0.6238232604272582
  0.8828071263485100  0.6238232604272582  0.1245183802097642
  0.1245183802097642  0.3688512330144604  0.8828071263485100
  0.3688512330144604  0.1245183802097642  0.6238232604272582
  0.6238232604272582  0.8828071263485100  0.3688512330144604
  0.1245183802097642  0.3688512330144604  0.6238232604272582
  0.3688512330144604  0.1245183802097642  0.8828071263485100
  0.6238232604272582  0.8828071263485100  0.1245183802097642
  0.8828071263485100  0.6238232604272582  0.3688512330144604
  0.6238232604272582  0.1245183802097642  0.3688512330144604
  0.8828071263485100  0.3688512330144604  0.1245183802097642
  0.1245183802097642  0.6238232604272582  0.8828071263485100
  0.3688512330144604  0.8828071263485100  0.6238232604272582
  0.3688512330144604  0.6238232604272582  0.1245183802097642
  0.1245183802097642  0.8828071263485100  0.3688512330144604
  0.8828071263485100  0.1245183802097642  0.6238232604272582
  0.6238232604272582  0.3688512330144604  0.8828071263485100
 
  0.00000000E+00  0.00000000E+00  0.00000000E+00
  0.00000000E+00  0.00000000E+00  0.00000000E+00
  0.00000000E+00  0.00000000E+00  0.00000000E+00
  0.00000000E+00  0.00000000E+00  0.00000000E+00
  0.00000000E+00  0.00000000E+00  0.00000000E+00
  0.00000000E+00  0.00000000E+00  0.00000000E+00
  0.00000000E+00  0.00000000E+00  0.00000000E+00
  0.00000000E+00  0.00000000E+00  0.00000000E+00
  0.00000000E+00  0.00000000E+00  0.00000000E+00
  0.00000000E+00  0.00000000E+00  0.00000000E+00
  0.00000000E+00  0.00000000E+00  0.00000000E+00
  0.00000000E+00  0.00000000E+00  0.00000000E+00
  0.00000000E+00  0.00000000E+00  0.00000000E+00
  0.00000000E+00  0.00000000E+00  0.00000000E+00
  0.00000000E+00  0.00000000E+00  0.00000000E+00
  0.00000000E+00  0.00000000E+00  0.00000000E+00
  0.00000000E+00  0.00000000E+00  0.00000000E+00
  0.00000000E+00  0.00000000E+00  0.00000000E+00
  0.00000000E+00  0.00000000E+00  0.00000000E+00
  0.00000000E+00  0.00000000E+00  0.00000000E+00
  0.00000000E+00  0.00000000E+00  0.00000000E+00
  0.00000000E+00  0.00000000E+00  0.00000000E+00
  0.00000000E+00  0.00000000E+00  0.00000000E+00
  0.00000000E+00  0.00000000E+00  0.00000000E+00
  0.00000000E+00  0.00000000E+00  0.00000000E+00
  0.00000000E+00  0.00000000E+00  0.00000000E+00
  0.00000000E+00  0.00000000E+00  0.00000000E+00
  0.00000000E+00  0.00000000E+00  0.00000000E+00
