generated by phonopy                    
   1.00000000000000     
     0.0000000000000000    3.1879802107837172    3.1879802107837985
     3.1879802107837505    0.0000000000000000    3.1879802107837985
     3.1879802107837505    3.1879802107837172    0.0000000000000000
   Na   Ca   Mg   Zr   H 
     1     1     1     1    24
Direct
  0.2500000000000000  0.2500000000000000  0.2500000000000000
  0.7500000000000000  0.7500000000000000  0.7500000000000000
  0.0000000000000000  0.0000000000000000  0.0000000000000000
  0.5000000000000000  0.5000000000000000  0.5000000000000000
  0.1176653802563550  0.8952420840370579  0.6267803565777967
  0.8952420840370579  0.1176653802563550  0.3603121791287762
  0.6267803565777967  0.3603121791287762  0.1176653802563550
  0.3603121791287762  0.6267803565777967  0.8952420840370579
  0.6267803565777967  0.1176653802563550  0.8952420840370579
  0.3603121791287762  0.8952420840370579  0.1176653802563550
  0.1176653802563550  0.6267803565777967  0.3603121791287762
  0.8952420840370579  0.3603121791287762  0.6267803565777967
  0.8952420840370579  0.6267803565777967  0.1176653802563550
  0.1176653802563550  0.3603121791287762  0.8952420840370579
  0.3603121791287762  0.1176653802563550  0.6267803565777967
  0.6267803565777967  0.8952420840370579  0.3603121791287762
  0.1176653802563550  0.3603121791287762  0.6267803565777967
  0.3603121791287762  0.1176653802563550  0.8952420840370579
  0.6267803565777967  0.8952420840370579  0.1176653802563550
  0.8952420840370579  0.6267803565777967  0.3603121791287762
  0.6267803565777967  0.1176653802563550  0.3603121791287762
  0.8952420840370579  0.3603121791287762  0.1176653802563550
  0.1176653802563550  0.6267803565777967  0.8952420840370579
  0.3603121791287762  0.8952420840370579  0.6267803565777967
  0.3603121791287762  0.6267803565777967  0.1176653802563550
  0.1176653802563550  0.8952420840370579  0.3603121791287762
  0.8952420840370579  0.1176653802563550  0.6267803565777967
  0.6267803565777967  0.3603121791287762  0.8952420840370579
 
  0.00000000E+00  0.00000000E+00  0.00000000E+00
  0.00000000E+00  0.00000000E+00  0.00000000E+00
  0.00000000E+00  0.00000000E+00  0.00000000E+00
  0.00000000E+00  0.00000000E+00  0.00000000E+00
  0.00000000E+00  0.00000000E+00  0.00000000E+00
  0.00000000E+00  0.00000000E+00  0.00000000E+00
  0.00000000E+00  0.00000000E+00  0.00000000E+00
  0.00000000E+00  0.00000000E+00  0.00000000E+00
  0.00000000E+00  0.00000000E+00  0.00000000E+00
  0.00000000E+00  0.00000000E+00  0.00000000E+00
  0.00000000E+00  0.00000000E+00  0.00000000E+00
  0.00000000E+00  0.00000000E+00  0.00000000E+00
  0.00000000E+00  0.00000000E+00  0.00000000E+00
  0.00000000E+00  0.00000000E+00  0.00000000E+00
  0.00000000E+00  0.00000000E+00  0.00000000E+00
  0.00000000E+00  0.00000000E+00  0.00000000E+00
  0.00000000E+00  0.00000000E+00  0.00000000E+00
  0.00000000E+00  0.00000000E+00  0.00000000E+00
  0.00000000E+00  0.00000000E+00  0.00000000E+00
  0.00000000E+00  0.00000000E+00  0.00000000E+00
  0.00000000E+00  0.00000000E+00  0.00000000E+00
  0.00000000E+00  0.00000000E+00  0.00000000E+00
  0.00000000E+00  0.00000000E+00  0.00000000E+00
  0.00000000E+00  0.00000000E+00  0.00000000E+00
  0.00000000E+00  0.00000000E+00  0.00000000E+00
  0.00000000E+00  0.00000000E+00  0.00000000E+00
  0.00000000E+00  0.00000000E+00  0.00000000E+00
  0.00000000E+00  0.00000000E+00  0.00000000E+00
