       N       E                     dE             d eps       ncg     rms          rms(c)
DAV:   1     0.114918833499E+05    0.11492E+05   -0.28834E+05148856   0.181E+03
DAV:   2     0.149938274008E+04   -0.99925E+04   -0.93770E+04203392   0.819E+02
DAV:   3    -0.324936200984E+03   -0.18243E+04   -0.16911E+04247568   0.366E+02
DAV:   4    -0.599552124585E+03   -0.27462E+03   -0.26063E+03278576   0.183E+02
DAV:   5    -0.633182301184E+03   -0.33630E+02   -0.32133E+02280768   0.772E+01
DAV:   6    -0.639785187374E+03   -0.66029E+01   -0.64278E+01280768   0.317E+01
DAV:   7    -0.641095696939E+03   -0.13105E+01   -0.12910E+01280768   0.162E+01
DAV:   8    -0.641351752307E+03   -0.25606E+00   -0.25378E+00280768   0.674E+00
DAV:   9    -0.641399364686E+03   -0.47612E-01   -0.47355E-01280768   0.313E+00
DAV:  10    -0.641408361641E+03   -0.89970E-02   -0.89655E-02280768   0.122E+00
DAV:  11    -0.641410119386E+03   -0.17577E-02   -0.17536E-02280768   0.545E-01
DAV:  12    -0.641410477563E+03   -0.35818E-03   -0.35762E-03280768   0.218E-01
DAV:  13    -0.641410553120E+03   -0.75557E-04   -0.75487E-04280768   0.982E-02
DAV:  14    -0.641410569550E+03   -0.16430E-04   -0.16421E-04280768   0.405E-02
DAV:  15    -0.641410573203E+03   -0.36532E-05   -0.36546E-05258560   0.184E-02
DAV:  16    -0.641410574029E+03   -0.82620E-06   -0.82576E-06207768   0.777E-03
DAV:  17    -0.641410574217E+03   -0.18801E-06   -0.18750E-06159472   0.364E-03
DAV:  18    -0.641410574261E+03   -0.43365E-07   -0.44389E-07144688   0.200E-03
   1 F= -.64141057E+03 E0= -.64141057E+03  d E =0.000000E+00
