POSCAR                                  
   1.00000000000000     
    10.0188454937954852   -0.0428914617113258    0.0182735535250898
    -0.0428689316229668   10.0226620791483096    0.0071587986883443
     0.0121552859918894    0.0047652508526198    6.7078328885589675
   Y    Na   Zr   Hf   H 
     9     9     9     9   216
Direct
  0.1662371350738994  0.1666700387620139  0.2456178922817998
  0.1620567530370494  0.8339690058183464  0.2475675983520773
  0.3335053898363327  0.6639685916379676  0.4984170207393888
  0.8379966730156170  0.1674496112376929  0.7579007613275195
  0.8309248759287868  0.5048964238371028  0.2479131369243532
  0.4964588137111434  0.8264704965726253  0.7544998105447007
  0.3256498867787698  0.9977666958927074  0.9949409909268923
  0.6709918308639260  0.9988944675943046  0.4971197669490124
  0.6702974154727741  0.9980930460279396  0.0027386658038964
  0.1646941808900024  0.1663353212102265  0.7509597037575517
  0.1663513698893837  0.8342694493295397  0.7534379881420108
  0.4983293291499393  0.5002331199815941  0.7519756571745333
  0.3358077379900521  0.6668403586170655  0.9946672325319454
  0.6690132991081512  0.3379882861563104  0.9987995766102316
  0.6656061420357133  0.6624606638165176  0.9990790599187278
  0.9982874453920232  0.3321263665211660  0.9980376552060477
  0.8337711107308223  0.8310326810692246  0.2494698293560873
  0.0019591550173317  0.0002657475115342  0.9983193094549279
  0.1645648928570367  0.5003047761306618  0.2429325765753063
  0.3335177629832913  0.3374600140084567  0.5025229862907992
  0.1700636358959997  0.5012551970362793  0.7539808127854570
  0.5045272024358454  0.5012021629513725  0.2395444913734224
  0.5024864019916251  0.8286248026667593  0.2428025405239822
  0.3300851280138275  0.9981400189392673  0.5059541386931627
  0.0012363969569975  0.3331949707852360  0.5032629018834811
  0.8367620062132062  0.8351415351798650  0.7569658487038851
  0.9977772489454821  0.6687301544846775  0.0010950722570797
  0.4980981368943702  0.1697080607745605  0.2475853182747727
  0.5000271490290942  0.1705876665837138  0.7514568963889801
  0.3342895859536483  0.3370305668027953  0.9945967328543475
  0.8415040822367104  0.1658204449886398  0.2393293973448465
  0.6666471733367842  0.3343532926431720  0.4996316038968018
  0.6651253015768575  0.6653655624223234  0.5058149804420395
  0.8267646564777067  0.4951878803932956  0.7636728698355597
  0.9998168274468782  0.6697804085681796  0.5073276886132945
  0.0013426647484494  0.0000432173474962  0.5042979027619907
  0.1556040556578537  0.0848772515781917  0.9828116388246571
  0.1649807049634475  0.0888008902877075  0.5154064105981959
  0.1608169914062145  0.4153450663597127  0.9964039641674844
  0.4991332032687268  0.0817647517748128  0.0020421736781344
  0.3332469328912211  0.2525670070723720  0.2528702289429532
  0.1632035157654386  0.4181855507121881  0.5024392450494304
  0.4996104057276938  0.0813440072921665  0.4972338709097954
  0.3241659016357232  0.2499754555789480  0.7469250991133549
  0.1719784718798394  0.7475736117151541  0.9902356205457963
  0.5056294033131010  0.4174828740627916  0.9878950313937480
  0.3369222418892193  0.5848136256886818  0.2289938733232972
  0.1668396297889387  0.7527953295922956  0.5131241953827868
  0.8437528991576286  0.0772340626665979  0.0021338943175309
  0.6670399616686851  0.2531623519289425  0.2394706028554410
  0.5031250599692569  0.4194926679007551  0.5086412959594142
  0.3397080170740594  0.5834843144190174  0.7603047156341916
  0.8384489811756026  0.0854758730686598  0.4967856168729625
  0.6676813993992425  0.2536403343780123  0.7629502113288993
  0.5002860559831674  0.7406472670879651  0.0013832110513761
  0.3350109089524622  0.9155759913632266  0.2485674790072707
  0.8342252028021377  0.4129509151848012  0.0058679750160309
  0.6621733992377656  0.5893609079998825  0.2411114098247609
  0.4998567677724353  0.7511096734944545  0.4953834172056588
  0.3250270994264852  0.9117893226302058  0.7487263385526930
  0.0032206380599717  0.2555770042634151  0.2364111981076462
  0.8342809681280698  0.4192378752571031  0.5031235846892130
  0.6603320049189350  0.5829290604654673  0.7596079289693876
  0.0094637219050071  0.2511073767044678  0.7605406396896299
  0.8277892270976679  0.7520254458072770  0.0068358054515159
  0.6764832793259146  0.9107501481190141  0.2503773544906096
  0.0011247782658259  0.5836127125279376  0.2518745746510973
  0.8333927103077627  0.7534468024527712  0.4979417056640898
  0.6657417740141298  0.9143360851691256  0.7503009754674324
  0.9971290149233099  0.5834022970762973  0.7545615002578288
  0.9892638860075351  0.9148073601752813  0.2389653661417981
  0.0091241029073643  0.9156571647942400  0.7662705341637164
  0.0871660252094699  0.1694092674865573  0.9883094888080990
  0.0893238047455824  0.1655467971937483  0.5121011496133931
  0.0827643538531291  0.4919468270726455  0.9949080461355564
  0.4145682826995838  0.1681703084965633  0.9924065740384904
  0.2506706441119633  0.3355757659963032  0.2480442556567866
  0.0823567067599669  0.4984795885574300  0.5071252038673606
  0.4158893353816140  0.1677494715439849  0.5049664340412292
  0.2464717593473296  0.3239041416875494  0.7497556235662444
  0.0837799135239550  0.8403674654044408  0.9877593137613019
  0.4164423978713927  0.5079880680052185  0.9857311127451354
  0.2526107821052577  0.6671227160720292  0.2331267834022768
  0.0861248087502062  0.8387408718557481  0.5170102130176062
  0.7446676716159715  0.1763039698308333  0.0047265291090355
  0.5848065826498328  0.3341486091396391  0.2293889091502237
  0.4220390084042833  0.4995622816532688  0.5078326961979300
  0.2479739664950813  0.6737823827073726  0.7603008804916342
  0.7519693234232534  0.1703825495012907  0.4951018594477219
  0.5824704426141736  0.3434398872335933  0.7610343169328218
  0.4106415898704441  0.8256137591100696  0.0025794838756781
  0.2507260011910901  0.9989808402875937  0.2542524323695403
  0.7413073867467190  0.5026693073658350  0.0048647600633203
  0.5863920819420443  0.6645534119415473  0.2267104016991581
  0.4172936543526333  0.8317284859035325  0.4968538584484676
  0.2400474885274804  0.0017031300311530  0.7473965137540191
  0.9184419703819131  0.3358256379589264  0.2427166090829047
  0.7514513105103759  0.4998382625798214  0.5056345201856942
  0.5838331955186860  0.6565416322296969  0.7653883932629029
  0.9210373705918116  0.3373240386283811  0.7608283913079532
  0.7505168150045520  0.8218170327441214  0.0148823668700757
  0.5828796378662560  0.0004126446787609  0.2506806250493412
  0.9118338882075534  0.6754161627834065  0.2533384176596201
  0.7523840062486897  0.8286508737513856  0.4842607966492523
  0.5836328362325887  0.9977103254221902  0.7496291388473466
  0.9142678207465309  0.6662518419578092  0.7559486008725145
  0.9181613190182318  0.9940680299679840  0.2409566475899254
  0.9220328493812460  0.9987430586947141  0.7660209346439970
  0.1550749682312897  0.9996421068680945  0.1196047927277775
  0.1654841359850892  0.0005196248366488  0.6331037826265273
  0.1602867106939598  0.3358045090710249  0.1184825210051130
  0.4960188077110814  0.0029868811331113  0.1213220162623685
  0.3349575581196760  0.1684482545371964  0.3800126853752417
  0.1673981164610581  0.3303056720243305  0.6316822384903489
  0.5009701048805866  0.9994475781069525  0.6247123873320533
  0.3255508841059225  0.1679643873820851  0.8686250676045262
  0.1712316321761165  0.6658248115750425  0.1172390811188180
  0.5079944049328233  0.3326687532823911  0.1181133598043616
  0.3344122234640992  0.4973442676718136  0.3678951444916549
  0.1639165577520814  0.6714193834119797  0.6340234943386065
  0.8447124630629617  0.9859210840163186  0.1222305300362052
  0.6680587831857494  0.1691923951529901  0.3708455464417071
  0.4990724764223131  0.3400125852232208  0.6286965080169864
  0.3407311499591401  0.5066432363641553  0.8780760007731132
  0.8374140151379876  0.9984999288614276  0.6274159835696906
  0.6658179400139517  0.1769831946266933  0.8830933540350401
  0.5043623943988038  0.6655263495845389  0.1142745183245424
  0.3332424279116211  0.8329385996814622  0.3722348153916286
  0.8335754975915819  0.3359934999859604  0.1242343829732846
  0.6637773478636433  0.5006387351607486  0.3754163678375804
  0.5005564813590624  0.6564459585316769  0.6284286659075349
  0.3241105626670802  0.8246871770339013  0.8750019462556935
  0.0010442378324669  0.1658048214604690  0.3750740057332465
  0.8333644089853394  0.3328220729777911  0.6257744703216659
  0.6540663398657358  0.5001905872212689  0.8772984688092293
  0.0081928991338884  0.1642427175161032  0.8737541443640851
  0.8243109947394558  0.6769681077050649  0.1259276776575149
  0.6749264799761718  0.8283023281670197  0.3698772947011335
  0.9999817107951685  0.5021966678678211  0.3782761259521550
  0.8334973852883465  0.6690370993163697  0.6331520907480979
  0.6671730695976805  0.8200138706745861  0.8795383318625909
  0.0028598236725017  0.4954523812414351  0.8774029827138179
  0.9903078741654952  0.8327855338449837  0.3718809901250495
  0.0051842582938022  0.8415812965629783  0.8742882205972791
  0.0776668915256948  0.0023038353125813  0.2364742903689532
  0.0834670822457753  0.9978645160430091  0.7548972016849902
  0.0819963050052905  0.3319991329696848  0.2314412530689793
  0.4166119734182629  0.9956467354824028  0.2500365837952856
  0.2478909063899337  0.1672128466359410  0.5132751010539920
  0.0856205120038851  0.3295064076600553  0.7627098858111125
  0.4160087594782453  0.0023791583920527  0.7487022987051049
  0.2474291501266421  0.1708557014846406  0.9832259005001021
  0.0822803788822384  0.6661963906888460  0.2439617444086153
  0.4167042155845877  0.3395355870468890  0.2469096706962404
  0.2470123444832026  0.4986007116985789  0.4975041228140711
  0.0846818996388095  0.6750698032462807  0.7584643897534704
  0.7561765695705915  0.9919429149329702  0.2490587642198747
  0.5843459600297862  0.1669634572054406  0.4953766100404167
  0.4195691338253908  0.3414395557582921  0.7493583540701252
  0.2523122551035044  0.5110909769963783  0.9985924079061235
  0.7517385965498988  0.9989734024473194  0.7511371347890332
  0.5862089164940372  0.1767847660093054  0.0025715896404748
  0.4128182135478156  0.6628732803662416  0.2335490620534060
  0.2451623418930780  0.8320932268073520  0.5100551519881762
  0.7480769422223545  0.3314113104956888  0.2384861920794137
  0.5819289470371061  0.4984995201538638  0.5215917779951269
  0.4161370505848225  0.6541074047840851  0.7578431095947735
  0.2475491826196432  0.8215610517467482  0.9913098504117599
  0.9155614646857515  0.1697347305900863  0.4977120717426189
  0.7456658015689257  0.3310856149696804  0.7622505934299539
  0.5810795117087579  0.4993388314435876  0.9827358646986042
  0.9286581558867653  0.1648827082173554  0.0010987585603317
  0.7500586281629325  0.6759303067422096  0.2431541276187659
  0.5837826055910043  0.8320287785926652  0.4982336408885004
  0.9153781068465676  0.4992301512920108  0.5077803072075966
  0.7496887585987295  0.6671576291399575  0.7666140729781645
  0.5882417277018632  0.8225092916092080  0.9990978808495186
  0.9229839679377889  0.4951184758277591  0.0011085522113632
  0.9118204568740111  0.8334113959317691  0.4939289896520833
  0.9169287993387627  0.8378891994353026  0.0096737451735507
  0.0009760049945200  0.1647662591335575  0.1131652508516510
  0.0067842782152638  0.1671622557819177  0.6285140170111703
  0.9992118817043192  0.4928989616274180  0.1181926434194764
  0.3369603164685699  0.1697132221249831  0.1210535551467729
  0.1667324844508542  0.3365561109975772  0.3736704646701270
  0.0007530416490269  0.5028211305133894  0.6318448493391671
  0.3281269602863190  0.1698322502969205  0.6279128132497647
  0.1597256148006210  0.3290257648674526  0.8726540503407136
  0.9897102866139136  0.8407503005315462  0.1247965942681191
  0.3322344094388896  0.5047982784691172  0.1186468605680275
  0.1622525261582837  0.6641211310049187  0.3722681631618627
  0.0034073319371899  0.8323376304996373  0.6348348831734327
  0.6650770387147560  0.1775531279997864  0.1197392803116060
  0.5008036474343669  0.3359828633513260  0.3730553203430205
  0.3393966945675757  0.4984891162485781  0.6313379790498601
  0.1698195062604597  0.6719132778575698  0.8755795018890851
  0.6677340752254679  0.1683290738665093  0.6254040393878100
  0.5080995154339121  0.3402531972080922  0.8751505903586008
  0.3332056620084032  0.8261372398986353  0.1218021721200842
  0.1643879363648608  0.0000533483031262  0.3752415344147266
  0.6681335990410631  0.5010037961644969  0.1140261892919767
  0.5043544372973869  0.6626547444998963  0.3705054222919983
  0.3259845420831695  0.8320391604470956  0.6285224930971509
  0.1574916162770705  0.0022945797352634  0.8711375235483558
  0.8340335809042116  0.3352630425126719  0.3751557589958949
  0.6569952337283524  0.4992090985450659  0.6318655210899990
  0.5022520260021111  0.6572277405853626  0.8767996521005585
  0.8340633292557413  0.3316560002428943  0.8870950716402746
  0.6772545124898031  0.8208247450224775  0.1217192790101080
  0.4977176562791783  0.0002247575026217  0.3754995820328020
  0.8332618854023366  0.6754542232501990  0.3739828558738907
  0.6694282708940875  0.8301819550355347  0.6283155872427244
  0.4991008448122258  0.0014176166101905  0.8765432604870611
  0.8244387625162588  0.6685153039537326  0.8785025871210621
  0.8393994471324859  0.9909689413522713  0.3676156263480053
  0.8474536807497302  0.9991286661499643  0.8813960028605834
  0.0019629774355252  0.0769223718607250  0.2338998773380041
  0.0088406659017934  0.0830256656148549  0.7612313935524853
  0.9974948627315214  0.4160796730053704  0.2421163819680032
  0.3347503422560933  0.0821206320987216  0.2505494832044164
  0.1664132042323985  0.2482661387278711  0.5121545319876262
  0.0015369074834339  0.4183766149411952  0.7623094786711491
  0.3243180341794343  0.0882426239978642  0.7493602269617057
  0.1562524626232431  0.2506713723956935  0.9875301277028967
  0.9923729373185708  0.7538303352217284  0.2519303786275913
  0.3366170375113740  0.4177933480330509  0.2438082550588305
  0.1632207598684943  0.5818441074078606  0.5022892751707815
  0.0073963463148843  0.7541477280762408  0.7560253627635021
  0.6695230791619693  0.0855743147994303  0.2491297397157979
  0.4992016908253376  0.2500500202094500  0.5001717367267773
  0.3403323336696644  0.4192255476964775  0.7522321874041751
  0.1766857518186882  0.5868102793496490  0.9972447858492615
  0.6670377580717997  0.0841909418465221  0.7506870910340737
  0.5080661969783407  0.2542481342901581  0.9971064683985702
  0.3324186309861688  0.7456593555934603  0.2351506085030621
  0.1624800417358472  0.9114786841082676  0.5162294205548150
  0.6655337274503168  0.4123755610345654  0.2391335888212254
  0.5017438329761035  0.5770568338377444  0.5068885538436589
  0.3218929780523823  0.7474921569413695  0.7575421477461646
  0.1522641461664449  0.9134286182661810  0.9862176262527385
  0.8363756676757532  0.2494662245471346  0.4995784700846571
  0.6556327390058030  0.4167476670815091  0.7579008543970644
  0.4977628843462440  0.5815483391801664  0.9908774114605805
  0.8358770761116290  0.2549546524143977  0.0007523150624138
  0.6682361476307861  0.7482633855758820  0.2429283386083085
  0.5006891920057797  0.9159992367829091  0.4975004685635511
  0.8319100561198809  0.5826450253658351  0.5129512021574172
  0.6700380087461966  0.7468609715029046  0.7676813112111915
  0.4985579907169821  0.9184089030481388  0.0007207706743415
  0.8271200248300801  0.5896596111901857  0.9967807467887511
  0.8379993801994203  0.9135131821894191  0.4809356477716307
  0.8444367031883928  0.9145085763136862  0.0186483274530076
 
  0.00000000E+00  0.00000000E+00  0.00000000E+00
  0.00000000E+00  0.00000000E+00  0.00000000E+00
  0.00000000E+00  0.00000000E+00  0.00000000E+00
  0.00000000E+00  0.00000000E+00  0.00000000E+00
  0.00000000E+00  0.00000000E+00  0.00000000E+00
  0.00000000E+00  0.00000000E+00  0.00000000E+00
  0.00000000E+00  0.00000000E+00  0.00000000E+00
  0.00000000E+00  0.00000000E+00  0.00000000E+00
  0.00000000E+00  0.00000000E+00  0.00000000E+00
  0.00000000E+00  0.00000000E+00  0.00000000E+00
  0.00000000E+00  0.00000000E+00  0.00000000E+00
  0.00000000E+00  0.00000000E+00  0.00000000E+00
  0.00000000E+00  0.00000000E+00  0.00000000E+00
  0.00000000E+00  0.00000000E+00  0.00000000E+00
  0.00000000E+00  0.00000000E+00  0.00000000E+00
  0.00000000E+00  0.00000000E+00  0.00000000E+00
  0.00000000E+00  0.00000000E+00  0.00000000E+00
  0.00000000E+00  0.00000000E+00  0.00000000E+00
  0.00000000E+00  0.00000000E+00  0.00000000E+00
  0.00000000E+00  0.00000000E+00  0.00000000E+00
  0.00000000E+00  0.00000000E+00  0.00000000E+00
  0.00000000E+00  0.00000000E+00  0.00000000E+00
  0.00000000E+00  0.00000000E+00  0.00000000E+00
  0.00000000E+00  0.00000000E+00  0.00000000E+00
  0.00000000E+00  0.00000000E+00  0.00000000E+00
  0.00000000E+00  0.00000000E+00  0.00000000E+00
  0.00000000E+00  0.00000000E+00  0.00000000E+00
  0.00000000E+00  0.00000000E+00  0.00000000E+00
  0.00000000E+00  0.00000000E+00  0.00000000E+00
  0.00000000E+00  0.00000000E+00  0.00000000E+00
  0.00000000E+00  0.00000000E+00  0.00000000E+00
  0.00000000E+00  0.00000000E+00  0.00000000E+00
  0.00000000E+00  0.00000000E+00  0.00000000E+00
  0.00000000E+00  0.00000000E+00  0.00000000E+00
  0.00000000E+00  0.00000000E+00  0.00000000E+00
  0.00000000E+00  0.00000000E+00  0.00000000E+00
  0.00000000E+00  0.00000000E+00  0.00000000E+00
  0.00000000E+00  0.00000000E+00  0.00000000E+00
  0.00000000E+00  0.00000000E+00  0.00000000E+00
  0.00000000E+00  0.00000000E+00  0.00000000E+00
  0.00000000E+00  0.00000000E+00  0.00000000E+00
  0.00000000E+00  0.00000000E+00  0.00000000E+00
  0.00000000E+00  0.00000000E+00  0.00000000E+00
  0.00000000E+00  0.00000000E+00  0.00000000E+00
  0.00000000E+00  0.00000000E+00  0.00000000E+00
  0.00000000E+00  0.00000000E+00  0.00000000E+00
  0.00000000E+00  0.00000000E+00  0.00000000E+00
  0.00000000E+00  0.00000000E+00  0.00000000E+00
  0.00000000E+00  0.00000000E+00  0.00000000E+00
  0.00000000E+00  0.00000000E+00  0.00000000E+00
  0.00000000E+00  0.00000000E+00  0.00000000E+00
  0.00000000E+00  0.00000000E+00  0.00000000E+00
  0.00000000E+00  0.00000000E+00  0.00000000E+00
  0.00000000E+00  0.00000000E+00  0.00000000E+00
  0.00000000E+00  0.00000000E+00  0.00000000E+00
  0.00000000E+00  0.00000000E+00  0.00000000E+00
  0.00000000E+00  0.00000000E+00  0.00000000E+00
  0.00000000E+00  0.00000000E+00  0.00000000E+00
  0.00000000E+00  0.00000000E+00  0.00000000E+00
  0.00000000E+00  0.00000000E+00  0.00000000E+00
  0.00000000E+00  0.00000000E+00  0.00000000E+00
  0.00000000E+00  0.00000000E+00  0.00000000E+00
  0.00000000E+00  0.00000000E+00  0.00000000E+00
  0.00000000E+00  0.00000000E+00  0.00000000E+00
  0.00000000E+00  0.00000000E+00  0.00000000E+00
  0.00000000E+00  0.00000000E+00  0.00000000E+00
  0.00000000E+00  0.00000000E+00  0.00000000E+00
  0.00000000E+00  0.00000000E+00  0.00000000E+00
  0.00000000E+00  0.00000000E+00  0.00000000E+00
  0.00000000E+00  0.00000000E+00  0.00000000E+00
  0.00000000E+00  0.00000000E+00  0.00000000E+00
  0.00000000E+00  0.00000000E+00  0.00000000E+00
  0.00000000E+00  0.00000000E+00  0.00000000E+00
  0.00000000E+00  0.00000000E+00  0.00000000E+00
  0.00000000E+00  0.00000000E+00  0.00000000E+00
  0.00000000E+00  0.00000000E+00  0.00000000E+00
  0.00000000E+00  0.00000000E+00  0.00000000E+00
  0.00000000E+00  0.00000000E+00  0.00000000E+00
  0.00000000E+00  0.00000000E+00  0.00000000E+00
  0.00000000E+00  0.00000000E+00  0.00000000E+00
  0.00000000E+00  0.00000000E+00  0.00000000E+00
  0.00000000E+00  0.00000000E+00  0.00000000E+00
  0.00000000E+00  0.00000000E+00  0.00000000E+00
  0.00000000E+00  0.00000000E+00  0.00000000E+00
  0.00000000E+00  0.00000000E+00  0.00000000E+00
  0.00000000E+00  0.00000000E+00  0.00000000E+00
  0.00000000E+00  0.00000000E+00  0.00000000E+00
  0.00000000E+00  0.00000000E+00  0.00000000E+00
  0.00000000E+00  0.00000000E+00  0.00000000E+00
  0.00000000E+00  0.00000000E+00  0.00000000E+00
  0.00000000E+00  0.00000000E+00  0.00000000E+00
  0.00000000E+00  0.00000000E+00  0.00000000E+00
  0.00000000E+00  0.00000000E+00  0.00000000E+00
  0.00000000E+00  0.00000000E+00  0.00000000E+00
  0.00000000E+00  0.00000000E+00  0.00000000E+00
  0.00000000E+00  0.00000000E+00  0.00000000E+00
  0.00000000E+00  0.00000000E+00  0.00000000E+00
  0.00000000E+00  0.00000000E+00  0.00000000E+00
  0.00000000E+00  0.00000000E+00  0.00000000E+00
  0.00000000E+00  0.00000000E+00  0.00000000E+00
  0.00000000E+00  0.00000000E+00  0.00000000E+00
  0.00000000E+00  0.00000000E+00  0.00000000E+00
  0.00000000E+00  0.00000000E+00  0.00000000E+00
  0.00000000E+00  0.00000000E+00  0.00000000E+00
  0.00000000E+00  0.00000000E+00  0.00000000E+00
  0.00000000E+00  0.00000000E+00  0.00000000E+00
  0.00000000E+00  0.00000000E+00  0.00000000E+00
  0.00000000E+00  0.00000000E+00  0.00000000E+00
  0.00000000E+00  0.00000000E+00  0.00000000E+00
  0.00000000E+00  0.00000000E+00  0.00000000E+00
  0.00000000E+00  0.00000000E+00  0.00000000E+00
  0.00000000E+00  0.00000000E+00  0.00000000E+00
  0.00000000E+00  0.00000000E+00  0.00000000E+00
  0.00000000E+00  0.00000000E+00  0.00000000E+00
  0.00000000E+00  0.00000000E+00  0.00000000E+00
  0.00000000E+00  0.00000000E+00  0.00000000E+00
  0.00000000E+00  0.00000000E+00  0.00000000E+00
  0.00000000E+00  0.00000000E+00  0.00000000E+00
  0.00000000E+00  0.00000000E+00  0.00000000E+00
  0.00000000E+00  0.00000000E+00  0.00000000E+00
  0.00000000E+00  0.00000000E+00  0.00000000E+00
  0.00000000E+00  0.00000000E+00  0.00000000E+00
  0.00000000E+00  0.00000000E+00  0.00000000E+00
  0.00000000E+00  0.00000000E+00  0.00000000E+00
  0.00000000E+00  0.00000000E+00  0.00000000E+00
  0.00000000E+00  0.00000000E+00  0.00000000E+00
  0.00000000E+00  0.00000000E+00  0.00000000E+00
  0.00000000E+00  0.00000000E+00  0.00000000E+00
  0.00000000E+00  0.00000000E+00  0.00000000E+00
  0.00000000E+00  0.00000000E+00  0.00000000E+00
  0.00000000E+00  0.00000000E+00  0.00000000E+00
  0.00000000E+00  0.00000000E+00  0.00000000E+00
  0.00000000E+00  0.00000000E+00  0.00000000E+00
  0.00000000E+00  0.00000000E+00  0.00000000E+00
  0.00000000E+00  0.00000000E+00  0.00000000E+00
  0.00000000E+00  0.00000000E+00  0.00000000E+00
  0.00000000E+00  0.00000000E+00  0.00000000E+00
  0.00000000E+00  0.00000000E+00  0.00000000E+00
  0.00000000E+00  0.00000000E+00  0.00000000E+00
  0.00000000E+00  0.00000000E+00  0.00000000E+00
  0.00000000E+00  0.00000000E+00  0.00000000E+00
  0.00000000E+00  0.00000000E+00  0.00000000E+00
  0.00000000E+00  0.00000000E+00  0.00000000E+00
  0.00000000E+00  0.00000000E+00  0.00000000E+00
  0.00000000E+00  0.00000000E+00  0.00000000E+00
  0.00000000E+00  0.00000000E+00  0.00000000E+00
  0.00000000E+00  0.00000000E+00  0.00000000E+00
  0.00000000E+00  0.00000000E+00  0.00000000E+00
  0.00000000E+00  0.00000000E+00  0.00000000E+00
  0.00000000E+00  0.00000000E+00  0.00000000E+00
  0.00000000E+00  0.00000000E+00  0.00000000E+00
  0.00000000E+00  0.00000000E+00  0.00000000E+00
  0.00000000E+00  0.00000000E+00  0.00000000E+00
  0.00000000E+00  0.00000000E+00  0.00000000E+00
  0.00000000E+00  0.00000000E+00  0.00000000E+00
  0.00000000E+00  0.00000000E+00  0.00000000E+00
  0.00000000E+00  0.00000000E+00  0.00000000E+00
  0.00000000E+00  0.00000000E+00  0.00000000E+00
  0.00000000E+00  0.00000000E+00  0.00000000E+00
  0.00000000E+00  0.00000000E+00  0.00000000E+00
  0.00000000E+00  0.00000000E+00  0.00000000E+00
  0.00000000E+00  0.00000000E+00  0.00000000E+00
  0.00000000E+00  0.00000000E+00  0.00000000E+00
  0.00000000E+00  0.00000000E+00  0.00000000E+00
  0.00000000E+00  0.00000000E+00  0.00000000E+00
  0.00000000E+00  0.00000000E+00  0.00000000E+00
  0.00000000E+00  0.00000000E+00  0.00000000E+00
  0.00000000E+00  0.00000000E+00  0.00000000E+00
  0.00000000E+00  0.00000000E+00  0.00000000E+00
  0.00000000E+00  0.00000000E+00  0.00000000E+00
  0.00000000E+00  0.00000000E+00  0.00000000E+00
  0.00000000E+00  0.00000000E+00  0.00000000E+00
  0.00000000E+00  0.00000000E+00  0.00000000E+00
  0.00000000E+00  0.00000000E+00  0.00000000E+00
  0.00000000E+00  0.00000000E+00  0.00000000E+00
  0.00000000E+00  0.00000000E+00  0.00000000E+00
  0.00000000E+00  0.00000000E+00  0.00000000E+00
  0.00000000E+00  0.00000000E+00  0.00000000E+00
  0.00000000E+00  0.00000000E+00  0.00000000E+00
  0.00000000E+00  0.00000000E+00  0.00000000E+00
  0.00000000E+00  0.00000000E+00  0.00000000E+00
  0.00000000E+00  0.00000000E+00  0.00000000E+00
  0.00000000E+00  0.00000000E+00  0.00000000E+00
  0.00000000E+00  0.00000000E+00  0.00000000E+00
  0.00000000E+00  0.00000000E+00  0.00000000E+00
  0.00000000E+00  0.00000000E+00  0.00000000E+00
  0.00000000E+00  0.00000000E+00  0.00000000E+00
  0.00000000E+00  0.00000000E+00  0.00000000E+00
  0.00000000E+00  0.00000000E+00  0.00000000E+00
  0.00000000E+00  0.00000000E+00  0.00000000E+00
  0.00000000E+00  0.00000000E+00  0.00000000E+00
  0.00000000E+00  0.00000000E+00  0.00000000E+00
  0.00000000E+00  0.00000000E+00  0.00000000E+00
  0.00000000E+00  0.00000000E+00  0.00000000E+00
  0.00000000E+00  0.00000000E+00  0.00000000E+00
  0.00000000E+00  0.00000000E+00  0.00000000E+00
  0.00000000E+00  0.00000000E+00  0.00000000E+00
  0.00000000E+00  0.00000000E+00  0.00000000E+00
  0.00000000E+00  0.00000000E+00  0.00000000E+00
  0.00000000E+00  0.00000000E+00  0.00000000E+00
  0.00000000E+00  0.00000000E+00  0.00000000E+00
  0.00000000E+00  0.00000000E+00  0.00000000E+00
  0.00000000E+00  0.00000000E+00  0.00000000E+00
  0.00000000E+00  0.00000000E+00  0.00000000E+00
  0.00000000E+00  0.00000000E+00  0.00000000E+00
  0.00000000E+00  0.00000000E+00  0.00000000E+00
  0.00000000E+00  0.00000000E+00  0.00000000E+00
  0.00000000E+00  0.00000000E+00  0.00000000E+00
  0.00000000E+00  0.00000000E+00  0.00000000E+00
  0.00000000E+00  0.00000000E+00  0.00000000E+00
  0.00000000E+00  0.00000000E+00  0.00000000E+00
  0.00000000E+00  0.00000000E+00  0.00000000E+00
  0.00000000E+00  0.00000000E+00  0.00000000E+00
  0.00000000E+00  0.00000000E+00  0.00000000E+00
  0.00000000E+00  0.00000000E+00  0.00000000E+00
  0.00000000E+00  0.00000000E+00  0.00000000E+00
  0.00000000E+00  0.00000000E+00  0.00000000E+00
  0.00000000E+00  0.00000000E+00  0.00000000E+00
  0.00000000E+00  0.00000000E+00  0.00000000E+00
  0.00000000E+00  0.00000000E+00  0.00000000E+00
  0.00000000E+00  0.00000000E+00  0.00000000E+00
  0.00000000E+00  0.00000000E+00  0.00000000E+00
  0.00000000E+00  0.00000000E+00  0.00000000E+00
  0.00000000E+00  0.00000000E+00  0.00000000E+00
  0.00000000E+00  0.00000000E+00  0.00000000E+00
  0.00000000E+00  0.00000000E+00  0.00000000E+00
  0.00000000E+00  0.00000000E+00  0.00000000E+00
  0.00000000E+00  0.00000000E+00  0.00000000E+00
  0.00000000E+00  0.00000000E+00  0.00000000E+00
  0.00000000E+00  0.00000000E+00  0.00000000E+00
  0.00000000E+00  0.00000000E+00  0.00000000E+00
  0.00000000E+00  0.00000000E+00  0.00000000E+00
  0.00000000E+00  0.00000000E+00  0.00000000E+00
  0.00000000E+00  0.00000000E+00  0.00000000E+00
  0.00000000E+00  0.00000000E+00  0.00000000E+00
  0.00000000E+00  0.00000000E+00  0.00000000E+00
  0.00000000E+00  0.00000000E+00  0.00000000E+00
  0.00000000E+00  0.00000000E+00  0.00000000E+00
  0.00000000E+00  0.00000000E+00  0.00000000E+00
  0.00000000E+00  0.00000000E+00  0.00000000E+00
  0.00000000E+00  0.00000000E+00  0.00000000E+00
  0.00000000E+00  0.00000000E+00  0.00000000E+00
  0.00000000E+00  0.00000000E+00  0.00000000E+00
  0.00000000E+00  0.00000000E+00  0.00000000E+00
  0.00000000E+00  0.00000000E+00  0.00000000E+00
  0.00000000E+00  0.00000000E+00  0.00000000E+00
  0.00000000E+00  0.00000000E+00  0.00000000E+00
  0.00000000E+00  0.00000000E+00  0.00000000E+00
  0.00000000E+00  0.00000000E+00  0.00000000E+00
  0.00000000E+00  0.00000000E+00  0.00000000E+00
  0.00000000E+00  0.00000000E+00  0.00000000E+00
  0.00000000E+00  0.00000000E+00  0.00000000E+00
