generated by phonopy                    
   1.00000000000000     
     0.0000000000000000    3.3711650254213192    3.3711650254214041
     3.3711650254213570    0.0000000000000000    3.3711650254214041
     3.3711650254213570    3.3711650254213192    0.0000000000000000
   Na   Y    Ca   Sc   H 
     1     1     1     1    24
Direct
  0.2500000000000000  0.2500000000000000  0.2500000000000000
  0.7500000000000000  0.7500000000000000  0.7500000000000000
  0.0000000000000000  0.0000000000000000  0.0000000000000000
  0.5000000000000000  0.5000000000000000  0.5000000000000000
  0.1363640576580352  0.8876551087922238  0.6125085964359798
  0.8876551087922238  0.1363640576580352  0.3634722371137613
  0.6125085964359798  0.3634722371137613  0.1363640576580352
  0.3634722371137613  0.6125085964359798  0.8876551087922238
  0.6125085964359798  0.1363640576580352  0.8876551087922238
  0.3634722371137613  0.8876551087922238  0.1363640576580352
  0.1363640576580352  0.6125085964359798  0.3634722371137613
  0.8876551087922238  0.3634722371137613  0.6125085964359798
  0.8876551087922238  0.6125085964359798  0.1363640576580352
  0.1363640576580352  0.3634722371137613  0.8876551087922238
  0.3634722371137613  0.1363640576580352  0.6125085964359798
  0.6125085964359798  0.8876551087922238  0.3634722371137613
  0.1363640576580352  0.3634722371137613  0.6125085964359798
  0.3634722371137613  0.1363640576580352  0.8876551087922238
  0.6125085964359798  0.8876551087922238  0.1363640576580352
  0.8876551087922238  0.6125085964359798  0.3634722371137613
  0.6125085964359798  0.1363640576580352  0.3634722371137613
  0.8876551087922238  0.3634722371137613  0.1363640576580352
  0.1363640576580352  0.6125085964359798  0.8876551087922238
  0.3634722371137613  0.8876551087922238  0.6125085964359798
  0.3634722371137613  0.6125085964359798  0.1363640576580352
  0.1363640576580352  0.8876551087922238  0.3634722371137613
  0.8876551087922238  0.1363640576580352  0.6125085964359798
  0.6125085964359798  0.3634722371137613  0.8876551087922238
 
  0.00000000E+00  0.00000000E+00  0.00000000E+00
  0.00000000E+00  0.00000000E+00  0.00000000E+00
  0.00000000E+00  0.00000000E+00  0.00000000E+00
  0.00000000E+00  0.00000000E+00  0.00000000E+00
  0.00000000E+00  0.00000000E+00  0.00000000E+00
  0.00000000E+00  0.00000000E+00  0.00000000E+00
  0.00000000E+00  0.00000000E+00  0.00000000E+00
  0.00000000E+00  0.00000000E+00  0.00000000E+00
  0.00000000E+00  0.00000000E+00  0.00000000E+00
  0.00000000E+00  0.00000000E+00  0.00000000E+00
  0.00000000E+00  0.00000000E+00  0.00000000E+00
  0.00000000E+00  0.00000000E+00  0.00000000E+00
  0.00000000E+00  0.00000000E+00  0.00000000E+00
  0.00000000E+00  0.00000000E+00  0.00000000E+00
  0.00000000E+00  0.00000000E+00  0.00000000E+00
  0.00000000E+00  0.00000000E+00  0.00000000E+00
  0.00000000E+00  0.00000000E+00  0.00000000E+00
  0.00000000E+00  0.00000000E+00  0.00000000E+00
  0.00000000E+00  0.00000000E+00  0.00000000E+00
  0.00000000E+00  0.00000000E+00  0.00000000E+00
  0.00000000E+00  0.00000000E+00  0.00000000E+00
  0.00000000E+00  0.00000000E+00  0.00000000E+00
  0.00000000E+00  0.00000000E+00  0.00000000E+00
  0.00000000E+00  0.00000000E+00  0.00000000E+00
  0.00000000E+00  0.00000000E+00  0.00000000E+00
  0.00000000E+00  0.00000000E+00  0.00000000E+00
  0.00000000E+00  0.00000000E+00  0.00000000E+00
  0.00000000E+00  0.00000000E+00  0.00000000E+00
