generated by phonopy                    
   1.00000000000000     
     0.0000000000000000    3.2552381246173798    3.2552381246174567
     3.2552381246174127    0.0000000000000000    3.2552381246174567
     3.2552381246174127    3.2552381246173798    0.0000000000000000
   Na   Zr   K    Hf   H 
     1     1     1     1    24
Direct
  0.2500000000000000  0.2500000000000000  0.2500000000000000
  0.7500000000000000  0.7500000000000000  0.7500000000000000
  0.0000000000000000  0.0000000000000000  0.0000000000000000
  0.5000000000000000  0.5000000000000000  0.5000000000000000
  0.1306765773953131  0.8934132478941592  0.6166604422188442
  0.8934132478941592  0.1306765773953131  0.3592497324916906
  0.6166604422188442  0.3592497324916906  0.1306765773953131
  0.3592497324916906  0.6166604422188442  0.8934132478941592
  0.6166604422188442  0.1306765773953131  0.8934132478941592
  0.3592497324916906  0.8934132478941592  0.1306765773953131
  0.1306765773953131  0.6166604422188442  0.3592497324916906
  0.8934132478941592  0.3592497324916906  0.6166604422188442
  0.8934132478941592  0.6166604422188442  0.1306765773953131
  0.1306765773953131  0.3592497324916906  0.8934132478941592
  0.3592497324916906  0.1306765773953131  0.6166604422188442
  0.6166604422188442  0.8934132478941592  0.3592497324916906
  0.1306765773953131  0.3592497324916906  0.6166604422188442
  0.3592497324916906  0.1306765773953131  0.8934132478941592
  0.6166604422188442  0.8934132478941592  0.1306765773953131
  0.8934132478941592  0.6166604422188442  0.3592497324916906
  0.6166604422188442  0.1306765773953131  0.3592497324916906
  0.8934132478941592  0.3592497324916906  0.1306765773953131
  0.1306765773953131  0.6166604422188442  0.8934132478941592
  0.3592497324916906  0.8934132478941592  0.6166604422188442
  0.3592497324916906  0.6166604422188442  0.1306765773953131
  0.1306765773953131  0.8934132478941592  0.3592497324916906
  0.8934132478941592  0.1306765773953131  0.6166604422188442
  0.6166604422188442  0.3592497324916906  0.8934132478941592
 
  0.00000000E+00  0.00000000E+00  0.00000000E+00
  0.00000000E+00  0.00000000E+00  0.00000000E+00
  0.00000000E+00  0.00000000E+00  0.00000000E+00
  0.00000000E+00  0.00000000E+00  0.00000000E+00
  0.00000000E+00  0.00000000E+00  0.00000000E+00
  0.00000000E+00  0.00000000E+00  0.00000000E+00
  0.00000000E+00  0.00000000E+00  0.00000000E+00
  0.00000000E+00  0.00000000E+00  0.00000000E+00
  0.00000000E+00  0.00000000E+00  0.00000000E+00
  0.00000000E+00  0.00000000E+00  0.00000000E+00
  0.00000000E+00  0.00000000E+00  0.00000000E+00
  0.00000000E+00  0.00000000E+00  0.00000000E+00
  0.00000000E+00  0.00000000E+00  0.00000000E+00
  0.00000000E+00  0.00000000E+00  0.00000000E+00
  0.00000000E+00  0.00000000E+00  0.00000000E+00
  0.00000000E+00  0.00000000E+00  0.00000000E+00
  0.00000000E+00  0.00000000E+00  0.00000000E+00
  0.00000000E+00  0.00000000E+00  0.00000000E+00
  0.00000000E+00  0.00000000E+00  0.00000000E+00
  0.00000000E+00  0.00000000E+00  0.00000000E+00
  0.00000000E+00  0.00000000E+00  0.00000000E+00
  0.00000000E+00  0.00000000E+00  0.00000000E+00
  0.00000000E+00  0.00000000E+00  0.00000000E+00
  0.00000000E+00  0.00000000E+00  0.00000000E+00
  0.00000000E+00  0.00000000E+00  0.00000000E+00
  0.00000000E+00  0.00000000E+00  0.00000000E+00
  0.00000000E+00  0.00000000E+00  0.00000000E+00
  0.00000000E+00  0.00000000E+00  0.00000000E+00
