generated by phonopy                    
   1.00000000000000     
     0.0000000000000000    3.2335218033761244    3.2335218033762088
     3.2335218033761612    0.0000000000000000    3.2335218033762088
     3.2335218033761612    3.2335218033761244    0.0000000000000000
   Ca   Sc   Ti   Zr   H 
     1     1     1     1    24
Direct
  0.2500000000000000  0.2500000000000000  0.2500000000000000
  0.7500000000000000  0.7500000000000000  0.7500000000000000
  0.0000000000000000  0.0000000000000000  0.0000000000000000
  0.5000000000000000  0.5000000000000000  0.5000000000000000
  0.1162579230929097  0.8821095732196014  0.6287464668190665
  0.8821095732196014  0.1162579230929097  0.3728860368684224
  0.6287464668190665  0.3728860368684224  0.1162579230929097
  0.3728860368684224  0.6287464668190665  0.8821095732196014
  0.6287464668190665  0.1162579230929097  0.8821095732196014
  0.3728860368684224  0.8821095732196014  0.1162579230929097
  0.1162579230929097  0.6287464668190665  0.3728860368684224
  0.8821095732196014  0.3728860368684224  0.6287464668190665
  0.8821095732196014  0.6287464668190665  0.1162579230929097
  0.1162579230929097  0.3728860368684224  0.8821095732196014
  0.3728860368684224  0.1162579230929097  0.6287464668190665
  0.6287464668190665  0.8821095732196014  0.3728860368684224
  0.1162579230929097  0.3728860368684224  0.6287464668190665
  0.3728860368684224  0.1162579230929097  0.8821095732196014
  0.6287464668190665  0.8821095732196014  0.1162579230929097
  0.8821095732196014  0.6287464668190665  0.3728860368684224
  0.6287464668190665  0.1162579230929097  0.3728860368684224
  0.8821095732196014  0.3728860368684224  0.1162579230929097
  0.1162579230929097  0.6287464668190665  0.8821095732196014
  0.3728860368684224  0.8821095732196014  0.6287464668190665
  0.3728860368684224  0.6287464668190665  0.1162579230929097
  0.1162579230929097  0.8821095732196014  0.3728860368684224
  0.8821095732196014  0.1162579230929097  0.6287464668190665
  0.6287464668190665  0.3728860368684224  0.8821095732196014
 
  0.00000000E+00  0.00000000E+00  0.00000000E+00
  0.00000000E+00  0.00000000E+00  0.00000000E+00
  0.00000000E+00  0.00000000E+00  0.00000000E+00
  0.00000000E+00  0.00000000E+00  0.00000000E+00
  0.00000000E+00  0.00000000E+00  0.00000000E+00
  0.00000000E+00  0.00000000E+00  0.00000000E+00
  0.00000000E+00  0.00000000E+00  0.00000000E+00
  0.00000000E+00  0.00000000E+00  0.00000000E+00
  0.00000000E+00  0.00000000E+00  0.00000000E+00
  0.00000000E+00  0.00000000E+00  0.00000000E+00
  0.00000000E+00  0.00000000E+00  0.00000000E+00
  0.00000000E+00  0.00000000E+00  0.00000000E+00
  0.00000000E+00  0.00000000E+00  0.00000000E+00
  0.00000000E+00  0.00000000E+00  0.00000000E+00
  0.00000000E+00  0.00000000E+00  0.00000000E+00
  0.00000000E+00  0.00000000E+00  0.00000000E+00
  0.00000000E+00  0.00000000E+00  0.00000000E+00
  0.00000000E+00  0.00000000E+00  0.00000000E+00
  0.00000000E+00  0.00000000E+00  0.00000000E+00
  0.00000000E+00  0.00000000E+00  0.00000000E+00
  0.00000000E+00  0.00000000E+00  0.00000000E+00
  0.00000000E+00  0.00000000E+00  0.00000000E+00
  0.00000000E+00  0.00000000E+00  0.00000000E+00
  0.00000000E+00  0.00000000E+00  0.00000000E+00
  0.00000000E+00  0.00000000E+00  0.00000000E+00
  0.00000000E+00  0.00000000E+00  0.00000000E+00
  0.00000000E+00  0.00000000E+00  0.00000000E+00
  0.00000000E+00  0.00000000E+00  0.00000000E+00
