POSCAR                                  
   1.00000000000000     
     9.9363836886920147   -0.1269908910072718    0.0153097115891580
    -0.1258778233409413    9.8530625133843479    0.0350074038428056
     0.0101653880226082    0.0235525550515184    6.5929542644914809
   Sc   Hf   Sr   Ca   H 
     9     9     9     9   216
Direct
  0.1562602707461451  0.1641009794613453  0.2468347878243264
  0.1665035894272151  0.4907166445167164  0.2499362471824043
  0.3286448512750368  0.3362706991511573  0.0042677535624946
  0.8386974236720732  0.1653725594546600  0.2471935206633020
  0.5019833498795947  0.4987146426534821  0.7590379944797547
  0.6761869221140770  0.3327995775200847  0.9982872580155941
  0.4905545862625686  0.8486646670559708  0.7559260190593093
  0.9907625640226669  0.9958397631141622  0.5004884321038148
  0.9926908653832172  0.9983642014397063  0.0014669226914208
  0.1596774880969107  0.1615435025934033  0.7564268584733895
  0.4971750744874797  0.1656571451933786  0.2410180420527439
  0.1780273323812622  0.5026129287626020  0.7489355909572097
  0.5106085202245154  0.5020396608570792  0.2398998244470931
  0.6699356589725056  0.3370440737754734  0.4967028746612456
  0.3169537579556874  0.0021772989610440  0.4997432275389784
  0.0056957863481202  0.3305738078435070  0.4994691297581042
  0.8435189630088971  0.4921458371945491  0.7511604865053911
  0.6679208090827373  0.0071278448694443  0.4991163648336183
  0.3409570879809820  0.3306267719450773  0.5043834984652094
  0.4942976523700509  0.1768376361807213  0.7441289020993835
  0.3440722135264522  0.6743696793320382  0.4938837418554911
  0.1580737245185233  0.8227591118200337  0.7542742503319957
  0.4815760769542550  0.8259967300482103  0.2554137711455056
  0.6826404327895474  0.6750084778466601  0.4997657301086420
  0.6800217077362518  0.6764399207800977  0.9956344493177767
  0.8207035668194891  0.8243208649389260  0.2508977922633946
  0.8170312900792638  0.8233914338887089  0.7554638280429842
  0.1541812375905138  0.8374274281549603  0.2496622098612136
  0.3403107683919160  0.6690370672305477  0.0022246310485485
  0.8335187214105773  0.1632900264481947  0.7520306739860629
  0.8432644218497103  0.4906754536585538  0.2478613142141697
  0.3268298208850950  0.0021939308177821  0.0038319259095161
  0.0013445467558100  0.3305136565355369  0.0012846394915016
  0.0131738331868050  0.6685901807386543  0.4947881008867157
  0.6566346898247417  0.0123427734990145  0.9996265577216263
  0.0150248667872503  0.6638113962089207  0.9984304034801994
  0.1620666144638463  0.0835071686102467  0.0076225610117220
  0.1501678519499805  0.0833394086335204  0.4947570184425132
  0.1692327912071505  0.4125463807467966  0.0026729728378001
  0.4921783169607465  0.0876895621440141  0.9965502303659619
  0.3301312107630068  0.2499737341185551  0.2414680918803356
  0.1712399117306518  0.4140435865908216  0.4976277642224787
  0.5051041432974372  0.0852759079140171  0.4952066167638947
  0.3197910121176832  0.2534993095086406  0.7695175164391159
  0.1792785544547186  0.7456178947675909  0.0208368265324381
  0.4975145988966148  0.4170353709390611  0.9999080550728792
  0.3186658585548230  0.5821814855034830  0.2429807625599807
  0.1741365710557474  0.7497123767078619  0.4864387683168871
  0.8283730166222298  0.0852157417946771  0.0032298157570594
  0.6687991385769720  0.2505917431616780  0.2428260719976123
  0.5078365438589358  0.4231027642917908  0.4904421141045177
  0.3518755113603618  0.5897264559031257  0.7556470469645973
  0.8373521270716253  0.0880091941374843  0.4973558035771646
  0.6732691152254091  0.2530377896045266  0.7526788798652362
  0.5071535443700839  0.7528486505143377  0.9781927329632936
  0.3177258632094890  0.9214443137791193  0.2465811065678665
  0.8376476639533692  0.4089266914124465  0.0046519810524615
  0.6815955973785961  0.5813685284790537  0.2466591179131470
  0.5150326494590942  0.7550503638484756  0.5396919684475421
  0.3253788633592691  0.9160043452636231  0.7640762087805442
  0.0002821491286724  0.2446033846124251  0.2467359197808179
  0.8399806411280650  0.4110705537632811  0.4932635764828532
  0.6555431585340514  0.5829084099607087  0.7500667532974035
  0.9996300897204904  0.2470857467163299  0.7542186046236168
  0.8639433448352349  0.7434067344631217  0.0052182639848226
  0.6534265829398507  0.9241242363470619  0.2428587733511236
  0.0085162409667632  0.5798479129432437  0.2500401968757799
  0.8618851179335536  0.7443932423783792  0.5058596467750220
  0.6537641584448082  0.9244225035607130  0.7606720917583445
  0.0082343812519881  0.5796283325851235  0.7432744272184237
  0.9910572663682231  0.9166912943997474  0.2443859365051324
  0.9907593831347512  0.9136601738921186  0.7549543394307179
  0.0776990805977888  0.1637903321908070  0.0085994180923592
  0.0783092229696365  0.1575042807972906  0.4925668420022262
  0.0892058654293564  0.4966768570637186  0.0038586615175049
  0.4066002893720224  0.1753652826390777  0.0013235979862927
  0.2516831390429743  0.3335146983861677  0.2472815013668708
  0.0887527578051746  0.5028481886097040  0.4964367787455899
  0.4145266261629672  0.1547950750654863  0.4840964421121896
  0.2517098069953718  0.3370237652656485  0.7586953759486761
  0.0749177945216175  0.8416970752085433  0.0097784429600978
  0.4158444433445467  0.5005450807245850  0.9949865894494181
  0.2552255298945880  0.6479439759605512  0.2423095105247910
  0.0743253125362315  0.8448627149661760  0.4953397072475454
  0.7539596161718691  0.1668284838940011  0.0051494647837629
  0.5871023065442458  0.3297138457460349  0.2276451310474954
  0.4245021740601089  0.5035348190054663  0.5011318329190217
  0.2653051563446667  0.6649290243614487  0.7564589685585403
  0.7595200432215776  0.1712868385073349  0.4934738344764540
  0.5869888460399295  0.3474488085922474  0.7690610643083957
  0.4076388879644810  0.8410600561952606  0.9924004483439717
  0.2364191015898385  0.0064381337797315  0.2433384592289229
  0.7551937351700744  0.4990687076935671  0.0006756728682689
  0.5929428952897098  0.6721148166005264  0.2485427530523481
  0.4139351560526805  0.8542742620891914  0.5211436459481433
  0.2407591795355088  0.9961283582439648  0.7594428211663669
  0.9177661461779678  0.3258153408573818  0.2489795459123201
  0.7580671705103228  0.5005818802639155  0.5002048604896245
  0.5926181911341502  0.6555809235412013  0.7504590914670146
  0.9201091042148093  0.3250943736871506  0.7515930911520101
  0.7395251730562080  0.8624234636910018  0.0055631163374201
  0.5797607071766961  0.9992582830810264  0.2519413642757371
  0.9317832261463650  0.6576234858030503  0.2474911066054659
  0.7461332696871281  0.8556317819812307  0.5044492835282028
  0.5751414858397723  0.0053845874628067  0.7473644817168719
  0.9283220404889008  0.6655185254794489  0.7505182036595031
  0.9109342078903850  0.0006013626997756  0.2487947958482764
  0.9108555831223413  0.9981148331334566  0.7513928248678141
  0.1580357567137014  0.0034160478918821  0.1257965931675997
  0.1501522665643691  0.9976456455158811  0.6276685168464553
  0.1663989531050021  0.3286990002733887  0.1253370642120899
  0.4918305731554682  0.9976788797516178  0.1258563284567913
  0.3169993063142016  0.1658401277422783  0.3660772316827519
  0.1693223297641850  0.3304615352528728  0.6265347855891150
  0.4952764643966745  0.0039295409541538  0.6245345245831970
  0.3266914746695946  0.1674798250940341  0.8840246420008526
  0.1717333038347917  0.6657247066678522  0.1256813285744656
  0.5053062873329424  0.3358588675029850  0.1179927219079744
  0.3380763827900921  0.5005566296552075  0.3703828148261863
  0.1737816382514481  0.6573986610616487  0.6135968171164095
  0.8303183652410979  0.0018541630687281  0.1273539775337866
  0.6764939605185489  0.1733680475353907  0.3679908312140228
  0.5122377355498102  0.3521702334879393  0.6247339720059841
  0.3415726420810046  0.5025939579490313  0.8848804061092039
  0.8373280970753854  0.9991370788328737  0.6297835579000761
  0.6684017983042736  0.1746876184640485  0.8746835066688874
  0.5079805832599007  0.6617299962769039  0.1124679591810320
  0.3115653905227376  0.8441350846705475  0.3762170342654869
  0.8351198852760362  0.3268835037856519  0.1234522910936420
  0.6737646252537175  0.5021706529067131  0.3733463887858761
  0.5098971414630782  0.6611914272102410  0.6263031345509020
  0.3324204161683468  0.8403470689281320  0.8757852331978881
  0.9971151541182905  0.1568750686714750  0.3724038266932652
  0.8354500600996388  0.3259642192218450  0.6278218597704068
  0.6661950005875426  0.4980347532987537  0.8765975136329516
  0.9939708254956017  0.1601613973694853  0.8799649905889666
  0.8527095226700467  0.6509616278071277  0.1217650340537091
  0.6481704880769925  0.8473249650683385  0.3794828072632797
  0.0081738328206882  0.5023125846818530  0.3748191481325378
  0.8562275448494319  0.6536783044864194  0.6215849311497408
  0.6454528110461339  0.8523981599103223  0.8745613260497791
  0.0085760599139064  0.4972051124945054  0.8779412396034161
  0.9923066987414018  0.8379218729220312  0.3721240232442398
  0.9877528947603622  0.8417304089672797  0.8779426135315944
  0.0743125531618674  0.0012784344088388  0.2546301468366678
  0.0742061966835976  0.9940087151497039  0.7484702503589844
  0.0861073951153912  0.3270360936409844  0.2430355669729067
  0.4079255708777723  0.0030388881537178  0.2555749048919438
  0.2420344185300323  0.1674409605316995  0.4783967389473602
  0.0858110570531423  0.3355837171188938  0.7602044206223297
  0.4076272278517408  0.0052853671468256  0.7454154135973425
  0.2464727280916321  0.1655306841154456  0.0157262751971174
  0.0958984552135433  0.6570297041102577  0.2446994876846773
  0.4152560768584763  0.3367909688948316  0.2361111661810114
  0.2572670809878659  0.5001618847075093  0.4862935206714170
  0.0836496983253525  0.6498276790544963  0.7458982152416098
  0.7480868667945586  0.0053295054468521  0.2402110538886646
  0.5850149952831245  0.1659089006189873  0.4904652206225109
  0.4152335457632290  0.3459075243519010  0.7737155416648918
  0.2560915155353030  0.5012524575432664  0.0149540939947173
  0.7475738368910569  0.9992863290750478  0.7567103554748300
  0.5851371524163724  0.1792114182872453  0.9992436649108285
  0.4139280242227485  0.6452127487635906  0.2382903190615409
  0.2378793660708993  0.8334094917719597  0.4931038629609574
  0.7552519856206672  0.3254037646504742  0.2460053170293506
  0.5909982217885599  0.5049417185275189  0.5132858751934393
  0.4261178610904892  0.6654105662254892  0.7568265019320606
  0.2435138563414299  0.8357910606002221  0.0098410924062762
  0.9168341490110450  0.1615010419127074  0.5005289315961576
  0.7534957707817682  0.3289375726909611  0.7507878676197492
  0.5926997836885946  0.4965947739204282  0.9863344184056402
  0.9157959386483299  0.1625850271460223  0.9995714368404691
  0.7633975429224193  0.6413383348176822  0.2451969035558932
  0.5718774825752391  0.8415934076168412  0.5097231672386826
  0.9266361112642514  0.4987505906116922  0.4945009440854093
  0.7584425600429583  0.6387549530578553  0.7481786614611039
  0.5717022934726330  0.8431109283594438  0.9997195210976315
  0.9278783081652264  0.4968129639537011  0.0027005571772420
  0.9119981312271364  0.8295830439581238  0.5019848388905643
  0.9122726677520916  0.8291183986347761  0.0006270927768526
  0.9987368996696944  0.1611283239837604  0.1236812146750239
  0.9957830486841246  0.1564096799085704  0.6239555630147677
  0.0091907210116844  0.4969607364169661  0.1223541564396058
  0.3186118407001075  0.1693253111573441  0.1221473873140440
  0.1706943332587869  0.3283177557577091  0.3719238114177799
  0.0065680017118410  0.5022484384872357  0.6203790258286261
  0.3190034043269989  0.1605966821885829  0.6250838357380317
  0.1656160839564933  0.3328946763340355  0.8821677642076722
  0.9944498027908395  0.8357421660610385  0.1281484276228539
  0.3355567467979341  0.4985069130689581  0.1207627914571390
  0.1707828255166532  0.6590108249845628  0.3673505047058612
  0.9886656891025041  0.8397288624582941  0.6268893659197801
  0.6743411063259828  0.1747197193158101  0.1251361274522225
  0.5066003687115526  0.3417751381118563  0.3654990846727273
  0.3461210249471520  0.5033376346638008  0.6238951267706838
  0.1794480929971272  0.6559861719436313  0.8873066327565624
  0.6705887575267084  0.1719730516699016  0.6253639145948924
  0.5108190331458076  0.3417735491237011  0.8834431066226855
  0.3144650590984313  0.8362620377396155  0.1223869818758061
  0.1494987430978156  0.0039183685727195  0.3688466975002029
  0.6774406943045577  0.4958905452920206  0.1162684213243494
  0.5159159707823022  0.6525905279275861  0.3803288308630783
  0.3306490666204809  0.8420868391271199  0.6344712269545028
  0.1587498610150746  0.9954488235193040  0.8833580509602470
  0.8353461879240314  0.3263406627039842  0.3689099449207802
  0.6647194839442889  0.5007923352849559  0.6297434687446852
  0.5041160786639551  0.6759469387788002  0.8710323955493919
  0.8359594831865564  0.3249901280413852  0.8769081669110435
  0.6501814846572103  0.8502947857665433  0.1211340071335059
  0.4961127260693843  0.9984128027779136  0.3766945050831296
  0.8543558921459038  0.6500099474305472  0.3726936447779892
  0.6454140185319162  0.8454965652329349  0.6351103538095515
  0.4916455813187994  0.0050531279732269  0.8767386599368123
  0.8567625925237081  0.6514482985259704  0.8769340827523990
  0.8379128993516929  0.0013859852821696  0.3689320935753102
  0.8301858218741387  0.0003307108415314  0.8780935042570306
  0.9948384854316501  0.0816698985358926  0.2524242303465343
  0.9927382201610939  0.0799222531307606  0.7489700044816772
  0.0054921191456074  0.4113917538225422  0.2476986846600084
  0.3215104140416543  0.0890486414546174  0.2409539357452530
  0.1667516498955308  0.2452395688085929  0.4945681723653763
  0.0129283589441869  0.4103722883847780  0.7529182980194236
  0.3273529256659913  0.0841131932063846  0.7624793055979282
  0.1658380798389700  0.2516231128527338  0.0040526562399776
  0.9927735256140267  0.7480552336974995  0.2417925753186907
  0.3346912981791661  0.4124848053850414  0.2434939776956639
  0.1713268100732463  0.5816555181980263  0.4833510363106015
  0.9839899695137149  0.7463664625502773  0.7467172714768182
  0.6713035201884381  0.0914335040084069  0.2457418955226345
  0.5101030024342066  0.2518127947260851  0.4795343295671870
  0.3339850380639149  0.4160670647348397  0.7618985677744590
  0.1774567370161222  0.5791126812282741  0.0150154685815806
  0.6647849471740628  0.0916247370160903  0.7500346887158003
  0.4981213345401940  0.2593512591941334  0.0010815623339155
  0.3032779796433118  0.7508259995868940  0.2357190770699304
  0.1498982771284503  0.9168812170059653  0.4997205183189308
  0.6750213175595121  0.4114764522560961  0.2408514618706334
  0.5110699026896981  0.5876907858488849  0.5272331521743396
  0.3379515106241797  0.7510551736776421  0.7572988045789089
  0.1564079884531253  0.9192851735501506  0.0041967460963619
  0.8371473946191372  0.2452202320273216  0.5004983969064511
  0.6736997765398982  0.4161904811777575  0.7574307840492978
  0.5044048869701285  0.5877203977395880  0.9850607781318956
  0.8365596551867540  0.2466463899352860  0.0001554431020381
  0.6446836742181574  0.7534846740873178  0.2466173155804938
  0.4965098699330852  0.9232153803416736  0.5039022094147185
  0.8505658415326920  0.5785382892661559  0.4929121279443862
  0.6293996609119858  0.7566091521799123  0.7440762828277414
  0.4928242297852350  0.9221050498078398  0.0021893202615644
  0.8480296069569349  0.5779356615118374  0.0057504716076480
  0.8341256084628625  0.9166516920198120  0.5013107466165678
  0.8260869304796614  0.9196895738796584  0.0026674542036673
 
  0.00000000E+00  0.00000000E+00  0.00000000E+00
  0.00000000E+00  0.00000000E+00  0.00000000E+00
  0.00000000E+00  0.00000000E+00  0.00000000E+00
  0.00000000E+00  0.00000000E+00  0.00000000E+00
  0.00000000E+00  0.00000000E+00  0.00000000E+00
  0.00000000E+00  0.00000000E+00  0.00000000E+00
  0.00000000E+00  0.00000000E+00  0.00000000E+00
  0.00000000E+00  0.00000000E+00  0.00000000E+00
  0.00000000E+00  0.00000000E+00  0.00000000E+00
  0.00000000E+00  0.00000000E+00  0.00000000E+00
  0.00000000E+00  0.00000000E+00  0.00000000E+00
  0.00000000E+00  0.00000000E+00  0.00000000E+00
  0.00000000E+00  0.00000000E+00  0.00000000E+00
  0.00000000E+00  0.00000000E+00  0.00000000E+00
  0.00000000E+00  0.00000000E+00  0.00000000E+00
  0.00000000E+00  0.00000000E+00  0.00000000E+00
  0.00000000E+00  0.00000000E+00  0.00000000E+00
  0.00000000E+00  0.00000000E+00  0.00000000E+00
  0.00000000E+00  0.00000000E+00  0.00000000E+00
  0.00000000E+00  0.00000000E+00  0.00000000E+00
  0.00000000E+00  0.00000000E+00  0.00000000E+00
  0.00000000E+00  0.00000000E+00  0.00000000E+00
  0.00000000E+00  0.00000000E+00  0.00000000E+00
  0.00000000E+00  0.00000000E+00  0.00000000E+00
  0.00000000E+00  0.00000000E+00  0.00000000E+00
  0.00000000E+00  0.00000000E+00  0.00000000E+00
  0.00000000E+00  0.00000000E+00  0.00000000E+00
  0.00000000E+00  0.00000000E+00  0.00000000E+00
  0.00000000E+00  0.00000000E+00  0.00000000E+00
  0.00000000E+00  0.00000000E+00  0.00000000E+00
  0.00000000E+00  0.00000000E+00  0.00000000E+00
  0.00000000E+00  0.00000000E+00  0.00000000E+00
  0.00000000E+00  0.00000000E+00  0.00000000E+00
  0.00000000E+00  0.00000000E+00  0.00000000E+00
  0.00000000E+00  0.00000000E+00  0.00000000E+00
  0.00000000E+00  0.00000000E+00  0.00000000E+00
  0.00000000E+00  0.00000000E+00  0.00000000E+00
  0.00000000E+00  0.00000000E+00  0.00000000E+00
  0.00000000E+00  0.00000000E+00  0.00000000E+00
  0.00000000E+00  0.00000000E+00  0.00000000E+00
  0.00000000E+00  0.00000000E+00  0.00000000E+00
  0.00000000E+00  0.00000000E+00  0.00000000E+00
  0.00000000E+00  0.00000000E+00  0.00000000E+00
  0.00000000E+00  0.00000000E+00  0.00000000E+00
  0.00000000E+00  0.00000000E+00  0.00000000E+00
  0.00000000E+00  0.00000000E+00  0.00000000E+00
  0.00000000E+00  0.00000000E+00  0.00000000E+00
  0.00000000E+00  0.00000000E+00  0.00000000E+00
  0.00000000E+00  0.00000000E+00  0.00000000E+00
  0.00000000E+00  0.00000000E+00  0.00000000E+00
  0.00000000E+00  0.00000000E+00  0.00000000E+00
  0.00000000E+00  0.00000000E+00  0.00000000E+00
  0.00000000E+00  0.00000000E+00  0.00000000E+00
  0.00000000E+00  0.00000000E+00  0.00000000E+00
  0.00000000E+00  0.00000000E+00  0.00000000E+00
  0.00000000E+00  0.00000000E+00  0.00000000E+00
  0.00000000E+00  0.00000000E+00  0.00000000E+00
  0.00000000E+00  0.00000000E+00  0.00000000E+00
  0.00000000E+00  0.00000000E+00  0.00000000E+00
  0.00000000E+00  0.00000000E+00  0.00000000E+00
  0.00000000E+00  0.00000000E+00  0.00000000E+00
  0.00000000E+00  0.00000000E+00  0.00000000E+00
  0.00000000E+00  0.00000000E+00  0.00000000E+00
  0.00000000E+00  0.00000000E+00  0.00000000E+00
  0.00000000E+00  0.00000000E+00  0.00000000E+00
  0.00000000E+00  0.00000000E+00  0.00000000E+00
  0.00000000E+00  0.00000000E+00  0.00000000E+00
  0.00000000E+00  0.00000000E+00  0.00000000E+00
  0.00000000E+00  0.00000000E+00  0.00000000E+00
  0.00000000E+00  0.00000000E+00  0.00000000E+00
  0.00000000E+00  0.00000000E+00  0.00000000E+00
  0.00000000E+00  0.00000000E+00  0.00000000E+00
  0.00000000E+00  0.00000000E+00  0.00000000E+00
  0.00000000E+00  0.00000000E+00  0.00000000E+00
  0.00000000E+00  0.00000000E+00  0.00000000E+00
  0.00000000E+00  0.00000000E+00  0.00000000E+00
  0.00000000E+00  0.00000000E+00  0.00000000E+00
  0.00000000E+00  0.00000000E+00  0.00000000E+00
  0.00000000E+00  0.00000000E+00  0.00000000E+00
  0.00000000E+00  0.00000000E+00  0.00000000E+00
  0.00000000E+00  0.00000000E+00  0.00000000E+00
  0.00000000E+00  0.00000000E+00  0.00000000E+00
  0.00000000E+00  0.00000000E+00  0.00000000E+00
  0.00000000E+00  0.00000000E+00  0.00000000E+00
  0.00000000E+00  0.00000000E+00  0.00000000E+00
  0.00000000E+00  0.00000000E+00  0.00000000E+00
  0.00000000E+00  0.00000000E+00  0.00000000E+00
  0.00000000E+00  0.00000000E+00  0.00000000E+00
  0.00000000E+00  0.00000000E+00  0.00000000E+00
  0.00000000E+00  0.00000000E+00  0.00000000E+00
  0.00000000E+00  0.00000000E+00  0.00000000E+00
  0.00000000E+00  0.00000000E+00  0.00000000E+00
  0.00000000E+00  0.00000000E+00  0.00000000E+00
  0.00000000E+00  0.00000000E+00  0.00000000E+00
  0.00000000E+00  0.00000000E+00  0.00000000E+00
  0.00000000E+00  0.00000000E+00  0.00000000E+00
  0.00000000E+00  0.00000000E+00  0.00000000E+00
  0.00000000E+00  0.00000000E+00  0.00000000E+00
  0.00000000E+00  0.00000000E+00  0.00000000E+00
  0.00000000E+00  0.00000000E+00  0.00000000E+00
  0.00000000E+00  0.00000000E+00  0.00000000E+00
  0.00000000E+00  0.00000000E+00  0.00000000E+00
  0.00000000E+00  0.00000000E+00  0.00000000E+00
  0.00000000E+00  0.00000000E+00  0.00000000E+00
  0.00000000E+00  0.00000000E+00  0.00000000E+00
  0.00000000E+00  0.00000000E+00  0.00000000E+00
  0.00000000E+00  0.00000000E+00  0.00000000E+00
  0.00000000E+00  0.00000000E+00  0.00000000E+00
  0.00000000E+00  0.00000000E+00  0.00000000E+00
  0.00000000E+00  0.00000000E+00  0.00000000E+00
  0.00000000E+00  0.00000000E+00  0.00000000E+00
  0.00000000E+00  0.00000000E+00  0.00000000E+00
  0.00000000E+00  0.00000000E+00  0.00000000E+00
  0.00000000E+00  0.00000000E+00  0.00000000E+00
  0.00000000E+00  0.00000000E+00  0.00000000E+00
  0.00000000E+00  0.00000000E+00  0.00000000E+00
  0.00000000E+00  0.00000000E+00  0.00000000E+00
  0.00000000E+00  0.00000000E+00  0.00000000E+00
  0.00000000E+00  0.00000000E+00  0.00000000E+00
  0.00000000E+00  0.00000000E+00  0.00000000E+00
  0.00000000E+00  0.00000000E+00  0.00000000E+00
  0.00000000E+00  0.00000000E+00  0.00000000E+00
  0.00000000E+00  0.00000000E+00  0.00000000E+00
  0.00000000E+00  0.00000000E+00  0.00000000E+00
  0.00000000E+00  0.00000000E+00  0.00000000E+00
  0.00000000E+00  0.00000000E+00  0.00000000E+00
  0.00000000E+00  0.00000000E+00  0.00000000E+00
  0.00000000E+00  0.00000000E+00  0.00000000E+00
  0.00000000E+00  0.00000000E+00  0.00000000E+00
  0.00000000E+00  0.00000000E+00  0.00000000E+00
  0.00000000E+00  0.00000000E+00  0.00000000E+00
  0.00000000E+00  0.00000000E+00  0.00000000E+00
  0.00000000E+00  0.00000000E+00  0.00000000E+00
  0.00000000E+00  0.00000000E+00  0.00000000E+00
  0.00000000E+00  0.00000000E+00  0.00000000E+00
  0.00000000E+00  0.00000000E+00  0.00000000E+00
  0.00000000E+00  0.00000000E+00  0.00000000E+00
  0.00000000E+00  0.00000000E+00  0.00000000E+00
  0.00000000E+00  0.00000000E+00  0.00000000E+00
  0.00000000E+00  0.00000000E+00  0.00000000E+00
  0.00000000E+00  0.00000000E+00  0.00000000E+00
  0.00000000E+00  0.00000000E+00  0.00000000E+00
  0.00000000E+00  0.00000000E+00  0.00000000E+00
  0.00000000E+00  0.00000000E+00  0.00000000E+00
  0.00000000E+00  0.00000000E+00  0.00000000E+00
  0.00000000E+00  0.00000000E+00  0.00000000E+00
  0.00000000E+00  0.00000000E+00  0.00000000E+00
  0.00000000E+00  0.00000000E+00  0.00000000E+00
  0.00000000E+00  0.00000000E+00  0.00000000E+00
  0.00000000E+00  0.00000000E+00  0.00000000E+00
  0.00000000E+00  0.00000000E+00  0.00000000E+00
  0.00000000E+00  0.00000000E+00  0.00000000E+00
  0.00000000E+00  0.00000000E+00  0.00000000E+00
  0.00000000E+00  0.00000000E+00  0.00000000E+00
  0.00000000E+00  0.00000000E+00  0.00000000E+00
  0.00000000E+00  0.00000000E+00  0.00000000E+00
  0.00000000E+00  0.00000000E+00  0.00000000E+00
  0.00000000E+00  0.00000000E+00  0.00000000E+00
  0.00000000E+00  0.00000000E+00  0.00000000E+00
  0.00000000E+00  0.00000000E+00  0.00000000E+00
  0.00000000E+00  0.00000000E+00  0.00000000E+00
  0.00000000E+00  0.00000000E+00  0.00000000E+00
  0.00000000E+00  0.00000000E+00  0.00000000E+00
  0.00000000E+00  0.00000000E+00  0.00000000E+00
  0.00000000E+00  0.00000000E+00  0.00000000E+00
  0.00000000E+00  0.00000000E+00  0.00000000E+00
  0.00000000E+00  0.00000000E+00  0.00000000E+00
  0.00000000E+00  0.00000000E+00  0.00000000E+00
  0.00000000E+00  0.00000000E+00  0.00000000E+00
  0.00000000E+00  0.00000000E+00  0.00000000E+00
  0.00000000E+00  0.00000000E+00  0.00000000E+00
  0.00000000E+00  0.00000000E+00  0.00000000E+00
  0.00000000E+00  0.00000000E+00  0.00000000E+00
  0.00000000E+00  0.00000000E+00  0.00000000E+00
  0.00000000E+00  0.00000000E+00  0.00000000E+00
  0.00000000E+00  0.00000000E+00  0.00000000E+00
  0.00000000E+00  0.00000000E+00  0.00000000E+00
  0.00000000E+00  0.00000000E+00  0.00000000E+00
  0.00000000E+00  0.00000000E+00  0.00000000E+00
  0.00000000E+00  0.00000000E+00  0.00000000E+00
  0.00000000E+00  0.00000000E+00  0.00000000E+00
  0.00000000E+00  0.00000000E+00  0.00000000E+00
  0.00000000E+00  0.00000000E+00  0.00000000E+00
  0.00000000E+00  0.00000000E+00  0.00000000E+00
  0.00000000E+00  0.00000000E+00  0.00000000E+00
  0.00000000E+00  0.00000000E+00  0.00000000E+00
  0.00000000E+00  0.00000000E+00  0.00000000E+00
  0.00000000E+00  0.00000000E+00  0.00000000E+00
  0.00000000E+00  0.00000000E+00  0.00000000E+00
  0.00000000E+00  0.00000000E+00  0.00000000E+00
  0.00000000E+00  0.00000000E+00  0.00000000E+00
  0.00000000E+00  0.00000000E+00  0.00000000E+00
  0.00000000E+00  0.00000000E+00  0.00000000E+00
  0.00000000E+00  0.00000000E+00  0.00000000E+00
  0.00000000E+00  0.00000000E+00  0.00000000E+00
  0.00000000E+00  0.00000000E+00  0.00000000E+00
  0.00000000E+00  0.00000000E+00  0.00000000E+00
  0.00000000E+00  0.00000000E+00  0.00000000E+00
  0.00000000E+00  0.00000000E+00  0.00000000E+00
  0.00000000E+00  0.00000000E+00  0.00000000E+00
  0.00000000E+00  0.00000000E+00  0.00000000E+00
  0.00000000E+00  0.00000000E+00  0.00000000E+00
  0.00000000E+00  0.00000000E+00  0.00000000E+00
  0.00000000E+00  0.00000000E+00  0.00000000E+00
  0.00000000E+00  0.00000000E+00  0.00000000E+00
  0.00000000E+00  0.00000000E+00  0.00000000E+00
  0.00000000E+00  0.00000000E+00  0.00000000E+00
  0.00000000E+00  0.00000000E+00  0.00000000E+00
  0.00000000E+00  0.00000000E+00  0.00000000E+00
  0.00000000E+00  0.00000000E+00  0.00000000E+00
  0.00000000E+00  0.00000000E+00  0.00000000E+00
  0.00000000E+00  0.00000000E+00  0.00000000E+00
  0.00000000E+00  0.00000000E+00  0.00000000E+00
  0.00000000E+00  0.00000000E+00  0.00000000E+00
  0.00000000E+00  0.00000000E+00  0.00000000E+00
  0.00000000E+00  0.00000000E+00  0.00000000E+00
  0.00000000E+00  0.00000000E+00  0.00000000E+00
  0.00000000E+00  0.00000000E+00  0.00000000E+00
  0.00000000E+00  0.00000000E+00  0.00000000E+00
  0.00000000E+00  0.00000000E+00  0.00000000E+00
  0.00000000E+00  0.00000000E+00  0.00000000E+00
  0.00000000E+00  0.00000000E+00  0.00000000E+00
  0.00000000E+00  0.00000000E+00  0.00000000E+00
  0.00000000E+00  0.00000000E+00  0.00000000E+00
  0.00000000E+00  0.00000000E+00  0.00000000E+00
  0.00000000E+00  0.00000000E+00  0.00000000E+00
  0.00000000E+00  0.00000000E+00  0.00000000E+00
  0.00000000E+00  0.00000000E+00  0.00000000E+00
  0.00000000E+00  0.00000000E+00  0.00000000E+00
  0.00000000E+00  0.00000000E+00  0.00000000E+00
  0.00000000E+00  0.00000000E+00  0.00000000E+00
  0.00000000E+00  0.00000000E+00  0.00000000E+00
  0.00000000E+00  0.00000000E+00  0.00000000E+00
  0.00000000E+00  0.00000000E+00  0.00000000E+00
  0.00000000E+00  0.00000000E+00  0.00000000E+00
  0.00000000E+00  0.00000000E+00  0.00000000E+00
  0.00000000E+00  0.00000000E+00  0.00000000E+00
  0.00000000E+00  0.00000000E+00  0.00000000E+00
  0.00000000E+00  0.00000000E+00  0.00000000E+00
  0.00000000E+00  0.00000000E+00  0.00000000E+00
  0.00000000E+00  0.00000000E+00  0.00000000E+00
  0.00000000E+00  0.00000000E+00  0.00000000E+00
  0.00000000E+00  0.00000000E+00  0.00000000E+00
  0.00000000E+00  0.00000000E+00  0.00000000E+00
  0.00000000E+00  0.00000000E+00  0.00000000E+00
  0.00000000E+00  0.00000000E+00  0.00000000E+00
  0.00000000E+00  0.00000000E+00  0.00000000E+00
  0.00000000E+00  0.00000000E+00  0.00000000E+00
  0.00000000E+00  0.00000000E+00  0.00000000E+00
  0.00000000E+00  0.00000000E+00  0.00000000E+00
  0.00000000E+00  0.00000000E+00  0.00000000E+00
  0.00000000E+00  0.00000000E+00  0.00000000E+00
