generated by phonopy                    
   1.00000000000000     
     0.0000000000000000    3.4897103116230763    3.4897103116231456
     3.4897103116231061    0.0000000000000000    3.4897103116231456
     3.4897103116231061    3.4897103116230763    0.0000000000000000
   Ca   Y    Zr   Ce   H 
     1     1     1     1    24
Direct
  0.2500000000000000  0.2500000000000000  0.2500000000000000
  0.7500000000000000  0.7500000000000000  0.7500000000000000
  0.0000000000000000  0.0000000000000000  0.0000000000000000
  0.5000000000000000  0.5000000000000000  0.5000000000000000
  0.1266521632561393  0.8820827586970594  0.6228024317939784
  0.8820827586970594  0.1266521632561393  0.3684626462528158
  0.6228024317939784  0.3684626462528158  0.1266521632561393
  0.3684626462528158  0.6228024317939784  0.8820827586970594
  0.6228024317939784  0.1266521632561393  0.8820827586970594
  0.3684626462528158  0.8820827586970594  0.1266521632561393
  0.1266521632561393  0.6228024317939784  0.3684626462528158
  0.8820827586970594  0.3684626462528158  0.6228024317939784
  0.8820827586970594  0.6228024317939784  0.1266521632561393
  0.1266521632561393  0.3684626462528158  0.8820827586970594
  0.3684626462528158  0.1266521632561393  0.6228024317939784
  0.6228024317939784  0.8820827586970594  0.3684626462528158
  0.1266521632561393  0.3684626462528158  0.6228024317939784
  0.3684626462528158  0.1266521632561393  0.8820827586970594
  0.6228024317939784  0.8820827586970594  0.1266521632561393
  0.8820827586970594  0.6228024317939784  0.3684626462528158
  0.6228024317939784  0.1266521632561393  0.3684626462528158
  0.8820827586970594  0.3684626462528158  0.1266521632561393
  0.1266521632561393  0.6228024317939784  0.8820827586970594
  0.3684626462528158  0.8820827586970594  0.6228024317939784
  0.3684626462528158  0.6228024317939784  0.1266521632561393
  0.1266521632561393  0.8820827586970594  0.3684626462528158
  0.8820827586970594  0.1266521632561393  0.6228024317939784
  0.6228024317939784  0.3684626462528158  0.8820827586970594
 
  0.00000000E+00  0.00000000E+00  0.00000000E+00
  0.00000000E+00  0.00000000E+00  0.00000000E+00
  0.00000000E+00  0.00000000E+00  0.00000000E+00
  0.00000000E+00  0.00000000E+00  0.00000000E+00
  0.00000000E+00  0.00000000E+00  0.00000000E+00
  0.00000000E+00  0.00000000E+00  0.00000000E+00
  0.00000000E+00  0.00000000E+00  0.00000000E+00
  0.00000000E+00  0.00000000E+00  0.00000000E+00
  0.00000000E+00  0.00000000E+00  0.00000000E+00
  0.00000000E+00  0.00000000E+00  0.00000000E+00
  0.00000000E+00  0.00000000E+00  0.00000000E+00
  0.00000000E+00  0.00000000E+00  0.00000000E+00
  0.00000000E+00  0.00000000E+00  0.00000000E+00
  0.00000000E+00  0.00000000E+00  0.00000000E+00
  0.00000000E+00  0.00000000E+00  0.00000000E+00
  0.00000000E+00  0.00000000E+00  0.00000000E+00
  0.00000000E+00  0.00000000E+00  0.00000000E+00
  0.00000000E+00  0.00000000E+00  0.00000000E+00
  0.00000000E+00  0.00000000E+00  0.00000000E+00
  0.00000000E+00  0.00000000E+00  0.00000000E+00
  0.00000000E+00  0.00000000E+00  0.00000000E+00
  0.00000000E+00  0.00000000E+00  0.00000000E+00
  0.00000000E+00  0.00000000E+00  0.00000000E+00
  0.00000000E+00  0.00000000E+00  0.00000000E+00
  0.00000000E+00  0.00000000E+00  0.00000000E+00
  0.00000000E+00  0.00000000E+00  0.00000000E+00
  0.00000000E+00  0.00000000E+00  0.00000000E+00
  0.00000000E+00  0.00000000E+00  0.00000000E+00
