generated by phonopy                    
   1.00000000000000     
     0.0000000000000000    3.2551676519273087    3.2551676519273611
     3.2551676519273318    0.0000000000000000    3.2551676519273611
     3.2551676519273318    3.2551676519273087    0.0000000000000000
   Na   Ca   Mg   Hf   H 
     1     1     1     1    24
Direct
  0.2500000000000000  0.2500000000000000  0.2500000000000000
  0.7500000000000000  0.7500000000000000  0.7500000000000000
  0.0000000000000000  0.0000000000000000  0.0000000000000000
  0.5000000000000000  0.5000000000000000  0.5000000000000000
  0.1161579225353861  0.8962096052143096  0.6256401412873842
  0.8962096052143096  0.1161579225353861  0.3619923309629272
  0.6256401412873842  0.3619923309629272  0.1161579225353861
  0.3619923309629272  0.6256401412873842  0.8962096052143096
  0.6256401412873842  0.1161579225353861  0.8962096052143096
  0.3619923309629272  0.8962096052143096  0.1161579225353861
  0.1161579225353861  0.6256401412873842  0.3619923309629272
  0.8962096052143096  0.3619923309629272  0.6256401412873842
  0.8962096052143096  0.6256401412873842  0.1161579225353861
  0.1161579225353861  0.3619923309629272  0.8962096052143096
  0.3619923309629272  0.1161579225353861  0.6256401412873842
  0.6256401412873842  0.8962096052143096  0.3619923309629272
  0.1161579225353861  0.3619923309629272  0.6256401412873842
  0.3619923309629272  0.1161579225353861  0.8962096052143096
  0.6256401412873842  0.8962096052143096  0.1161579225353861
  0.8962096052143096  0.6256401412873842  0.3619923309629272
  0.6256401412873842  0.1161579225353861  0.3619923309629272
  0.8962096052143096  0.3619923309629272  0.1161579225353861
  0.1161579225353861  0.6256401412873842  0.8962096052143096
  0.3619923309629272  0.8962096052143096  0.6256401412873842
  0.3619923309629272  0.6256401412873842  0.1161579225353861
  0.1161579225353861  0.8962096052143096  0.3619923309629272
  0.8962096052143096  0.1161579225353861  0.6256401412873842
  0.6256401412873842  0.3619923309629272  0.8962096052143096
 
  0.00000000E+00  0.00000000E+00  0.00000000E+00
  0.00000000E+00  0.00000000E+00  0.00000000E+00
  0.00000000E+00  0.00000000E+00  0.00000000E+00
  0.00000000E+00  0.00000000E+00  0.00000000E+00
  0.00000000E+00  0.00000000E+00  0.00000000E+00
  0.00000000E+00  0.00000000E+00  0.00000000E+00
  0.00000000E+00  0.00000000E+00  0.00000000E+00
  0.00000000E+00  0.00000000E+00  0.00000000E+00
  0.00000000E+00  0.00000000E+00  0.00000000E+00
  0.00000000E+00  0.00000000E+00  0.00000000E+00
  0.00000000E+00  0.00000000E+00  0.00000000E+00
  0.00000000E+00  0.00000000E+00  0.00000000E+00
  0.00000000E+00  0.00000000E+00  0.00000000E+00
  0.00000000E+00  0.00000000E+00  0.00000000E+00
  0.00000000E+00  0.00000000E+00  0.00000000E+00
  0.00000000E+00  0.00000000E+00  0.00000000E+00
  0.00000000E+00  0.00000000E+00  0.00000000E+00
  0.00000000E+00  0.00000000E+00  0.00000000E+00
  0.00000000E+00  0.00000000E+00  0.00000000E+00
  0.00000000E+00  0.00000000E+00  0.00000000E+00
  0.00000000E+00  0.00000000E+00  0.00000000E+00
  0.00000000E+00  0.00000000E+00  0.00000000E+00
  0.00000000E+00  0.00000000E+00  0.00000000E+00
  0.00000000E+00  0.00000000E+00  0.00000000E+00
  0.00000000E+00  0.00000000E+00  0.00000000E+00
  0.00000000E+00  0.00000000E+00  0.00000000E+00
  0.00000000E+00  0.00000000E+00  0.00000000E+00
  0.00000000E+00  0.00000000E+00  0.00000000E+00
