       N       E                     dE             d eps       ncg     rms          rms(c)
DAV:   1     0.114969539564E+05    0.11497E+05   -0.28906E+05148504   0.181E+03
DAV:   2     0.150344078133E+04   -0.99935E+04   -0.93762E+04203384   0.817E+02
DAV:   3    -0.325810569448E+03   -0.18293E+04   -0.16955E+04247776   0.366E+02
DAV:   4    -0.601309588811E+03   -0.27550E+03   -0.26147E+03278792   0.182E+02
DAV:   5    -0.635024180086E+03   -0.33715E+02   -0.32236E+02280768   0.772E+01
DAV:   6    -0.641626770265E+03   -0.66026E+01   -0.64329E+01280768   0.317E+01
DAV:   7    -0.642943398864E+03   -0.13166E+01   -0.12979E+01280768   0.162E+01
DAV:   8    -0.643202727009E+03   -0.25933E+00   -0.25712E+00280768   0.678E+00
DAV:   9    -0.643251583829E+03   -0.48857E-01   -0.48600E-01280768   0.316E+00
DAV:  10    -0.643260990791E+03   -0.94070E-02   -0.93734E-02280768   0.125E+00
DAV:  11    -0.643262864385E+03   -0.18736E-02   -0.18687E-02280768   0.561E-01
DAV:  12    -0.643263253636E+03   -0.38925E-03   -0.38847E-03280768   0.226E-01
DAV:  13    -0.643263337425E+03   -0.83789E-04   -0.83653E-04280768   0.103E-01
DAV:  14    -0.643263356014E+03   -0.18589E-04   -0.18564E-04280768   0.428E-02
DAV:  15    -0.643263360237E+03   -0.42237E-05   -0.42182E-05259816   0.197E-02
DAV:  16    -0.643263361212E+03   -0.97504E-06   -0.97410E-06212144   0.841E-03
DAV:  17    -0.643263361439E+03   -0.22637E-06   -0.22623E-06161664   0.399E-03
DAV:  18    -0.643263361492E+03   -0.52984E-07   -0.54495E-07146096   0.214E-03
   1 F= -.64326336E+03 E0= -.64326336E+03  d E =0.000000E+00
