generated by phonopy                    
   1.00000000000000     
     0.0000000000000000    3.3141869360071996    3.3141869360073306
     3.3141869360072542    0.0000000000000000    3.3141869360073306
     3.3141869360072542    3.3141869360071996    0.0000000000000000
   Na   Y    Hf   Ce   H 
     1     1     1     1    24
Direct
  0.2500000000000000  0.2500000000000000  0.2500000000000000
  0.7500000000000000  0.7500000000000000  0.7500000000000000
  0.0000000000000000  0.0000000000000000  0.0000000000000000
  0.5000000000000000  0.5000000000000000  0.5000000000000000
  0.1312443851640310  0.8912097041470801  0.6129100561827912
  0.8912097041470801  0.1312443851640310  0.3646358545060977
  0.6129100561827912  0.3646358545060977  0.1312443851640310
  0.3646358545060977  0.6129100561827912  0.8912097041470801
  0.6129100561827912  0.1312443851640310  0.8912097041470801
  0.3646358545060977  0.8912097041470801  0.1312443851640310
  0.1312443851640310  0.6129100561827912  0.3646358545060977
  0.8912097041470801  0.3646358545060977  0.6129100561827912
  0.8912097041470801  0.6129100561827912  0.1312443851640310
  0.1312443851640310  0.3646358545060977  0.8912097041470801
  0.3646358545060977  0.1312443851640310  0.6129100561827912
  0.6129100561827912  0.8912097041470801  0.3646358545060977
  0.1312443851640310  0.3646358545060977  0.6129100561827912
  0.3646358545060977  0.1312443851640310  0.8912097041470801
  0.6129100561827912  0.8912097041470801  0.1312443851640310
  0.8912097041470801  0.6129100561827912  0.3646358545060977
  0.6129100561827912  0.1312443851640310  0.3646358545060977
  0.8912097041470801  0.3646358545060977  0.1312443851640310
  0.1312443851640310  0.6129100561827912  0.8912097041470801
  0.3646358545060977  0.8912097041470801  0.6129100561827912
  0.3646358545060977  0.6129100561827912  0.1312443851640310
  0.1312443851640310  0.8912097041470801  0.3646358545060977
  0.8912097041470801  0.1312443851640310  0.6129100561827912
  0.6129100561827912  0.3646358545060977  0.8912097041470801
 
  0.00000000E+00  0.00000000E+00  0.00000000E+00
  0.00000000E+00  0.00000000E+00  0.00000000E+00
  0.00000000E+00  0.00000000E+00  0.00000000E+00
  0.00000000E+00  0.00000000E+00  0.00000000E+00
  0.00000000E+00  0.00000000E+00  0.00000000E+00
  0.00000000E+00  0.00000000E+00  0.00000000E+00
  0.00000000E+00  0.00000000E+00  0.00000000E+00
  0.00000000E+00  0.00000000E+00  0.00000000E+00
  0.00000000E+00  0.00000000E+00  0.00000000E+00
  0.00000000E+00  0.00000000E+00  0.00000000E+00
  0.00000000E+00  0.00000000E+00  0.00000000E+00
  0.00000000E+00  0.00000000E+00  0.00000000E+00
  0.00000000E+00  0.00000000E+00  0.00000000E+00
  0.00000000E+00  0.00000000E+00  0.00000000E+00
  0.00000000E+00  0.00000000E+00  0.00000000E+00
  0.00000000E+00  0.00000000E+00  0.00000000E+00
  0.00000000E+00  0.00000000E+00  0.00000000E+00
  0.00000000E+00  0.00000000E+00  0.00000000E+00
  0.00000000E+00  0.00000000E+00  0.00000000E+00
  0.00000000E+00  0.00000000E+00  0.00000000E+00
  0.00000000E+00  0.00000000E+00  0.00000000E+00
  0.00000000E+00  0.00000000E+00  0.00000000E+00
  0.00000000E+00  0.00000000E+00  0.00000000E+00
  0.00000000E+00  0.00000000E+00  0.00000000E+00
  0.00000000E+00  0.00000000E+00  0.00000000E+00
  0.00000000E+00  0.00000000E+00  0.00000000E+00
  0.00000000E+00  0.00000000E+00  0.00000000E+00
  0.00000000E+00  0.00000000E+00  0.00000000E+00
