POSCAR                                  
   1.00000000000000     
    10.3019260369137093    0.0227998480399314    0.0502327065294551
     0.0227702874400197   10.3146702342586689    0.0021390348550205
     0.0335767426571839    0.0013379189820141    6.8860418323964669
   Zr   Sc   Y    K    H 
     9     9     9     9   216
Direct
  0.1668875899783118  0.1748160884862986  0.2489585771003573
  0.1657334838180788  0.4988150256321969  0.2494308437927048
  0.5044985653190571  0.1601967853814538  0.2473313132691379
  0.5074361556336220  0.1609682197434108  0.7491974457646398
  0.6689675259873463  0.3327687562994048  0.0061603633925308
  0.3366154480179471  0.9963835944842112  0.4963922199840289
  0.0026675336916229  0.3338038827730236  0.9971442876566319
  0.8299322646236104  0.8359515942934768  0.2499026780617472
  0.9993476851939059  0.9989714586997324  0.9962682986825422
  0.1612855898223568  0.1617500457446402  0.7483447984247860
  0.1548612904880335  0.5056849299449439  0.7523138492995193
  0.8343936053506240  0.1723033869170765  0.7499188145696829
  0.8364139055703489  0.4979487493303771  0.2514319726552208
  0.4960753796617350  0.8361965253689294  0.7515161934839720
  0.9989936893326169  0.6653289611713860  0.4938682514313461
  0.8420435034158413  0.8237194046069394  0.7486267255146370
  0.6739221672960761  0.9939106237105613  0.9938790242549628
  0.9958380323397747  0.6687094565135601  0.0044021600192801
  0.3324473447758397  0.3356346249586977  0.5059952367170438
  0.1715059939187175  0.8273432477688984  0.2421041609307850
  0.4992494313023542  0.5023495031338370  0.2574096424708276
  0.3301522720079084  0.6690447889032018  0.5041190099230901
  0.6706265759674375  0.3318392764820147  0.5007371280702279
  0.6634108763091893  0.6678250766720684  0.5046264171055750
  0.3315834728127702  0.0033319417105157  0.9986652740979034
  0.8289120695286871  0.5064913489110009  0.7535888990083387
  0.9975434473301035  0.9993137249804287  0.5000806644108068
  0.3400292517257322  0.3379265739567804  0.9894071526418818
  0.1649165846937447  0.8358165641455021  0.7461791746338793
  0.8386429468043956  0.1655265995973181  0.2588774909818708
  0.4877224411073846  0.4886821234285061  0.7699827043925446
  0.3238455300071570  0.6728408544941646  0.9961644441399496
  0.5111185544755473  0.8280047179590604  0.2458116955440930
  0.9995781024700500  0.3365239275460743  0.4994234374738267
  0.6651220107511346  0.6707909346368227  0.9997373153166830
  0.6689099690574712  0.9998025749505863  0.4935755548289895
  0.1599298435519732  0.0898691839179099  0.9974035686044872
  0.1696152863818333  0.0847368934877789  0.4931688974469685
  0.1708467845974758  0.4167059586919139  0.0001162243953583
  0.5131708830212285  0.0802148202661969  0.9972986025780066
  0.3323986427518271  0.2555211755309616  0.2462156941145405
  0.1640576192495644  0.4191238774882742  0.5061928885680326
  0.5006147400993849  0.0803155838439758  0.5013267398405251
  0.3074910579779553  0.2515779890658806  0.7520740139446584
  0.1498639545358034  0.7449871486794097  0.9884636543941818
  0.5091376335107439  0.4078399967104849  0.0197631110860400
  0.3243599851888839  0.5829623623114101  0.2442778183321919
  0.1597977186989656  0.7481116443978730  0.4976789793804999
  0.8284437388914910  0.0848005702543002  0.9896536071744364
  0.6714294866896504  0.2457577511868069  0.2429703468684734
  0.5023669162813489  0.4122661433911818  0.5074020937486940
  0.3389392567892849  0.5930977056470236  0.7540599580936499
  0.8300360302155654  0.0850818471119919  0.5227396278519421
  0.6761207830595891  0.2472664803929979  0.7564147477465428
  0.4899041658187940  0.7579907408409887  0.9802781246040067
  0.3423299450825640  0.9133696447239362  0.2446377875646384
  0.8368141705765852  0.4165861322884664  0.0027484767261454
  0.6748256293062059  0.5809949607062025  0.2449421272176534
  0.4934495718833809  0.7544646693567938  0.5133298311486667
  0.3397630088383605  0.9182428411617795  0.7474914753036844
  0.0030102559265818  0.2541100973736014  0.2436593559765730
  0.8365506803693502  0.4200720896034248  0.5009624014192708
  0.6554333646991451  0.5808756994479084  0.7519585618674169
  0.0066396345061988  0.2556917841355623  0.7522399750288837
  0.8381442784547297  0.7497467090717409 -0.0011589231358238
  0.6659985667379126  0.9225902511770712  0.2375363472548891
  0.9935636945831310  0.5830990345853388  0.2355690514384783
  0.8358856840872807  0.7459242730225503  0.4945209577699194
  0.6639215949783797  0.9172542056618163  0.7497068438711860
  0.9962032561079652  0.5834543552309911  0.7724257201346706
  0.0031464019674266  0.9142872370212844  0.2429114099120912
  0.9909658871538821  0.9147833891209818  0.7516988116050739
  0.0828123825494704  0.1688781080351705  0.9886018173586596
  0.0842723192360346  0.1679052858904751  0.5074015230809458
  0.0762782447808327  0.4984798842383270  0.9955562033950702
  0.4149320007403803  0.1694660358302432  0.0006799098683208
  0.2587427367577735  0.3327285849195518  0.2407712957520178
  0.0793643893750015  0.5048030735315217  0.5094142742642404
  0.4143719878883463  0.1674158187596235  0.5014805241615902
  0.2509408207208000  0.3233705664352697  0.7545831369442914
  0.0791877995875216  0.8334035932191129  0.9973976736591909
  0.4082349058863797  0.5087111968313766  0.0218583236749277
  0.2482853280127161  0.6560234224543461  0.2525051096134836
  0.0807350811884292  0.8279265347746667  0.4927660681220454
  0.7556587594210129  0.1636128947552345  0.9971925430065516
  0.5858880594858524  0.3318806479338453  0.2515397038609056
  0.4131133827519449  0.5030282020604238  0.5096804281665795
  0.2347077074045676  0.6597272257413139  0.7502674055722306
  0.7561808788322363  0.1618599599619303  0.5165830976218350
  0.5830711016204417  0.3268117304241825  0.7515637022146173
  0.4241676906261522  0.8294582592673204  0.9984922182548372
  0.2499730935411819  0.0041381338228715  0.2532149299947569
  0.7535375623290541  0.5002138865584096  0.0141668936528100
  0.5919928875772865  0.6622962830262528  0.2528359474887394
  0.4238395124067071  0.8319485829205255  0.5004302200110623
  0.2479715858688755  0.0090220773715855  0.7441526135372037
  0.9192733885461398  0.3373522779848842  0.2427074851697311
  0.7503746756729383  0.5017018993031992  0.4994225109896002
  0.5755249304683275  0.6774629968012539  0.7618286990821610
  0.9170642202400360  0.3317237528774907  0.7533329829315851
  0.7490847407334763  0.8338507832566991  0.9729074677956834
  0.5890526679669632  0.9937202241021518  0.2363305768574463
  0.9168326291516664  0.6625367861656820  0.2607127112506429
  0.7463241524502507  0.8329924475711509  0.5266603895325126
  0.5933511064808518  0.9869479016996976  0.7511845287411070
  0.9184321469645115  0.6657313883239208  0.7309253630106737
  0.9165088414491175  0.9985042095632567  0.2386362741882513
  0.9119022103586376  0.0175286899850922  0.7507977582309531
  0.1620435092436469  0.0038416161579438  0.1238639167474936
  0.1688680976788370  0.0067391732519732  0.6188303370860345
  0.1721486135161833  0.3379734287662808  0.1150498217792632
  0.5018846882678506  0.9942401913167556  0.1186967280745590
  0.3352063849863808  0.1663430526998466  0.3813509754522489
  0.1624502612009806  0.3319405929956953  0.6276375729593573
  0.5047912525700813  0.9966168113993914  0.6291219284370956
  0.3348968774863849  0.1685706697594418  0.8697320717149626
  0.1532546402535634  0.6575364942465688  0.1165415677255022
  0.5012700733952701  0.3294613070023470  0.1282018269215746
  0.3233953180934742  0.5037794819562009  0.3797709358951556
  0.1508356744954315  0.6641360397804491  0.6316580856856533
  0.8365652594472947  0.9984426909972717  0.1195558667345145
  0.6645629450456392  0.1662580164117869  0.3710066111952697
  0.5044948708399092  0.3265989828044923  0.6275293459991610
  0.3075958092980003  0.5045763208725512  0.8733643291177430
  0.8305374946656928  0.9804357332861698  0.6262163898180743
  0.6684748733386077  0.1631623075917042  0.8807835876296195
  0.4894737858000866  0.6580804238556720  0.1212820235365728
  0.3427998878022398  0.8360936445246642  0.3717268656248987
  0.8349758176823640  0.3336627380992068  0.1240837714523330
  0.6766939521290413  0.4970650741516074  0.3724412602607669
  0.4958431609301219  0.6559993490796444  0.6304283917964075
  0.3338251588072875  0.8381884765546999  0.8682102134716344
  0.0078696383123358  0.1680403569701009  0.3782704504155880
  0.8352158242087721  0.3366965376934772  0.6305875421748390
  0.6558921300338565  0.4994038882575954  0.8906381780990508
  0.0016176290913626  0.1634462913391571  0.8680144122745619
  0.8344799123796458  0.6646850991986512  0.1252942309228932
  0.6745975187365439  0.8338850356505859  0.3785256819192638
  0.9955000721632250  0.5061245665285596  0.3790371302138351
  0.8424157839387689  0.6728616130635082  0.6211083994317601
  0.6818978672157863  0.8351128565670065  0.8719165565361280
 -0.0005066503250117  0.5142710628059667  0.8753958432126387
  0.9975346888469607  0.8278638039441590  0.3737580851264948
  0.9964432259396340  0.8214818504481541  0.8690447011065993
  0.0895465108244337  0.9975501486312691  0.2548814374631639
  0.0832748554851696  0.0051939453056489  0.7472588740934647
  0.0811148798333346  0.3407150799282681  0.2506407445076425
  0.4207266350585153  0.9957248428171462  0.2459796937170820
  0.2523092865370286  0.1639094954179120  0.5041402088581297
  0.0839721722584987  0.3324245493260018  0.7468260339383151
  0.4190812134051155  0.0035952802344016  0.7497690081845988
  0.2496975527550812  0.1733273618585678  0.9939350107622488
  0.0765637277264945  0.6642479615821079  0.2598937286911450
  0.4197545018344593  0.3247413930026907  0.2468082119821138
  0.2451506864646645  0.5058213409690882  0.5199963320749525
  0.0764268654516412  0.6683094834918230  0.7307982051523397
  0.7479985933135829  0.0034421073835495  0.2333823387693857
  0.5875294642895600  0.1624507205370939  0.5049873181979494
  0.4181809364889525  0.3126056155297723  0.7448452394811953
  0.2428518773660719  0.5040640016560783  0.9834682671685234
  0.7514235122712070  0.0018552867715910  0.7520372577882011
  0.5916404898628331  0.1532818363864236  0.9980074371693384
  0.4140303900259626  0.6731313021766445  0.2382513403633480
  0.2500944681094212  0.8374227617936110  0.5012619727272548
  0.7568229496692247  0.3346780164210779  0.2443079652742135
  0.5811103807315783  0.4998788453478384  0.5145944448040649
  0.4025628576197925  0.6501438120148747  0.7535998612959355
  0.2504392423923695  0.8414449957826782  0.9876943228290469
  0.9172013238525930  0.1713159011830931  0.5161305372234638
  0.7528137313268332  0.3283985868971191  0.7588351537274586
  0.5865853031800379  0.5045683584974691  0.0003724229469194
  0.9156636672165367  0.1693923982065682  0.9926046038386108
  0.7552943674465751  0.6645453837448222  0.2490489594442727
  0.5816445119095582  0.8382082460764402  0.5178786166994663
  0.9172948710976931  0.5044608975295729  0.4941699158727364
  0.7493338380777863  0.6779509659697452  0.7501734192340894
  0.5865292728870255  0.8421182625777613  0.9784296449886870
  0.9162712932186802  0.4947527527640769  0.0072949370121636
  0.9155761086579981  0.8277836632169364  0.4950079264671786
  0.9154535017297379  0.8361065759668442  0.0035285172258888
  0.0030807358857960  0.1639856513335413  0.1190408028853609
  0.0064676939101924  0.1679376203059797  0.6249978334741702
  0.9960781176794076  0.5123977035042527  0.1315243814987403
  0.3355198598582563  0.1714758414981360  0.1206551976777768
  0.1664504020493096  0.3361620098900366  0.3783828952169158
  0.0014255144996832  0.5083274867757255  0.6209542309739412
  0.3277862441550268  0.1634229017991902  0.6224129969873340
  0.1659575526278366  0.3410250448861153  0.8770589676511229
  0.9961827721298319  0.8268505059924202  0.1264783768281603
  0.3435738000758003  0.5059257402817353  0.1135758637261741
  0.1587498393473285  0.6612517891365410  0.3762041687055187
  0.9957738408016029  0.8242765625369171  0.6200537963310837
  0.6716716439087111  0.1649243157701028  0.1220413051681057
  0.5039783360187177  0.3271332664850408  0.3766759154139385
  0.3123052191129369  0.5028084657588694  0.6283806675476302
  0.1535444164639092  0.6648638061906272  0.8743799491077908
  0.6685015068151378  0.1644468599553009  0.6243808785097932
  0.5118505546302375  0.3180343669350020  0.8800142268802529
  0.3440995419358432  0.8409751104631458  0.1235519573308750
  0.1614205224531524  0.0004128468775816  0.3639867740977903
  0.6752482342256755  0.5051829475066869  0.1350486673687764
  0.4967045865654709  0.6668819663901260  0.3831627866226663
  0.3345444378024438  0.8361281638573412  0.6249967554440892
  0.1652796432994239  0.0058574082171285  0.8704721707169730
  0.8357920189400939  0.3404122207416721  0.3713116873680211
  0.6575803711588608  0.5002227327427035  0.6336563993851798
  0.4971431298447963  0.6747325955028937  0.8700459908341579
  0.8316698374480831  0.3391438902464732  0.8786369958190080
  0.6768989691956724  0.8379164672349108  0.1176627192752480
  0.5003688131960818  0.9966017968658906  0.3753204564655860
  0.8379423291125543  0.6631911022221020  0.3731674876468679
  0.6824993579549595  0.8369655313054705  0.6303474448700989
  0.5002144575143112  0.9986696538273920  0.8734311398792390
  0.8401521339902972  0.6728971998636224  0.8832736154502225
  0.8353040671369865  0.9944324916374526  0.3727891028041209
  0.8325476581724981  0.9867443135990793  0.8674596663956776
  0.0051474820017568  0.0829398214636694  0.2397719117505478
  0.9905401477715990  0.0882975301794549  0.7531409373074454
  0.0036049109391855  0.4167693902074708  0.2447829660360205
  0.3320339513830698  0.0858635997090149  0.2537767595859490
  0.1668102258459717  0.2523902398117784  0.5140170077901508
  0.0011534566752628  0.4161920521193797  0.7524461855864144
  0.3412560717444174  0.0856724631242624  0.7444153307252434
  0.1692068498126014  0.2532776210152429  0.9832103083681640
  0.9955148380970900  0.7498472331673378  0.2404634926223208
  0.3273451425064347  0.4157741034298796  0.2443611033877861
  0.1595815407530720  0.5840287641041368  0.4981658618974602
  0.0018313431320868  0.7513349656741578  0.7669516870759516
  0.6755553222868937  0.0800177121455301  0.2291412395243071
  0.4983329522723914  0.2453416153642377  0.4999422336100482
  0.3056876402631002  0.4202733319351927  0.7503542854339179
  0.1547346520987647  0.5828879772542122  0.0008602813257291
  0.6830149541086026  0.0756121831033965  0.7553307720059577
  0.5058820741241595  0.2446462422439955  0.0042337926340555
  0.3458357143677850  0.7462154632370727  0.2527835563051888
  0.1686985224486379  0.9167299419755078  0.4917576063981212
  0.6699452502996689  0.4186599100336191  0.2522040825284174
  0.4968967033670560  0.5847107311836133  0.5335592751017669
  0.3410650004458881  0.7604993574732647  0.7482741788377905
  0.1631583933645731  0.9168315959568860  0.9970582671018090
  0.8388362510661083  0.2476615423341549  0.5118582166822797
  0.6630000888269619  0.4159290808418320  0.7537375679966065
  0.5005125103988531  0.5897967670767259  0.0116154364497689
  0.8338998670045000  0.2447076235971681  0.0011216099753473
  0.6755161976825379  0.7445025371388169  0.2505315017084418
  0.5040058130943506  0.9131229251080062  0.5069231191314296
  0.8361632691277930  0.5871932866802047  0.4905004603393087
  0.6467605356158146  0.7498316005740331  0.7534795826890910
  0.5079318217780270  0.9200399355974551  0.9951475834292631
  0.8370244823604814  0.5872500580017040  0.0156761707229296
  0.8333426482325125  0.9167228335169080  0.5271508709060932
  0.8356669546638297  0.9183773418155999  0.9733704971664039
 
  0.00000000E+00  0.00000000E+00  0.00000000E+00
  0.00000000E+00  0.00000000E+00  0.00000000E+00
  0.00000000E+00  0.00000000E+00  0.00000000E+00
  0.00000000E+00  0.00000000E+00  0.00000000E+00
  0.00000000E+00  0.00000000E+00  0.00000000E+00
  0.00000000E+00  0.00000000E+00  0.00000000E+00
  0.00000000E+00  0.00000000E+00  0.00000000E+00
  0.00000000E+00  0.00000000E+00  0.00000000E+00
  0.00000000E+00  0.00000000E+00  0.00000000E+00
  0.00000000E+00  0.00000000E+00  0.00000000E+00
  0.00000000E+00  0.00000000E+00  0.00000000E+00
  0.00000000E+00  0.00000000E+00  0.00000000E+00
  0.00000000E+00  0.00000000E+00  0.00000000E+00
  0.00000000E+00  0.00000000E+00  0.00000000E+00
  0.00000000E+00  0.00000000E+00  0.00000000E+00
  0.00000000E+00  0.00000000E+00  0.00000000E+00
  0.00000000E+00  0.00000000E+00  0.00000000E+00
  0.00000000E+00  0.00000000E+00  0.00000000E+00
  0.00000000E+00  0.00000000E+00  0.00000000E+00
  0.00000000E+00  0.00000000E+00  0.00000000E+00
  0.00000000E+00  0.00000000E+00  0.00000000E+00
  0.00000000E+00  0.00000000E+00  0.00000000E+00
  0.00000000E+00  0.00000000E+00  0.00000000E+00
  0.00000000E+00  0.00000000E+00  0.00000000E+00
  0.00000000E+00  0.00000000E+00  0.00000000E+00
  0.00000000E+00  0.00000000E+00  0.00000000E+00
  0.00000000E+00  0.00000000E+00  0.00000000E+00
  0.00000000E+00  0.00000000E+00  0.00000000E+00
  0.00000000E+00  0.00000000E+00  0.00000000E+00
  0.00000000E+00  0.00000000E+00  0.00000000E+00
  0.00000000E+00  0.00000000E+00  0.00000000E+00
  0.00000000E+00  0.00000000E+00  0.00000000E+00
  0.00000000E+00  0.00000000E+00  0.00000000E+00
  0.00000000E+00  0.00000000E+00  0.00000000E+00
  0.00000000E+00  0.00000000E+00  0.00000000E+00
  0.00000000E+00  0.00000000E+00  0.00000000E+00
  0.00000000E+00  0.00000000E+00  0.00000000E+00
  0.00000000E+00  0.00000000E+00  0.00000000E+00
  0.00000000E+00  0.00000000E+00  0.00000000E+00
  0.00000000E+00  0.00000000E+00  0.00000000E+00
  0.00000000E+00  0.00000000E+00  0.00000000E+00
  0.00000000E+00  0.00000000E+00  0.00000000E+00
  0.00000000E+00  0.00000000E+00  0.00000000E+00
  0.00000000E+00  0.00000000E+00  0.00000000E+00
  0.00000000E+00  0.00000000E+00  0.00000000E+00
  0.00000000E+00  0.00000000E+00  0.00000000E+00
  0.00000000E+00  0.00000000E+00  0.00000000E+00
  0.00000000E+00  0.00000000E+00  0.00000000E+00
  0.00000000E+00  0.00000000E+00  0.00000000E+00
  0.00000000E+00  0.00000000E+00  0.00000000E+00
  0.00000000E+00  0.00000000E+00  0.00000000E+00
  0.00000000E+00  0.00000000E+00  0.00000000E+00
  0.00000000E+00  0.00000000E+00  0.00000000E+00
  0.00000000E+00  0.00000000E+00  0.00000000E+00
  0.00000000E+00  0.00000000E+00  0.00000000E+00
  0.00000000E+00  0.00000000E+00  0.00000000E+00
  0.00000000E+00  0.00000000E+00  0.00000000E+00
  0.00000000E+00  0.00000000E+00  0.00000000E+00
  0.00000000E+00  0.00000000E+00  0.00000000E+00
  0.00000000E+00  0.00000000E+00  0.00000000E+00
  0.00000000E+00  0.00000000E+00  0.00000000E+00
  0.00000000E+00  0.00000000E+00  0.00000000E+00
  0.00000000E+00  0.00000000E+00  0.00000000E+00
  0.00000000E+00  0.00000000E+00  0.00000000E+00
  0.00000000E+00  0.00000000E+00  0.00000000E+00
  0.00000000E+00  0.00000000E+00  0.00000000E+00
  0.00000000E+00  0.00000000E+00  0.00000000E+00
  0.00000000E+00  0.00000000E+00  0.00000000E+00
  0.00000000E+00  0.00000000E+00  0.00000000E+00
  0.00000000E+00  0.00000000E+00  0.00000000E+00
  0.00000000E+00  0.00000000E+00  0.00000000E+00
  0.00000000E+00  0.00000000E+00  0.00000000E+00
  0.00000000E+00  0.00000000E+00  0.00000000E+00
  0.00000000E+00  0.00000000E+00  0.00000000E+00
  0.00000000E+00  0.00000000E+00  0.00000000E+00
  0.00000000E+00  0.00000000E+00  0.00000000E+00
  0.00000000E+00  0.00000000E+00  0.00000000E+00
  0.00000000E+00  0.00000000E+00  0.00000000E+00
  0.00000000E+00  0.00000000E+00  0.00000000E+00
  0.00000000E+00  0.00000000E+00  0.00000000E+00
  0.00000000E+00  0.00000000E+00  0.00000000E+00
  0.00000000E+00  0.00000000E+00  0.00000000E+00
  0.00000000E+00  0.00000000E+00  0.00000000E+00
  0.00000000E+00  0.00000000E+00  0.00000000E+00
  0.00000000E+00  0.00000000E+00  0.00000000E+00
  0.00000000E+00  0.00000000E+00  0.00000000E+00
  0.00000000E+00  0.00000000E+00  0.00000000E+00
  0.00000000E+00  0.00000000E+00  0.00000000E+00
  0.00000000E+00  0.00000000E+00  0.00000000E+00
  0.00000000E+00  0.00000000E+00  0.00000000E+00
  0.00000000E+00  0.00000000E+00  0.00000000E+00
  0.00000000E+00  0.00000000E+00  0.00000000E+00
  0.00000000E+00  0.00000000E+00  0.00000000E+00
  0.00000000E+00  0.00000000E+00  0.00000000E+00
  0.00000000E+00  0.00000000E+00  0.00000000E+00
  0.00000000E+00  0.00000000E+00  0.00000000E+00
  0.00000000E+00  0.00000000E+00  0.00000000E+00
  0.00000000E+00  0.00000000E+00  0.00000000E+00
  0.00000000E+00  0.00000000E+00  0.00000000E+00
  0.00000000E+00  0.00000000E+00  0.00000000E+00
  0.00000000E+00  0.00000000E+00  0.00000000E+00
  0.00000000E+00  0.00000000E+00  0.00000000E+00
  0.00000000E+00  0.00000000E+00  0.00000000E+00
  0.00000000E+00  0.00000000E+00  0.00000000E+00
  0.00000000E+00  0.00000000E+00  0.00000000E+00
  0.00000000E+00  0.00000000E+00  0.00000000E+00
  0.00000000E+00  0.00000000E+00  0.00000000E+00
  0.00000000E+00  0.00000000E+00  0.00000000E+00
  0.00000000E+00  0.00000000E+00  0.00000000E+00
  0.00000000E+00  0.00000000E+00  0.00000000E+00
  0.00000000E+00  0.00000000E+00  0.00000000E+00
  0.00000000E+00  0.00000000E+00  0.00000000E+00
  0.00000000E+00  0.00000000E+00  0.00000000E+00
  0.00000000E+00  0.00000000E+00  0.00000000E+00
  0.00000000E+00  0.00000000E+00  0.00000000E+00
  0.00000000E+00  0.00000000E+00  0.00000000E+00
  0.00000000E+00  0.00000000E+00  0.00000000E+00
  0.00000000E+00  0.00000000E+00  0.00000000E+00
  0.00000000E+00  0.00000000E+00  0.00000000E+00
  0.00000000E+00  0.00000000E+00  0.00000000E+00
  0.00000000E+00  0.00000000E+00  0.00000000E+00
  0.00000000E+00  0.00000000E+00  0.00000000E+00
  0.00000000E+00  0.00000000E+00  0.00000000E+00
  0.00000000E+00  0.00000000E+00  0.00000000E+00
  0.00000000E+00  0.00000000E+00  0.00000000E+00
  0.00000000E+00  0.00000000E+00  0.00000000E+00
  0.00000000E+00  0.00000000E+00  0.00000000E+00
  0.00000000E+00  0.00000000E+00  0.00000000E+00
  0.00000000E+00  0.00000000E+00  0.00000000E+00
  0.00000000E+00  0.00000000E+00  0.00000000E+00
  0.00000000E+00  0.00000000E+00  0.00000000E+00
  0.00000000E+00  0.00000000E+00  0.00000000E+00
  0.00000000E+00  0.00000000E+00  0.00000000E+00
  0.00000000E+00  0.00000000E+00  0.00000000E+00
  0.00000000E+00  0.00000000E+00  0.00000000E+00
  0.00000000E+00  0.00000000E+00  0.00000000E+00
  0.00000000E+00  0.00000000E+00  0.00000000E+00
  0.00000000E+00  0.00000000E+00  0.00000000E+00
  0.00000000E+00  0.00000000E+00  0.00000000E+00
  0.00000000E+00  0.00000000E+00  0.00000000E+00
  0.00000000E+00  0.00000000E+00  0.00000000E+00
  0.00000000E+00  0.00000000E+00  0.00000000E+00
  0.00000000E+00  0.00000000E+00  0.00000000E+00
  0.00000000E+00  0.00000000E+00  0.00000000E+00
  0.00000000E+00  0.00000000E+00  0.00000000E+00
  0.00000000E+00  0.00000000E+00  0.00000000E+00
  0.00000000E+00  0.00000000E+00  0.00000000E+00
  0.00000000E+00  0.00000000E+00  0.00000000E+00
  0.00000000E+00  0.00000000E+00  0.00000000E+00
  0.00000000E+00  0.00000000E+00  0.00000000E+00
  0.00000000E+00  0.00000000E+00  0.00000000E+00
  0.00000000E+00  0.00000000E+00  0.00000000E+00
  0.00000000E+00  0.00000000E+00  0.00000000E+00
  0.00000000E+00  0.00000000E+00  0.00000000E+00
  0.00000000E+00  0.00000000E+00  0.00000000E+00
  0.00000000E+00  0.00000000E+00  0.00000000E+00
  0.00000000E+00  0.00000000E+00  0.00000000E+00
  0.00000000E+00  0.00000000E+00  0.00000000E+00
  0.00000000E+00  0.00000000E+00  0.00000000E+00
  0.00000000E+00  0.00000000E+00  0.00000000E+00
  0.00000000E+00  0.00000000E+00  0.00000000E+00
  0.00000000E+00  0.00000000E+00  0.00000000E+00
  0.00000000E+00  0.00000000E+00  0.00000000E+00
  0.00000000E+00  0.00000000E+00  0.00000000E+00
  0.00000000E+00  0.00000000E+00  0.00000000E+00
  0.00000000E+00  0.00000000E+00  0.00000000E+00
  0.00000000E+00  0.00000000E+00  0.00000000E+00
  0.00000000E+00  0.00000000E+00  0.00000000E+00
  0.00000000E+00  0.00000000E+00  0.00000000E+00
  0.00000000E+00  0.00000000E+00  0.00000000E+00
  0.00000000E+00  0.00000000E+00  0.00000000E+00
  0.00000000E+00  0.00000000E+00  0.00000000E+00
  0.00000000E+00  0.00000000E+00  0.00000000E+00
  0.00000000E+00  0.00000000E+00  0.00000000E+00
  0.00000000E+00  0.00000000E+00  0.00000000E+00
  0.00000000E+00  0.00000000E+00  0.00000000E+00
  0.00000000E+00  0.00000000E+00  0.00000000E+00
  0.00000000E+00  0.00000000E+00  0.00000000E+00
  0.00000000E+00  0.00000000E+00  0.00000000E+00
  0.00000000E+00  0.00000000E+00  0.00000000E+00
  0.00000000E+00  0.00000000E+00  0.00000000E+00
  0.00000000E+00  0.00000000E+00  0.00000000E+00
  0.00000000E+00  0.00000000E+00  0.00000000E+00
  0.00000000E+00  0.00000000E+00  0.00000000E+00
  0.00000000E+00  0.00000000E+00  0.00000000E+00
  0.00000000E+00  0.00000000E+00  0.00000000E+00
  0.00000000E+00  0.00000000E+00  0.00000000E+00
  0.00000000E+00  0.00000000E+00  0.00000000E+00
  0.00000000E+00  0.00000000E+00  0.00000000E+00
  0.00000000E+00  0.00000000E+00  0.00000000E+00
  0.00000000E+00  0.00000000E+00  0.00000000E+00
  0.00000000E+00  0.00000000E+00  0.00000000E+00
  0.00000000E+00  0.00000000E+00  0.00000000E+00
  0.00000000E+00  0.00000000E+00  0.00000000E+00
  0.00000000E+00  0.00000000E+00  0.00000000E+00
  0.00000000E+00  0.00000000E+00  0.00000000E+00
  0.00000000E+00  0.00000000E+00  0.00000000E+00
  0.00000000E+00  0.00000000E+00  0.00000000E+00
  0.00000000E+00  0.00000000E+00  0.00000000E+00
  0.00000000E+00  0.00000000E+00  0.00000000E+00
  0.00000000E+00  0.00000000E+00  0.00000000E+00
  0.00000000E+00  0.00000000E+00  0.00000000E+00
  0.00000000E+00  0.00000000E+00  0.00000000E+00
  0.00000000E+00  0.00000000E+00  0.00000000E+00
  0.00000000E+00  0.00000000E+00  0.00000000E+00
  0.00000000E+00  0.00000000E+00  0.00000000E+00
  0.00000000E+00  0.00000000E+00  0.00000000E+00
  0.00000000E+00  0.00000000E+00  0.00000000E+00
  0.00000000E+00  0.00000000E+00  0.00000000E+00
  0.00000000E+00  0.00000000E+00  0.00000000E+00
  0.00000000E+00  0.00000000E+00  0.00000000E+00
  0.00000000E+00  0.00000000E+00  0.00000000E+00
  0.00000000E+00  0.00000000E+00  0.00000000E+00
  0.00000000E+00  0.00000000E+00  0.00000000E+00
  0.00000000E+00  0.00000000E+00  0.00000000E+00
  0.00000000E+00  0.00000000E+00  0.00000000E+00
  0.00000000E+00  0.00000000E+00  0.00000000E+00
  0.00000000E+00  0.00000000E+00  0.00000000E+00
  0.00000000E+00  0.00000000E+00  0.00000000E+00
  0.00000000E+00  0.00000000E+00  0.00000000E+00
  0.00000000E+00  0.00000000E+00  0.00000000E+00
  0.00000000E+00  0.00000000E+00  0.00000000E+00
  0.00000000E+00  0.00000000E+00  0.00000000E+00
  0.00000000E+00  0.00000000E+00  0.00000000E+00
  0.00000000E+00  0.00000000E+00  0.00000000E+00
  0.00000000E+00  0.00000000E+00  0.00000000E+00
  0.00000000E+00  0.00000000E+00  0.00000000E+00
  0.00000000E+00  0.00000000E+00  0.00000000E+00
  0.00000000E+00  0.00000000E+00  0.00000000E+00
  0.00000000E+00  0.00000000E+00  0.00000000E+00
  0.00000000E+00  0.00000000E+00  0.00000000E+00
  0.00000000E+00  0.00000000E+00  0.00000000E+00
  0.00000000E+00  0.00000000E+00  0.00000000E+00
  0.00000000E+00  0.00000000E+00  0.00000000E+00
  0.00000000E+00  0.00000000E+00  0.00000000E+00
  0.00000000E+00  0.00000000E+00  0.00000000E+00
  0.00000000E+00  0.00000000E+00  0.00000000E+00
  0.00000000E+00  0.00000000E+00  0.00000000E+00
  0.00000000E+00  0.00000000E+00  0.00000000E+00
  0.00000000E+00  0.00000000E+00  0.00000000E+00
  0.00000000E+00  0.00000000E+00  0.00000000E+00
  0.00000000E+00  0.00000000E+00  0.00000000E+00
  0.00000000E+00  0.00000000E+00  0.00000000E+00
  0.00000000E+00  0.00000000E+00  0.00000000E+00
  0.00000000E+00  0.00000000E+00  0.00000000E+00
  0.00000000E+00  0.00000000E+00  0.00000000E+00
  0.00000000E+00  0.00000000E+00  0.00000000E+00
  0.00000000E+00  0.00000000E+00  0.00000000E+00
  0.00000000E+00  0.00000000E+00  0.00000000E+00
  0.00000000E+00  0.00000000E+00  0.00000000E+00
  0.00000000E+00  0.00000000E+00  0.00000000E+00
  0.00000000E+00  0.00000000E+00  0.00000000E+00
