POSCAR                                  
   1.00000000000000     
    10.2941399285892601    0.0190544834030951    0.0381045047400084
     0.0189764693300413   10.3277967485906412    0.0019416865539025
     0.0254769100607507    0.0012134942314317    6.8799607564084990
   Zr   Sc   Y    K    H 
     9     9     9     9   216
Direct
  0.1670542572154689  0.1750713617940743  0.2501079705144338
  0.1652682987379596  0.4990282946523539  0.2486971020638004
  0.5039318465580043  0.1598569468407784  0.2465642063789990
  0.5069322769526114  0.1610545489216013  0.7481939758695657
  0.6690212924119393  0.3323351629926999  0.0072598122410443
  0.3364986933421965 -0.0041649506255965  0.4956489141148674
  0.0040931030783882  0.3333824486725886 -0.0035113636015309
  0.8293131482103587  0.8356240967547058  0.2493459699492550
 -0.0018312701720206 -0.0013197551797204 -0.0039295159539764
  0.1615539999449208  0.1615925249715192  0.7485731332570358
  0.1555116776252390  0.5064175575798874  0.7537167914449231
  0.8337682492592302  0.1731079890439667  0.7494223851078409
  0.8369892257557111  0.4983564666948767  0.2502008878147197
  0.4959824049839046  0.8354860911290607  0.7522146399226921
 -0.0013770179879169  0.6653075952700248  0.4938196120526981
  0.8420923451308238  0.8229640717091377  0.7496925274563313
  0.6743054162204750 -0.0048776579212509 -0.0055689664166849
 -0.0038399028265270  0.6703289627704335  0.0037704275376723
  0.3323198475766861  0.3360681585588747  0.5059669242801969
  0.1712126517420552  0.8274687178925211  0.2414163574531333
  0.5001366987093642  0.5025880059420030  0.2569933410169066
  0.3301459412767235  0.6686510737391060  0.5042774075988682
  0.6705126175692511  0.3320013054188191  0.5008216560498121
  0.6638691636829943  0.6677937802898064  0.5044972166968740
  0.3309727206993444  0.0034950900862719 -0.0018768317733757
  0.8295223134046776  0.5064556907637570  0.7541144184079651
 -0.0031119825472587 -0.0005173738230560  0.5000667222676003
  0.3395646902426343  0.3375066382363828 -0.0103558709660895
  0.1646575872275102  0.8363812054421516  0.7457317592511311
  0.8391079159345172  0.1654014453968061  0.2589382611618969
  0.4887700869305534  0.4893499745897693  0.7698496716720676
  0.3242533401395552  0.6723578416596422 -0.0030815890845457
  0.5105889593884235  0.8283371224644431  0.2460026009372063
 -0.0003888533692735  0.3366163996598543  0.4993278371273480
  0.6651278170471627  0.6711056434210195 -0.0002886194673042
  0.6686207103084191 -0.0008101410666065  0.4937133135219121
  0.1596024897923801  0.0892052537756706 -0.0006230795348760
  0.1693060082845032  0.0839346640507284  0.4923549468677530
  0.1716037459604782  0.4176935263116583 -0.0021996652730381
  0.5130326313138923  0.0794219133233685 -0.0027693904221909
  0.3320355832414728  0.2551566359177846  0.2458521509107837
  0.1633917443674264  0.4201994760433528  0.5067291338028024
  0.5010462318692855  0.0804931083943756  0.4996664559471771
  0.3070471798250120  0.2509597713754966  0.7522280377411014
  0.1501672868713946  0.7443534988503323 -0.0126892666958359
  0.5082300779220781  0.4074547255010542  0.0200183260109610
  0.3237600925770984  0.5827915839958361  0.2444993477087333
  0.1602769270138799  0.7474616058605649  0.4975689237513669
  0.8274719282528836  0.0847664099808636 -0.0108873992571420
  0.6714782674000989  0.2446165125465342  0.2432485971140433
  0.5019580769206621  0.4107191028078664  0.5075546774675003
  0.3392439294345174  0.5924401699202096  0.7547264359001368
  0.8293018451115346  0.0849001805280674  0.5228259971404864
  0.6767686016426117  0.2479493180793306  0.7550183902497952
  0.4897680373359049  0.7585448986205142 -0.0187998998766454
  0.3427727701422600  0.9129864414554303  0.2427940782777861
  0.8379072231697445  0.4163325003089737  0.0029385977573226
  0.6761637200528773  0.5810952345711290  0.2451078230883850
  0.4932533132995146  0.7543971284422279  0.5124402065787675
  0.3402760823755423  0.9175116686036106  0.7483304948742465
  0.0034666860512530  0.2543728622616256  0.2436004567421923
  0.8370832887772638  0.4210021046983357  0.5008759420023076
  0.6566793966735085  0.5805929094430891  0.7509912830305182
  0.0063589803303353  0.2559339149729893  0.7527574086656488
  0.8377962335401534  0.7507069698459418  0.0005137245332520
  0.6640422367701628  0.9234559957413361  0.2364310548768252
 -0.0047879097651396  0.5836759959780066  0.2341939001384447
  0.8367424827446994  0.7454838396482042  0.4918577472638649
  0.6617386178848556  0.9174459649193648  0.7500593744923864
 -0.0036313049224373  0.5835888928544986  0.7752673167180681
  0.0026357422990157  0.9136702568757195  0.2428430411272082
 -0.0091592041096569  0.9148153720635833  0.7518509538159895
  0.0818522397733567  0.1696794617245758 -0.0112622967661863
  0.0832579657614611  0.1680162261142271  0.5090173693027825
  0.0758872640676201  0.4974568400473959 -0.0050297275650403
  0.4153542082696352  0.1691467435401965  0.0003993791006091
  0.2593872637057980  0.3338828879460790  0.2417993800084904
  0.0789741451392948  0.5044067010290475  0.5087916397720799
  0.4147488248152755  0.1668909802433135  0.5016435910103624
  0.2517194913549635  0.3235833451761501  0.7541255318356568
  0.0796223012812120  0.8333992671063694 -0.0024635566484344
  0.4080629036387630  0.5081925838665124  0.0210309969524276
  0.2484903532991784  0.6556671446932870  0.2521381860245814
  0.0802425814030393  0.8285071524999770  0.4924181006327648
  0.7556263424672092  0.1640318579705627 -0.0021902872799831
  0.5844025157797218  0.3309807127194366  0.2512609054314003
  0.4141419776804803  0.5035989274543706  0.5095741217591014
  0.2349962746589795  0.6608067722565755  0.7507440294003382
  0.7565016040977059  0.1612969613410782  0.5166233462180811
  0.5820033609620628  0.3255633896760773  0.7521565707060297
  0.4238190293503056  0.8293723713139429 -0.0021554633635896
  0.2498468784889586  0.0041755751827722  0.2544483983105638
  0.7539352270032115  0.5009029501792293  0.0134676228363698
  0.5912678385556877  0.6630389007474213  0.2518909825909614
  0.4241132573470556  0.8314721383796100  0.5005441559214997
  0.2482553557044309  0.0097514559042375  0.7428734843645660
  0.9199370638350093  0.3374453978679490  0.2417920537301360
  0.7499153672451375  0.5020345642655971  0.5018146162743202
  0.5750147636467037  0.6786730411065914  0.7622386168522677
  0.9171167256806730  0.3323213863221904  0.7535877738873553
  0.7473846475699493  0.8348093349246447 -0.0273395702208714
  0.5898197704943102 -0.0069880833698327  0.2355951592319802
  0.9180947225461568  0.6623954273044255  0.2608867776521068
  0.7454412365400519  0.8330874888947221  0.5271426041532299
  0.5938756666547328 -0.0137831176676434  0.7515657560988467
  0.9190011819749629  0.6658420524636921  0.7298840954510183
  0.9164195854629873 -0.0022669821080788  0.2400995807242832
  0.9109111142393677  0.0184726201768168  0.7502888155472848
  0.1612966728427464  0.0032412187079006  0.1234934289767044
  0.1683698831548050  0.0079128377421391  0.6198409759375960
  0.1714999413696342  0.3376779514735547  0.1153389644069240
  0.5007775721658773 -0.0056012198454707  0.1175931152796860
  0.3346885149301808  0.1663000887427452  0.3825257702873249
  0.1623835844108498  0.3296057727589844  0.6281375348766522
  0.5041982181143541 -0.0038001333543011  0.6294459762070204
  0.3344236358477845  0.1686404505763755  0.8684309336455702
  0.1537468514117971  0.6580695056089113  0.1173743756703904
  0.5010274790893897  0.3303669331779726  0.1282833354741920
  0.3238540925878350  0.5031245065678539  0.3799560318370058
  0.1499647789862601  0.6648384644065349  0.6315416689432314
  0.8358078066158497 -0.0020839313078606  0.1185915521570844
  0.6646909850706439  0.1661926326053469  0.3711200888920468
  0.5037784106454573  0.3269054441595802  0.6275477985823104
  0.3095368175865569  0.5041224402829068  0.8735039407138073
  0.8306118927056292 -0.0206155239423825  0.6283574474188969
  0.6673503601967499  0.1631978759311542  0.8792869561797564
  0.4906664070398254  0.6577783050049411  0.1211875295789586
  0.3414524790552961  0.8352806381051281  0.3726446905917006
  0.8345006496415548  0.3324174971553849  0.1238206399181275
  0.6781057809670813  0.4973088184097917  0.3717412719221977
  0.4966142689475675  0.6573937234121833  0.6303489070879249
  0.3339217198065941  0.8378205023574458  0.8672046030362996
  0.0080174298094679  0.1676945949146734  0.3781906112799272
  0.8359343563768143  0.3377885906796764  0.6311430856739504
  0.6560296451389278  0.4989554542794470  0.8931372270282084
  0.0020833072215536  0.1620325579928028  0.8690669887697966
  0.8353612622728750  0.6651935495154703  0.1262153107441654
  0.6746734291227877  0.8330763115387001  0.3787276995640720
 -0.0042625999794652  0.5057315483941097  0.3786609422679469
  0.8430071077550958  0.6715817780454715  0.6217979918947310
  0.6815685005123572  0.8352413385818864  0.8701487787336399
  0.0000933996720949  0.5162619675960047  0.8759021200867753
 -0.0021511617461869  0.8290162335094926  0.3733248730614327
 -0.0036567570721497  0.8216260613239420  0.8685912933166847
  0.0893066086026077 -0.0027591926059624  0.2541174205119279
  0.0838261494053724  0.0054200790522852  0.7465822119678742
  0.0809652240511118  0.3408724822466305  0.2505624540561410
  0.4201322107646570 -0.0052275441971879  0.2463489210229555
  0.2520915986261621  0.1642468466054816  0.5027413678875224
  0.0840631228814918  0.3338471846622392  0.7466877700926905
  0.4187755845733319  0.0042797432701624  0.7489505491433205
  0.2482787853135930  0.1730789912865980 -0.0058431800017745
  0.0769456850220808  0.6634804513179536  0.2618235377008898
  0.4193670604585436  0.3254238537538264  0.2472392324314865
  0.2451126701146048  0.5060624731306356  0.5214189513748295
  0.0771209001751255  0.6678147602563803  0.7294456503692790
  0.7482108528637713  0.0044153336354962  0.2344710805712155
  0.5883224288999582  0.1619546514318493  0.5042016600318541
  0.4181562163097506  0.3136443273387558  0.7446244624981831
  0.2424167659959079  0.5036542271092522 -0.0158726161122861
  0.7511750243694268  0.0028284983237148  0.7510153017619133
  0.5908523499577256  0.1522038219173285 -0.0002599942807764
  0.4139207973137753  0.6737587978160973  0.2399548418767075
  0.2511694512005010  0.8370827439056311  0.5007089932225405
  0.7571570472291193  0.3329235157868755  0.2445402252778289
  0.5833403237147653  0.5001606900325868  0.5156092048210601
  0.4018137332951806  0.6498077131106827  0.7542145233495218
  0.2516688545312904  0.8408756310223482 -0.0120973682792862
  0.9168739270331627  0.1720835722356243  0.5166861601999335
  0.7522830633435111  0.3276106309022327  0.7581956179325983
  0.5890999092141710  0.5043679916301674  0.0001320480010592
  0.9164890625864992  0.1706060667616152 -0.0077473143279826
  0.7564693994895599  0.6640969313713500  0.2480856116707558
  0.5812062985696523  0.8377486931020993  0.5183003019186210
  0.9154812031062705  0.5033792425497912  0.4932146654516152
  0.7502602406659281  0.6775569977058333  0.7509807333914786
  0.5851093289954958  0.8430484264131549 -0.0199266273523835
  0.9163612908588176  0.4927918712850753  0.0063532197287601
  0.9147397847579498  0.8277265801164424  0.4961682851823623
  0.9153399502433279  0.8369087874282234  0.0023251601451811
  0.0037578941247109  0.1625065131171653  0.1203361770042735
  0.0072455923636945  0.1674400072897385  0.6247291183414799
 -0.0036516617223437  0.5143290046819438  0.1306259917928360
  0.3357806812441320  0.1713824732999702  0.1204047027385521
  0.1666859641019444  0.3362678100401472  0.3784738378004882
  0.0027484247827809  0.5088347476664907  0.6209123037597534
  0.3277961019916296  0.1643594480853889  0.6220416402950947
  0.1660307790120949  0.3395328184058419  0.8762580704191715
 -0.0039381454599483  0.8270078802292362  0.1273324822767205
  0.3432116715599175  0.5056024015220052  0.1150361374202418
  0.1577865535614166  0.6616180922445565  0.3746895545140036
 -0.0049697019825662  0.8240125256491687  0.6185002585272875
  0.6718551959842856  0.1669434856926630  0.1208397802869868
  0.5041364338033262  0.3266415339981000  0.3758167726770862
  0.3119628224182331  0.5028601837357519  0.6277756538121504
  0.1542909056846331  0.6662184491663574  0.8748282971805442
  0.6679318273365600  0.1639569997140154  0.6252337375480483
  0.5114347178545141  0.3185000966295385  0.8816182758354227
  0.3432585241517928  0.8414456794046957  0.1235341603840576
  0.1611316501997724  0.0007477250292372  0.3643673415367137
  0.6752566893845207  0.5056746342250860  0.1354576189142721
  0.4968228164729294  0.6672150979876728  0.3836509104997065
  0.3332862008940786  0.8355883887232993  0.6239991902551619
  0.1641724380178388  0.0056032238452926  0.8713455479239951
  0.8351529984515844  0.3403401468740604  0.3708490468782695
  0.6571782042968577  0.5014469524170997  0.6328841977269978
  0.4973287417303588  0.6751240422783698  0.8687756312417354
  0.8309295863183281  0.3396076670537875  0.8787267593528308
  0.6761745097728873  0.8382217663163029  0.1170671813234592
  0.5006303413607183 -0.0024677768892984  0.3752040307412114
  0.8372234814423739  0.6631717694447979  0.3736175622960824
  0.6842744656534423  0.8368577128129524  0.6313069749898884
  0.5000682120615316 -0.0008823375471034  0.8733293887047612
  0.8398217013355903  0.6725534667764135  0.8824449211727234
  0.8346027920931087 -0.0060838022556286  0.3721142246923398
  0.8338200896573218 -0.0130719469900801  0.8681383636539294
  0.0052581317146715  0.0842351291914140  0.2390616812051181
 -0.0099170553608271  0.0895535123659530  0.7535615194313016
  0.0032125928888587  0.4161982749575837  0.2442177951161050
  0.3316131172760544  0.0856215558874034  0.2533297062675259
  0.1665561672475414  0.2526294532188372  0.5158577036555464
  0.0020428832794250  0.4158553946794826  0.7526938575262168
  0.3418536996938049  0.0848626829227048  0.7449833660353616
  0.1700777367810416  0.2532572985613535 -0.0175967679076574
 -0.0043288877544597  0.7483660075226251  0.2411691320594690
  0.3270888285755238  0.4154201814158889  0.2440424371202826
  0.1601829489806219  0.5836072131780196  0.4990690414352979
  0.0018142532189006  0.7512396511020821  0.7670343376221044
  0.6766255272474087  0.0791772683186201  0.2300107422689751
  0.4987278861488912  0.2454902965276696  0.4999399332612670
  0.3057522996708795  0.4198653040574935  0.7510709470491753
  0.1540922721519971  0.5820705929156930 -0.0009612204490669
  0.6834127101890871  0.0745670014952556  0.7553575899332795
  0.5053449175927238  0.2449211877802165  0.0051828663035074
  0.3457911379775406  0.7453881511121777  0.2529650891887024
  0.1682467828820090  0.9166706409520972  0.4912849524396376
  0.6718440751724588  0.4191315045671223  0.2514174212024934
  0.4963122882998866  0.5849272939510204  0.5323214079157634
  0.3407652102839013  0.7602705531919616  0.7491564615231378
  0.1622300161227876  0.9179178409819138 -0.0037324918310044
  0.8392252644109806  0.2473072694681966  0.5119123143433389
  0.6645582758505869  0.4161729745664234  0.7550389084061551
  0.4996105084969913  0.5897547540460842  0.0120079942775323
  0.8342677819577123  0.2449940894304756  0.0014579972929545
  0.6747026716689194  0.7458136181506064  0.2506481385006491
  0.5036261494567215  0.9130491573016265  0.5078889565338338
  0.8369207675493001  0.5872774786390388  0.4903934809785569
  0.6470634833073373  0.7497663972962876  0.7539731039621320
  0.5094900889400986  0.9197117470319606 -0.0057369381927826
  0.8371560974083175  0.5868686557943071  0.0153227279781386
  0.8332873425735892  0.9165589108575606  0.5274071841116861
  0.8349725399853513  0.9185061984641364 -0.0271066937421706
 
  0.00000000E+00  0.00000000E+00  0.00000000E+00
  0.00000000E+00  0.00000000E+00  0.00000000E+00
  0.00000000E+00  0.00000000E+00  0.00000000E+00
  0.00000000E+00  0.00000000E+00  0.00000000E+00
  0.00000000E+00  0.00000000E+00  0.00000000E+00
  0.00000000E+00  0.00000000E+00  0.00000000E+00
  0.00000000E+00  0.00000000E+00  0.00000000E+00
  0.00000000E+00  0.00000000E+00  0.00000000E+00
  0.00000000E+00  0.00000000E+00  0.00000000E+00
  0.00000000E+00  0.00000000E+00  0.00000000E+00
  0.00000000E+00  0.00000000E+00  0.00000000E+00
  0.00000000E+00  0.00000000E+00  0.00000000E+00
  0.00000000E+00  0.00000000E+00  0.00000000E+00
  0.00000000E+00  0.00000000E+00  0.00000000E+00
  0.00000000E+00  0.00000000E+00  0.00000000E+00
  0.00000000E+00  0.00000000E+00  0.00000000E+00
  0.00000000E+00  0.00000000E+00  0.00000000E+00
  0.00000000E+00  0.00000000E+00  0.00000000E+00
  0.00000000E+00  0.00000000E+00  0.00000000E+00
  0.00000000E+00  0.00000000E+00  0.00000000E+00
  0.00000000E+00  0.00000000E+00  0.00000000E+00
  0.00000000E+00  0.00000000E+00  0.00000000E+00
  0.00000000E+00  0.00000000E+00  0.00000000E+00
  0.00000000E+00  0.00000000E+00  0.00000000E+00
  0.00000000E+00  0.00000000E+00  0.00000000E+00
  0.00000000E+00  0.00000000E+00  0.00000000E+00
  0.00000000E+00  0.00000000E+00  0.00000000E+00
  0.00000000E+00  0.00000000E+00  0.00000000E+00
  0.00000000E+00  0.00000000E+00  0.00000000E+00
  0.00000000E+00  0.00000000E+00  0.00000000E+00
  0.00000000E+00  0.00000000E+00  0.00000000E+00
  0.00000000E+00  0.00000000E+00  0.00000000E+00
  0.00000000E+00  0.00000000E+00  0.00000000E+00
  0.00000000E+00  0.00000000E+00  0.00000000E+00
  0.00000000E+00  0.00000000E+00  0.00000000E+00
  0.00000000E+00  0.00000000E+00  0.00000000E+00
  0.00000000E+00  0.00000000E+00  0.00000000E+00
  0.00000000E+00  0.00000000E+00  0.00000000E+00
  0.00000000E+00  0.00000000E+00  0.00000000E+00
  0.00000000E+00  0.00000000E+00  0.00000000E+00
  0.00000000E+00  0.00000000E+00  0.00000000E+00
  0.00000000E+00  0.00000000E+00  0.00000000E+00
  0.00000000E+00  0.00000000E+00  0.00000000E+00
  0.00000000E+00  0.00000000E+00  0.00000000E+00
  0.00000000E+00  0.00000000E+00  0.00000000E+00
  0.00000000E+00  0.00000000E+00  0.00000000E+00
  0.00000000E+00  0.00000000E+00  0.00000000E+00
  0.00000000E+00  0.00000000E+00  0.00000000E+00
  0.00000000E+00  0.00000000E+00  0.00000000E+00
  0.00000000E+00  0.00000000E+00  0.00000000E+00
  0.00000000E+00  0.00000000E+00  0.00000000E+00
  0.00000000E+00  0.00000000E+00  0.00000000E+00
  0.00000000E+00  0.00000000E+00  0.00000000E+00
  0.00000000E+00  0.00000000E+00  0.00000000E+00
  0.00000000E+00  0.00000000E+00  0.00000000E+00
  0.00000000E+00  0.00000000E+00  0.00000000E+00
  0.00000000E+00  0.00000000E+00  0.00000000E+00
  0.00000000E+00  0.00000000E+00  0.00000000E+00
  0.00000000E+00  0.00000000E+00  0.00000000E+00
  0.00000000E+00  0.00000000E+00  0.00000000E+00
  0.00000000E+00  0.00000000E+00  0.00000000E+00
  0.00000000E+00  0.00000000E+00  0.00000000E+00
  0.00000000E+00  0.00000000E+00  0.00000000E+00
  0.00000000E+00  0.00000000E+00  0.00000000E+00
  0.00000000E+00  0.00000000E+00  0.00000000E+00
  0.00000000E+00  0.00000000E+00  0.00000000E+00
  0.00000000E+00  0.00000000E+00  0.00000000E+00
  0.00000000E+00  0.00000000E+00  0.00000000E+00
  0.00000000E+00  0.00000000E+00  0.00000000E+00
  0.00000000E+00  0.00000000E+00  0.00000000E+00
  0.00000000E+00  0.00000000E+00  0.00000000E+00
  0.00000000E+00  0.00000000E+00  0.00000000E+00
  0.00000000E+00  0.00000000E+00  0.00000000E+00
  0.00000000E+00  0.00000000E+00  0.00000000E+00
  0.00000000E+00  0.00000000E+00  0.00000000E+00
  0.00000000E+00  0.00000000E+00  0.00000000E+00
  0.00000000E+00  0.00000000E+00  0.00000000E+00
  0.00000000E+00  0.00000000E+00  0.00000000E+00
  0.00000000E+00  0.00000000E+00  0.00000000E+00
  0.00000000E+00  0.00000000E+00  0.00000000E+00
  0.00000000E+00  0.00000000E+00  0.00000000E+00
  0.00000000E+00  0.00000000E+00  0.00000000E+00
  0.00000000E+00  0.00000000E+00  0.00000000E+00
  0.00000000E+00  0.00000000E+00  0.00000000E+00
  0.00000000E+00  0.00000000E+00  0.00000000E+00
  0.00000000E+00  0.00000000E+00  0.00000000E+00
  0.00000000E+00  0.00000000E+00  0.00000000E+00
  0.00000000E+00  0.00000000E+00  0.00000000E+00
  0.00000000E+00  0.00000000E+00  0.00000000E+00
  0.00000000E+00  0.00000000E+00  0.00000000E+00
  0.00000000E+00  0.00000000E+00  0.00000000E+00
  0.00000000E+00  0.00000000E+00  0.00000000E+00
  0.00000000E+00  0.00000000E+00  0.00000000E+00
  0.00000000E+00  0.00000000E+00  0.00000000E+00
  0.00000000E+00  0.00000000E+00  0.00000000E+00
  0.00000000E+00  0.00000000E+00  0.00000000E+00
  0.00000000E+00  0.00000000E+00  0.00000000E+00
  0.00000000E+00  0.00000000E+00  0.00000000E+00
  0.00000000E+00  0.00000000E+00  0.00000000E+00
  0.00000000E+00  0.00000000E+00  0.00000000E+00
  0.00000000E+00  0.00000000E+00  0.00000000E+00
  0.00000000E+00  0.00000000E+00  0.00000000E+00
  0.00000000E+00  0.00000000E+00  0.00000000E+00
  0.00000000E+00  0.00000000E+00  0.00000000E+00
  0.00000000E+00  0.00000000E+00  0.00000000E+00
  0.00000000E+00  0.00000000E+00  0.00000000E+00
  0.00000000E+00  0.00000000E+00  0.00000000E+00
  0.00000000E+00  0.00000000E+00  0.00000000E+00
  0.00000000E+00  0.00000000E+00  0.00000000E+00
  0.00000000E+00  0.00000000E+00  0.00000000E+00
  0.00000000E+00  0.00000000E+00  0.00000000E+00
  0.00000000E+00  0.00000000E+00  0.00000000E+00
  0.00000000E+00  0.00000000E+00  0.00000000E+00
  0.00000000E+00  0.00000000E+00  0.00000000E+00
  0.00000000E+00  0.00000000E+00  0.00000000E+00
  0.00000000E+00  0.00000000E+00  0.00000000E+00
  0.00000000E+00  0.00000000E+00  0.00000000E+00
  0.00000000E+00  0.00000000E+00  0.00000000E+00
  0.00000000E+00  0.00000000E+00  0.00000000E+00
  0.00000000E+00  0.00000000E+00  0.00000000E+00
  0.00000000E+00  0.00000000E+00  0.00000000E+00
  0.00000000E+00  0.00000000E+00  0.00000000E+00
  0.00000000E+00  0.00000000E+00  0.00000000E+00
  0.00000000E+00  0.00000000E+00  0.00000000E+00
  0.00000000E+00  0.00000000E+00  0.00000000E+00
  0.00000000E+00  0.00000000E+00  0.00000000E+00
  0.00000000E+00  0.00000000E+00  0.00000000E+00
  0.00000000E+00  0.00000000E+00  0.00000000E+00
  0.00000000E+00  0.00000000E+00  0.00000000E+00
  0.00000000E+00  0.00000000E+00  0.00000000E+00
  0.00000000E+00  0.00000000E+00  0.00000000E+00
  0.00000000E+00  0.00000000E+00  0.00000000E+00
  0.00000000E+00  0.00000000E+00  0.00000000E+00
  0.00000000E+00  0.00000000E+00  0.00000000E+00
  0.00000000E+00  0.00000000E+00  0.00000000E+00
  0.00000000E+00  0.00000000E+00  0.00000000E+00
  0.00000000E+00  0.00000000E+00  0.00000000E+00
  0.00000000E+00  0.00000000E+00  0.00000000E+00
  0.00000000E+00  0.00000000E+00  0.00000000E+00
  0.00000000E+00  0.00000000E+00  0.00000000E+00
  0.00000000E+00  0.00000000E+00  0.00000000E+00
  0.00000000E+00  0.00000000E+00  0.00000000E+00
  0.00000000E+00  0.00000000E+00  0.00000000E+00
  0.00000000E+00  0.00000000E+00  0.00000000E+00
  0.00000000E+00  0.00000000E+00  0.00000000E+00
  0.00000000E+00  0.00000000E+00  0.00000000E+00
  0.00000000E+00  0.00000000E+00  0.00000000E+00
  0.00000000E+00  0.00000000E+00  0.00000000E+00
  0.00000000E+00  0.00000000E+00  0.00000000E+00
  0.00000000E+00  0.00000000E+00  0.00000000E+00
  0.00000000E+00  0.00000000E+00  0.00000000E+00
  0.00000000E+00  0.00000000E+00  0.00000000E+00
  0.00000000E+00  0.00000000E+00  0.00000000E+00
  0.00000000E+00  0.00000000E+00  0.00000000E+00
  0.00000000E+00  0.00000000E+00  0.00000000E+00
  0.00000000E+00  0.00000000E+00  0.00000000E+00
  0.00000000E+00  0.00000000E+00  0.00000000E+00
  0.00000000E+00  0.00000000E+00  0.00000000E+00
  0.00000000E+00  0.00000000E+00  0.00000000E+00
  0.00000000E+00  0.00000000E+00  0.00000000E+00
  0.00000000E+00  0.00000000E+00  0.00000000E+00
  0.00000000E+00  0.00000000E+00  0.00000000E+00
  0.00000000E+00  0.00000000E+00  0.00000000E+00
  0.00000000E+00  0.00000000E+00  0.00000000E+00
  0.00000000E+00  0.00000000E+00  0.00000000E+00
  0.00000000E+00  0.00000000E+00  0.00000000E+00
  0.00000000E+00  0.00000000E+00  0.00000000E+00
  0.00000000E+00  0.00000000E+00  0.00000000E+00
  0.00000000E+00  0.00000000E+00  0.00000000E+00
  0.00000000E+00  0.00000000E+00  0.00000000E+00
  0.00000000E+00  0.00000000E+00  0.00000000E+00
  0.00000000E+00  0.00000000E+00  0.00000000E+00
  0.00000000E+00  0.00000000E+00  0.00000000E+00
  0.00000000E+00  0.00000000E+00  0.00000000E+00
  0.00000000E+00  0.00000000E+00  0.00000000E+00
  0.00000000E+00  0.00000000E+00  0.00000000E+00
  0.00000000E+00  0.00000000E+00  0.00000000E+00
  0.00000000E+00  0.00000000E+00  0.00000000E+00
  0.00000000E+00  0.00000000E+00  0.00000000E+00
  0.00000000E+00  0.00000000E+00  0.00000000E+00
  0.00000000E+00  0.00000000E+00  0.00000000E+00
  0.00000000E+00  0.00000000E+00  0.00000000E+00
  0.00000000E+00  0.00000000E+00  0.00000000E+00
  0.00000000E+00  0.00000000E+00  0.00000000E+00
  0.00000000E+00  0.00000000E+00  0.00000000E+00
  0.00000000E+00  0.00000000E+00  0.00000000E+00
  0.00000000E+00  0.00000000E+00  0.00000000E+00
  0.00000000E+00  0.00000000E+00  0.00000000E+00
  0.00000000E+00  0.00000000E+00  0.00000000E+00
  0.00000000E+00  0.00000000E+00  0.00000000E+00
  0.00000000E+00  0.00000000E+00  0.00000000E+00
  0.00000000E+00  0.00000000E+00  0.00000000E+00
  0.00000000E+00  0.00000000E+00  0.00000000E+00
  0.00000000E+00  0.00000000E+00  0.00000000E+00
  0.00000000E+00  0.00000000E+00  0.00000000E+00
  0.00000000E+00  0.00000000E+00  0.00000000E+00
  0.00000000E+00  0.00000000E+00  0.00000000E+00
  0.00000000E+00  0.00000000E+00  0.00000000E+00
  0.00000000E+00  0.00000000E+00  0.00000000E+00
  0.00000000E+00  0.00000000E+00  0.00000000E+00
  0.00000000E+00  0.00000000E+00  0.00000000E+00
  0.00000000E+00  0.00000000E+00  0.00000000E+00
  0.00000000E+00  0.00000000E+00  0.00000000E+00
  0.00000000E+00  0.00000000E+00  0.00000000E+00
  0.00000000E+00  0.00000000E+00  0.00000000E+00
  0.00000000E+00  0.00000000E+00  0.00000000E+00
  0.00000000E+00  0.00000000E+00  0.00000000E+00
  0.00000000E+00  0.00000000E+00  0.00000000E+00
  0.00000000E+00  0.00000000E+00  0.00000000E+00
  0.00000000E+00  0.00000000E+00  0.00000000E+00
  0.00000000E+00  0.00000000E+00  0.00000000E+00
  0.00000000E+00  0.00000000E+00  0.00000000E+00
  0.00000000E+00  0.00000000E+00  0.00000000E+00
  0.00000000E+00  0.00000000E+00  0.00000000E+00
  0.00000000E+00  0.00000000E+00  0.00000000E+00
  0.00000000E+00  0.00000000E+00  0.00000000E+00
  0.00000000E+00  0.00000000E+00  0.00000000E+00
  0.00000000E+00  0.00000000E+00  0.00000000E+00
  0.00000000E+00  0.00000000E+00  0.00000000E+00
  0.00000000E+00  0.00000000E+00  0.00000000E+00
  0.00000000E+00  0.00000000E+00  0.00000000E+00
  0.00000000E+00  0.00000000E+00  0.00000000E+00
  0.00000000E+00  0.00000000E+00  0.00000000E+00
  0.00000000E+00  0.00000000E+00  0.00000000E+00
  0.00000000E+00  0.00000000E+00  0.00000000E+00
  0.00000000E+00  0.00000000E+00  0.00000000E+00
  0.00000000E+00  0.00000000E+00  0.00000000E+00
  0.00000000E+00  0.00000000E+00  0.00000000E+00
  0.00000000E+00  0.00000000E+00  0.00000000E+00
  0.00000000E+00  0.00000000E+00  0.00000000E+00
  0.00000000E+00  0.00000000E+00  0.00000000E+00
  0.00000000E+00  0.00000000E+00  0.00000000E+00
  0.00000000E+00  0.00000000E+00  0.00000000E+00
  0.00000000E+00  0.00000000E+00  0.00000000E+00
  0.00000000E+00  0.00000000E+00  0.00000000E+00
  0.00000000E+00  0.00000000E+00  0.00000000E+00
  0.00000000E+00  0.00000000E+00  0.00000000E+00
  0.00000000E+00  0.00000000E+00  0.00000000E+00
  0.00000000E+00  0.00000000E+00  0.00000000E+00
  0.00000000E+00  0.00000000E+00  0.00000000E+00
  0.00000000E+00  0.00000000E+00  0.00000000E+00
  0.00000000E+00  0.00000000E+00  0.00000000E+00
  0.00000000E+00  0.00000000E+00  0.00000000E+00
  0.00000000E+00  0.00000000E+00  0.00000000E+00
  0.00000000E+00  0.00000000E+00  0.00000000E+00
  0.00000000E+00  0.00000000E+00  0.00000000E+00
  0.00000000E+00  0.00000000E+00  0.00000000E+00
  0.00000000E+00  0.00000000E+00  0.00000000E+00
  0.00000000E+00  0.00000000E+00  0.00000000E+00
  0.00000000E+00  0.00000000E+00  0.00000000E+00
  0.00000000E+00  0.00000000E+00  0.00000000E+00
  0.00000000E+00  0.00000000E+00  0.00000000E+00
