       N       E                     dE             d eps       ncg     rms          rms(c)
DAV:   1     0.106319373925E+05    0.10632E+05   -0.27207E+05 17592   0.170E+03
DAV:   2     0.126537675023E+04   -0.93666E+04   -0.87511E+04 24032   0.787E+02
DAV:   3    -0.469545551396E+03   -0.17349E+04   -0.16053E+04 29536   0.354E+02
DAV:   4    -0.722399556616E+03   -0.25285E+03   -0.24093E+03 32528   0.174E+02
DAV:   5    -0.749952798450E+03   -0.27553E+02   -0.26657E+02 32528   0.754E+01    0.296E+02
DAV:   6    -0.643515025098E+03    0.10644E+03   -0.20640E+02 30552   0.518E+01    0.173E+02
DAV:   7    -0.647589866038E+03   -0.40748E+01   -0.21775E+02 29496   0.444E+01    0.461E+01
DAV:   8    -0.643863328021E+03    0.37265E+01   -0.51082E+01 29056   0.358E+01    0.179E+01
DAV:   9    -0.642414240621E+03    0.14491E+01   -0.15695E+01 29816   0.179E+01    0.818E+00
DAV:  10    -0.642239685543E+03    0.17456E+00   -0.46300E+00 29640   0.864E+00    0.789E+00
DAV:  11    -0.642248711596E+03   -0.90261E-02   -0.83107E-01 30600   0.356E+00    0.603E+00
DAV:  12    -0.642232224648E+03    0.16487E-01   -0.21078E-01 30024   0.195E+00    0.232E+00
DAV:  13    -0.642218682662E+03    0.13542E-01   -0.10923E-01 28432   0.126E+00    0.130E+00
DAV:  14    -0.642214917410E+03    0.37653E-02   -0.30642E-02 28584   0.802E-01    0.654E-01
DAV:  15    -0.642215877225E+03   -0.95981E-03   -0.11373E-02 29776   0.323E-01    0.643E-01
DAV:  16    -0.642215287945E+03    0.58928E-03   -0.26032E-03 28040   0.231E-01    0.111E-01
DAV:  17    -0.642215340344E+03   -0.52400E-04   -0.93931E-04 30992   0.875E-02    0.146E-01
DAV:  18    -0.642215317282E+03    0.23062E-04   -0.23096E-04 28560   0.664E-02    0.428E-02
DAV:  19    -0.642215319858E+03   -0.25759E-05   -0.49100E-05 31648   0.216E-02    0.225E-02
DAV:  20    -0.642215319485E+03    0.37347E-06   -0.64027E-06 21432   0.131E-02
   1 F= 0.27128122E+03 E0= 0.27127588E+03  d E =0.271281E+03
