generated by phonopy                    
   1.00000000000000     
     0.0000000000000000    3.2606816008373545    3.2606816008374508
     3.2606816008373944    0.0000000000000000    3.2606816008374508
     3.2606816008373944    3.2606816008373545    0.0000000000000000
   Na   Hf   Ti   Ce   H 
     1     1     1     1    24
Direct
  0.2500000000000000  0.2500000000000000  0.2500000000000000
  0.7500000000000000  0.7500000000000000  0.7500000000000000
  0.0000000000000000  0.0000000000000000  0.0000000000000000
  0.5000000000000000  0.5000000000000000  0.5000000000000000
  0.1299513156529812  0.8923290883428336  0.6225796826453660
  0.8923290883428336  0.1299513156529812  0.3551399133588191
  0.6225796826453660  0.3551399133588191  0.1299513156529812
  0.3551399133588191  0.6225796826453660  0.8923290883428336
  0.6225796826453660  0.1299513156529812  0.8923290883428336
  0.3551399133588191  0.8923290883428336  0.1299513156529812
  0.1299513156529812  0.6225796826453660  0.3551399133588191
  0.8923290883428336  0.3551399133588191  0.6225796826453660
  0.8923290883428336  0.6225796826453660  0.1299513156529812
  0.1299513156529812  0.3551399133588191  0.8923290883428336
  0.3551399133588191  0.1299513156529812  0.6225796826453660
  0.6225796826453660  0.8923290883428336  0.3551399133588191
  0.1299513156529812  0.3551399133588191  0.6225796826453660
  0.3551399133588191  0.1299513156529812  0.8923290883428336
  0.6225796826453660  0.8923290883428336  0.1299513156529812
  0.8923290883428336  0.6225796826453660  0.3551399133588191
  0.6225796826453660  0.1299513156529812  0.3551399133588191
  0.8923290883428336  0.3551399133588191  0.1299513156529812
  0.1299513156529812  0.6225796826453660  0.8923290883428336
  0.3551399133588191  0.8923290883428336  0.6225796826453660
  0.3551399133588191  0.6225796826453660  0.1299513156529812
  0.1299513156529812  0.8923290883428336  0.3551399133588191
  0.8923290883428336  0.1299513156529812  0.6225796826453660
  0.6225796826453660  0.3551399133588191  0.8923290883428336
 
  0.00000000E+00  0.00000000E+00  0.00000000E+00
  0.00000000E+00  0.00000000E+00  0.00000000E+00
  0.00000000E+00  0.00000000E+00  0.00000000E+00
  0.00000000E+00  0.00000000E+00  0.00000000E+00
  0.00000000E+00  0.00000000E+00  0.00000000E+00
  0.00000000E+00  0.00000000E+00  0.00000000E+00
  0.00000000E+00  0.00000000E+00  0.00000000E+00
  0.00000000E+00  0.00000000E+00  0.00000000E+00
  0.00000000E+00  0.00000000E+00  0.00000000E+00
  0.00000000E+00  0.00000000E+00  0.00000000E+00
  0.00000000E+00  0.00000000E+00  0.00000000E+00
  0.00000000E+00  0.00000000E+00  0.00000000E+00
  0.00000000E+00  0.00000000E+00  0.00000000E+00
  0.00000000E+00  0.00000000E+00  0.00000000E+00
  0.00000000E+00  0.00000000E+00  0.00000000E+00
  0.00000000E+00  0.00000000E+00  0.00000000E+00
  0.00000000E+00  0.00000000E+00  0.00000000E+00
  0.00000000E+00  0.00000000E+00  0.00000000E+00
  0.00000000E+00  0.00000000E+00  0.00000000E+00
  0.00000000E+00  0.00000000E+00  0.00000000E+00
  0.00000000E+00  0.00000000E+00  0.00000000E+00
  0.00000000E+00  0.00000000E+00  0.00000000E+00
  0.00000000E+00  0.00000000E+00  0.00000000E+00
  0.00000000E+00  0.00000000E+00  0.00000000E+00
  0.00000000E+00  0.00000000E+00  0.00000000E+00
  0.00000000E+00  0.00000000E+00  0.00000000E+00
  0.00000000E+00  0.00000000E+00  0.00000000E+00
  0.00000000E+00  0.00000000E+00  0.00000000E+00
