generated by phonopy                    
   1.00000000000000     
     0.0000000000000000    3.2744680494535707    3.2744680494537208
     3.2744680494536280    0.0000000000000000    3.2744680494537208
     3.2744680494536280    3.2744680494535707    0.0000000000000000
   Na   Ca   Mg   Sr   H 
     1     1     1     1    24
Direct
  0.2500000000000000  0.2500000000000000  0.2500000000000000
  0.7500000000000000  0.7500000000000000  0.7500000000000000
  0.0000000000000000  0.0000000000000000  0.0000000000000000
  0.5000000000000000  0.5000000000000000  0.5000000000000000
  0.1157800518425702  0.8977054226059167  0.6328777349770718
  0.8977054226059167  0.1157800518425702  0.3536367905744413
  0.6328777349770718  0.3536367905744413  0.1157800518425702
  0.3536367905744413  0.6328777349770718  0.8977054226059167
  0.6328777349770718  0.1157800518425702  0.8977054226059167
  0.3536367905744413  0.8977054226059167  0.1157800518425702
  0.1157800518425702  0.6328777349770718  0.3536367905744413
  0.8977054226059167  0.3536367905744413  0.6328777349770718
  0.8977054226059167  0.6328777349770718  0.1157800518425702
  0.1157800518425702  0.3536367905744413  0.8977054226059167
  0.3536367905744413  0.1157800518425702  0.6328777349770718
  0.6328777349770718  0.8977054226059167  0.3536367905744413
  0.1157800518425702  0.3536367905744413  0.6328777349770718
  0.3536367905744413  0.1157800518425702  0.8977054226059167
  0.6328777349770718  0.8977054226059167  0.1157800518425702
  0.8977054226059167  0.6328777349770718  0.3536367905744413
  0.6328777349770718  0.1157800518425702  0.3536367905744413
  0.8977054226059167  0.3536367905744413  0.1157800518425702
  0.1157800518425702  0.6328777349770718  0.8977054226059167
  0.3536367905744413  0.8977054226059167  0.6328777349770718
  0.3536367905744413  0.6328777349770718  0.1157800518425702
  0.1157800518425702  0.8977054226059167  0.3536367905744413
  0.8977054226059167  0.1157800518425702  0.6328777349770718
  0.6328777349770718  0.3536367905744413  0.8977054226059167
 
  0.00000000E+00  0.00000000E+00  0.00000000E+00
  0.00000000E+00  0.00000000E+00  0.00000000E+00
  0.00000000E+00  0.00000000E+00  0.00000000E+00
  0.00000000E+00  0.00000000E+00  0.00000000E+00
  0.00000000E+00  0.00000000E+00  0.00000000E+00
  0.00000000E+00  0.00000000E+00  0.00000000E+00
  0.00000000E+00  0.00000000E+00  0.00000000E+00
  0.00000000E+00  0.00000000E+00  0.00000000E+00
  0.00000000E+00  0.00000000E+00  0.00000000E+00
  0.00000000E+00  0.00000000E+00  0.00000000E+00
  0.00000000E+00  0.00000000E+00  0.00000000E+00
  0.00000000E+00  0.00000000E+00  0.00000000E+00
  0.00000000E+00  0.00000000E+00  0.00000000E+00
  0.00000000E+00  0.00000000E+00  0.00000000E+00
  0.00000000E+00  0.00000000E+00  0.00000000E+00
  0.00000000E+00  0.00000000E+00  0.00000000E+00
  0.00000000E+00  0.00000000E+00  0.00000000E+00
  0.00000000E+00  0.00000000E+00  0.00000000E+00
  0.00000000E+00  0.00000000E+00  0.00000000E+00
  0.00000000E+00  0.00000000E+00  0.00000000E+00
  0.00000000E+00  0.00000000E+00  0.00000000E+00
  0.00000000E+00  0.00000000E+00  0.00000000E+00
  0.00000000E+00  0.00000000E+00  0.00000000E+00
  0.00000000E+00  0.00000000E+00  0.00000000E+00
  0.00000000E+00  0.00000000E+00  0.00000000E+00
  0.00000000E+00  0.00000000E+00  0.00000000E+00
  0.00000000E+00  0.00000000E+00  0.00000000E+00
  0.00000000E+00  0.00000000E+00  0.00000000E+00
