POSCAR                                  
   1.00000000000000     
     9.8136601174131570    0.0282460146636207    0.0017877092728728
     0.0281037465169877    9.8207390471973159   -0.0357492756101219
     0.0012997291362676   -0.0238680368452744    6.5107868037728229
   Y    Na   K    Zr   H 
     9     9     9     9   216
Direct
  0.1611709320614096  0.1682826535082285  0.2530071237667428
  0.1655661795732115  0.8322590293265932  0.2435251434440033
  0.3367032583754153  0.6716750285682451  0.4986909916483455
  0.8350973027170809  0.1653757164730933  0.7566187673316449
  0.8321474987498263  0.5061943473328441  0.2421843908126604
  0.4973565389868213  0.8271908753666608  0.7537759126783996
  0.3250138262456517  0.9959084913018685  0.9992421520671115
  0.6665585122284128  0.9974659368879557  0.4976992588352118
  0.6706370532172272  0.9951199129765982  0.9998795125549265
  0.1660697468073806  0.1557181331862907  0.7588029249246517
  0.1668950100209443  0.8317493435693777  0.7476097354259963
  0.5023910716808189  0.5015153480217620  0.7548760958575258
  0.3424990159447248  0.6687327814419035  0.9907540223423368
  0.6662030061761968  0.3376645168525698  0.0030007592989136
  0.6719307468008466  0.6607859471156843  0.9985602461772984
  0.9915045862674248  0.3263285861170857  0.0026483023767057
  0.8359225520009659  0.8309628648268870  0.2530514303139739
  0.9984487505937878  0.9905328778900611  0.0002281395498827
  0.1616708371416138  0.5042182724619622  0.2116603745062662
  0.3226706951345761  0.3474678175816237  0.5151662083475728
  0.1749573613036546  0.4767254142638393  0.7153518123146867
  0.4985950207570582  0.5048754248032381  0.2481707584182971
  0.5060798888995421  0.8399466418706325  0.2456960589884076
  0.3291801773622609  0.0073652439154088  0.5021685538465448
  0.0005273175291833  0.3326994418661400  0.5088695399514265
  0.8390661168463183  0.8309394752402142  0.7562348644880501
  0.0136997316956027  0.6578445192176332  0.0086507888475964
  0.4930070275050866  0.1746195174069101  0.2536632650969253
  0.4925279869093799  0.1754733486725044  0.7557557142629818
  0.3303655536057235  0.3458428959397253  0.0069307455544205
  0.8376721235521458  0.1666319036620649  0.2442790143336637
  0.6635746745248596  0.3378530794699657  0.5020279972276072
  0.6633165867826207  0.6697839529117573  0.4973359000230246
  0.8322445256087860  0.5011995457686211  0.7609021643486358
  0.0076360552263424  0.6633575750707337  0.5091366868304021
  0.0018211108700399  0.9989338893396251  0.5082084610379098
  0.1546844318602751  0.0790250828582373  0.9924131621720420
  0.1622353558927543  0.0830430428271143  0.5175046364471783
  0.1570345370336312  0.4046519387887599  0.9742031931981856
  0.4959065184469011  0.0865556974689667  0.9977670419739439
  0.3246212123372132  0.2588931930408549  0.2583444345700840
  0.1509754007221105  0.4192833747761071  0.4488656525732893
  0.4982175597876406  0.0862067251809648  0.5073897925032327
  0.3165622828138694  0.2502516622004833  0.7511711977363262
  0.1795387654321559  0.7431806485288490  0.9700773066004160
  0.5058816524245060  0.4214282438861758  0.9916380636684252
  0.3328778547354787  0.5865944450506291  0.2187371086825820
  0.1671451916887108  0.7539724903914689  0.5083564230541384
  0.8421027648654587  0.0774541459707336  0.0048522911504563
  0.6680891024668512  0.2536182327523306  0.2419694004063757
  0.4968916244686454  0.4219809147187590  0.5108029655839701
  0.3253279847594115  0.5848728634887763  0.7561713239223096
  0.8330477558934604  0.0831157456754994  0.4968018759290089
  0.6658409002578125  0.2549139779646055  0.7659110564698182
  0.5103345313572376  0.7452427776284409  0.0091989693288852
  0.3357281580225191  0.9183425254504769  0.2579489449298009
  0.8278008794387404  0.4113659362781661  0.9988211638402902
  0.6611481551210616  0.5869563525153865  0.2377396535975009
  0.5028768445339296  0.7562874557044594  0.4898390849448830
  0.3247275106596490  0.9171807604083213  0.7424183112929654
  0.9960530491378776  0.2540370860103209  0.2464105990392085
  0.8354922250851473  0.4192023507037135  0.4987436908952674
  0.6617796834230774  0.5785650687126065  0.7622696463545324
  0.0032631379960861  0.2423901710468783  0.7594183994031738
  0.8476623613819143  0.7524404001171803  0.0106446009218999
  0.6818209836632079  0.9114274758299956  0.2498826254946209
  0.9993423258531919  0.5825094352992579  0.2629459955150040
  0.8336274662301264  0.7548243943018633  0.4958336699417458
  0.6682978385171623  0.9118770627101256  0.7464541990468092
  0.0173260731552247  0.5804646474433213  0.7551491279850708
  0.9895360355936447  0.9145663806102746  0.2434150793924630
  0.0083887611369491  0.9144677346158971  0.7594165482943964
  0.0838383016801103  0.1755987923554585  0.9871636992824691
  0.0782512965431508  0.1625570855052132  0.5213195721970862
  0.0856521022784236  0.4775476236057443  0.9604032399166300
  0.4122015033963677  0.1697446347471470  0.0041084361815749
  0.2450501037890476  0.3336460793887994  0.2600632611798943
  0.0857248896731946  0.4924590721353042  0.4705450682559515
  0.4094936044137469  0.1774854607535588  0.5054626124401125
  0.2467797022905387  0.3091450057257461  0.7773971842385805
  0.0811982118037378  0.8375523115393904  0.9791508874746881
  0.4258296121773526  0.5189793430013054  0.9878544079255676
  0.2500611494755063  0.6638796461676719  0.2230936110316648
  0.0855379956087390  0.8334235957541978  0.5148256961325686
  0.7430938941657885  0.1745583258966548  0.0049765807645841
  0.5817193872334130  0.3374227181175939  0.2344088477446462
  0.4211547962003550  0.5021662335451396  0.5241354208500368
  0.2550195830399815  0.6496790500724714  0.7539989247657743
  0.7481784473220756  0.1690533959804199  0.4952223087438981
  0.5801649826089914  0.3437513721992218  0.7692042717525993
  0.4179920799320342  0.8248363131804197  0.0045795630840146
  0.2471374216941413  0.0017545170590481  0.2559723679046542
  0.7445465699772456  0.4979455203008172  0.9967169092335979
  0.5853439494828692  0.6678646192555249  0.2232438631796896
  0.4149237695755588  0.8417265154726650  0.4936044766274250
  0.2427254006161093  0.9949086156204032  0.7473204030579339
  0.9167606586089150  0.3362974773153411  0.2496027323633285
  0.7503594413622778  0.5075273745303264  0.5025738284187469
  0.5846025404425177  0.6563979454123228  0.7715832081580345
  0.9207924107866603  0.3359528440604720  0.7643644508088343
  0.7537681068169491  0.8201560781114807  0.0126830792571226
  0.5827149452180009  0.0100571598795369  0.2455431673110411
  0.9179060518903484  0.6770893459972527  0.2573367170935370
  0.7578955653089636  0.8262316244818919  0.4932361218179793
  0.5825887174552520  0.0007785715611419  0.7536825600767969
  0.9245722065930835  0.6655030604215497  0.7616311340554134
  0.9165227448133138  0.9892957572248733  0.2393052667985316
  0.9188851186731739  0.9948791690846619  0.7690433068314277
  0.1506362155674452  0.9990493818311990  0.1198680933900391
  0.1667834423691303  0.9995853839057673  0.6319351611884940
  0.1494100690096474  0.3307361078586410  0.1180988523587629
  0.4974529749726315  0.0063516729855877  0.1254112657035904
  0.3299340122358601  0.1796862643253476  0.3883482055272367
  0.1588655460286859  0.3011088314525523  0.6341876573899370
  0.4959683041913578  0.0047954357842670  0.6226042599101191
  0.3248835441100297  0.1709505235293918  0.8819648007462959
  0.1922334352310742  0.6730408653479856  0.1126861943234161
  0.5088205228306890  0.3377132924053612  0.1296547877433909
  0.3252370827460993  0.5007779636434009  0.3598012527581815
  0.1717361910943112  0.6647270306479882  0.6323523775184441
  0.8466051551897138  0.9825008092390775  0.1237251843777898
  0.6642607253388491  0.1697438616352187  0.3723442916914976
  0.4940349307431191  0.3416934281619532  0.6300120716159938
  0.3375329995076584  0.5043473282139388  0.8721806046808709
  0.8345561125835133  0.9975463285325503  0.6244125770824738
  0.6608350273160326  0.1774800285561469  0.8814186721031803
  0.5138166033981122  0.6707378689585042  0.1186690460469677
  0.3363204193876754  0.8415204506661880  0.3740332633450905
  0.8278205862203762  0.3355969461083461  0.1255237113290235
  0.6634238274452215  0.5022507773483511  0.3694285083140016
  0.5021629645174528  0.6537134073392963  0.6334522593363232
  0.3187077412137782  0.8178261368776418  0.8684763732400711
  0.9964996316186614  0.1648779266989422  0.3809141200808170
  0.8309917911933624  0.3340042673756756  0.6265676412176404
  0.6537300379789386  0.5027578542056759  0.8788206348076173
  0.0055930410870886  0.1520925109635201  0.8803243266595118
  0.8266870409215343  0.6794123046896843  0.1279614160265794
  0.6777074370584302  0.8301910037771592  0.3641342533580101
  0.0030824134966991  0.4962878013142529  0.3653853266897897
  0.8359116599994394  0.6659436976834030  0.6283777833762301
  0.6707028694402055  0.8157554163969465  0.8789954259323594
  0.0206412753146097  0.4859748200855663  0.8720264241269220
  0.9953029067479449  0.8313984531835317  0.3760263411638860
  0.0126294983894368  0.8277281994092789  0.8745749097884570
  0.0761527587279502  0.9993028169434908  0.2350395068052364
  0.0815884767852921  0.9919365393636141  0.7706085860631049
  0.0785898277381705  0.3370440150285532  0.2277304985123010
  0.4147313550527088  0.0026956200289874  0.2516621313335676
  0.2481355513035624  0.1740812396327129  0.5112574573196440
  0.0803401375562487  0.3134136907023262  0.7773947344394898
  0.4129074052012243  0.0024741635404339  0.7496120203256211
  0.2455404297043486  0.1768049046497921  0.9887270312359462
  0.0829923559659207  0.6676321603009114  0.2633420326268805
  0.4127713704310239  0.3428482150285248  0.2622808168437771
  0.2508110513983866  0.5150305808268456  0.4571516672983122
  0.0926107780899841  0.6517188454306435  0.7560294218452484
  0.7574632432208190  0.9950940667618724  0.2496420987845269
  0.5809809553032466  0.1716785549828472  0.5027626425529235
  0.4169161174419926  0.3476637495719928  0.7559938873968832
  0.2464360645080035  0.5247215016455868  0.9644794059108790
  0.7512886584133653  0.9957424653370595  0.7465481434339551
  0.5832068786366449  0.1765591586434141  0.0040926562655699
  0.4209076145397006  0.6736411008490606  0.2441924895071423
  0.2496118583112690  0.8378611424206355  0.5140443136614223
  0.7455994434610176  0.3336294859670943  0.2381412160887777
  0.5817277247867381  0.5038559921021957  0.5156026619411520
  0.4239107313189692  0.6571733861697453  0.7586985617133379
  0.2505565043748632  0.8270435501911209  0.9837908391279484
  0.9143359594678486  0.1676301348446856  0.4977590531366474
  0.7428538201849406  0.3328078928821370  0.7662311325694873
  0.5844050706875166  0.4973642666990372  0.9892908979213928
  0.9255952119586652  0.1590696598057662  0.0010608284636575
  0.7549968475407951  0.6782197216102261  0.2348180489785960
  0.5816063438270120  0.8323704682390911  0.4987960880589526
  0.9133847289426598  0.4999448351600648  0.4997177428944184
  0.7501647789685393  0.6695421636966614  0.7568884507959979
  0.5854597165558459  0.8164593322167946  0.9979082178628076
  0.9248138101673007  0.4915052756901801  0.0025700307211522
  0.9150043067647005  0.8310721750622605  0.4931567929213116
  0.9173154000513577  0.8198395520370951  0.0166123361963599
  0.9976277248039125  0.1514637433402513  0.1176956108251801
  0.0118145384826107  0.1686893336194473  0.6388259343128979
  0.9906613974407321  0.4832693933039849  0.1096989648105833
  0.3322531296700717  0.1745522621201658  0.1262255762423550
  0.1666228702154271  0.3451108164624443  0.3686932024427492
  0.9999630382452764  0.5010728926890309  0.6268059952556371
  0.3241570891483860  0.1767369693468623  0.6319772325833739
  0.1460782665778311  0.3242490253119499  0.8668976658661904
  0.9895260376054509  0.8326835224863345  0.1289652343289376
  0.3351468425604267  0.5217368049930400  0.1199602124114136
  0.1734287909927872  0.6608342385594170  0.3640755209805349
  0.0104879807823153  0.8303083470998018  0.6309047343372214
  0.6655037554811400  0.1765550542171894  0.1229542489564608
  0.4914334312386828  0.3389135368596712  0.3805881881011430
  0.3561537597458084  0.5119108622174551  0.6256135106602230
  0.1740647642827184  0.6813328443661888  0.8706392901770101
  0.6623344768733403  0.1709802661622675  0.6266675581911230
  0.5088305915558209  0.3449696739012325  0.8835611362694777
  0.3379065257423548  0.8164192313344074  0.1224197505079587
  0.1654049007696869  0.0004191943467191  0.3792987146922613
  0.6634784817796131  0.5035038574917792  0.1191981233151722
  0.4986495103314397  0.6736096929816142  0.3593804976339499
  0.3219656393159269  0.8425575806844705  0.6249245236466976
  0.1522615643127168  0.9960846931622385  0.8747235530379527
  0.8332249177598072  0.3382384229356248  0.3783693157867347
  0.6559006261151907  0.5041485234603584  0.6290178964422637
  0.5100857579660385  0.6567637688435894  0.8744890955698921
  0.8296981268832724  0.3333032010732850  0.8832645338266332
  0.6842588997672792  0.8147131000118790  0.1226865201140086
  0.4954406962291102  0.0077050503857805  0.3760544407555528
  0.8347257896298146  0.6736053235553072  0.3769404900923661
  0.6720989973013403  0.8319131599003740  0.6299773770360986
  0.4981564336686901  0.0038645880511652  0.8739949120364940
  0.8354419899865846  0.6665825190878252  0.8808567006732346
  0.8364839931728909  0.9936247194054815  0.3694530129835414
  0.8498849856422837  0.9976733566100151  0.8779672159099619
  0.0004544508898476  0.0769996261235661  0.2318329891423971
  0.0109043747854045  0.0797791320813985  0.7733981965048429
  0.9985262824862247  0.4118700407243523  0.2502770456754320
  0.3307974565889396  0.0849390315222749  0.2477866645943436
  0.1692315890076088  0.2488945083319791  0.5405412285082676
  0.9918539874861807  0.4096010017119411  0.7698213379086525
  0.3272346243177040  0.0860225729146933  0.7558047707652804
  0.1497737624477367  0.2425407721107860  0.9942396783395253
  0.9915798820610959  0.7526957190552892  0.2534709368958090
  0.3334561672976406  0.4244572673243425  0.2622419053018774
  0.1797603038733584  0.5761575135260273  0.4795517508986080
  0.0078259579272739  0.7483204484883501  0.7622003926639991
  0.6672934146694942  0.0860068667870095  0.2487626354328611
  0.4932426497675451  0.2597204050819855  0.5079586391386144
  0.3545230611532020  0.4222151928298601  0.7691704164809394
  0.1859170248678836  0.5833143334995725  0.9485949246737135
  0.6595795346473992  0.0839693126103001  0.7502712333136685
  0.5016921846567470  0.2564570902633818  0.0025617737602417
  0.3411421020254224  0.7526269972266775  0.2264234648796730
  0.1638070362452240  0.9156880227834847  0.5129685931915091
  0.6640155876377278  0.4177870390399363  0.2436268154283638
  0.5034425895520016  0.5826739429680501  0.5089651332248195
  0.3229777269247194  0.7500843508860129  0.7668203816387731
  0.1528892669500337  0.9096413958663589  0.9851748433583936
  0.8321790791571360  0.2552730247298527  0.5018058085079389
  0.6604669963511682  0.4176955949065473  0.7627057560588213
  0.4947436257205240  0.5808852839348759  0.9906000689951497
  0.8319529648685347  0.2535367443894856  0.0012453073791221
  0.6736047448268536  0.7523729891010333  0.2346777958893824
  0.4955278449847427  0.9215410182236781  0.5047056200626514
  0.8321363801373494  0.5854788445450794  0.5053377598863023
  0.6742078738813859  0.7455648384867075  0.7680949552140035
  0.4983529717447084  0.9187405547739687  0.9974533902237965
  0.8345923804237714  0.5893164914692406  0.9939402652815446
  0.8395365692417585  0.9125440784569889  0.4867550033454648
  0.8404873455908231  0.9108285310014423  0.0188652684710675
 
  0.00000000E+00  0.00000000E+00  0.00000000E+00
  0.00000000E+00  0.00000000E+00  0.00000000E+00
  0.00000000E+00  0.00000000E+00  0.00000000E+00
  0.00000000E+00  0.00000000E+00  0.00000000E+00
  0.00000000E+00  0.00000000E+00  0.00000000E+00
  0.00000000E+00  0.00000000E+00  0.00000000E+00
  0.00000000E+00  0.00000000E+00  0.00000000E+00
  0.00000000E+00  0.00000000E+00  0.00000000E+00
  0.00000000E+00  0.00000000E+00  0.00000000E+00
  0.00000000E+00  0.00000000E+00  0.00000000E+00
  0.00000000E+00  0.00000000E+00  0.00000000E+00
  0.00000000E+00  0.00000000E+00  0.00000000E+00
  0.00000000E+00  0.00000000E+00  0.00000000E+00
  0.00000000E+00  0.00000000E+00  0.00000000E+00
  0.00000000E+00  0.00000000E+00  0.00000000E+00
  0.00000000E+00  0.00000000E+00  0.00000000E+00
  0.00000000E+00  0.00000000E+00  0.00000000E+00
  0.00000000E+00  0.00000000E+00  0.00000000E+00
  0.00000000E+00  0.00000000E+00  0.00000000E+00
  0.00000000E+00  0.00000000E+00  0.00000000E+00
  0.00000000E+00  0.00000000E+00  0.00000000E+00
  0.00000000E+00  0.00000000E+00  0.00000000E+00
  0.00000000E+00  0.00000000E+00  0.00000000E+00
  0.00000000E+00  0.00000000E+00  0.00000000E+00
  0.00000000E+00  0.00000000E+00  0.00000000E+00
  0.00000000E+00  0.00000000E+00  0.00000000E+00
  0.00000000E+00  0.00000000E+00  0.00000000E+00
  0.00000000E+00  0.00000000E+00  0.00000000E+00
  0.00000000E+00  0.00000000E+00  0.00000000E+00
  0.00000000E+00  0.00000000E+00  0.00000000E+00
  0.00000000E+00  0.00000000E+00  0.00000000E+00
  0.00000000E+00  0.00000000E+00  0.00000000E+00
  0.00000000E+00  0.00000000E+00  0.00000000E+00
  0.00000000E+00  0.00000000E+00  0.00000000E+00
  0.00000000E+00  0.00000000E+00  0.00000000E+00
  0.00000000E+00  0.00000000E+00  0.00000000E+00
  0.00000000E+00  0.00000000E+00  0.00000000E+00
  0.00000000E+00  0.00000000E+00  0.00000000E+00
  0.00000000E+00  0.00000000E+00  0.00000000E+00
  0.00000000E+00  0.00000000E+00  0.00000000E+00
  0.00000000E+00  0.00000000E+00  0.00000000E+00
  0.00000000E+00  0.00000000E+00  0.00000000E+00
  0.00000000E+00  0.00000000E+00  0.00000000E+00
  0.00000000E+00  0.00000000E+00  0.00000000E+00
  0.00000000E+00  0.00000000E+00  0.00000000E+00
  0.00000000E+00  0.00000000E+00  0.00000000E+00
  0.00000000E+00  0.00000000E+00  0.00000000E+00
  0.00000000E+00  0.00000000E+00  0.00000000E+00
  0.00000000E+00  0.00000000E+00  0.00000000E+00
  0.00000000E+00  0.00000000E+00  0.00000000E+00
  0.00000000E+00  0.00000000E+00  0.00000000E+00
  0.00000000E+00  0.00000000E+00  0.00000000E+00
  0.00000000E+00  0.00000000E+00  0.00000000E+00
  0.00000000E+00  0.00000000E+00  0.00000000E+00
  0.00000000E+00  0.00000000E+00  0.00000000E+00
  0.00000000E+00  0.00000000E+00  0.00000000E+00
  0.00000000E+00  0.00000000E+00  0.00000000E+00
  0.00000000E+00  0.00000000E+00  0.00000000E+00
  0.00000000E+00  0.00000000E+00  0.00000000E+00
  0.00000000E+00  0.00000000E+00  0.00000000E+00
  0.00000000E+00  0.00000000E+00  0.00000000E+00
  0.00000000E+00  0.00000000E+00  0.00000000E+00
  0.00000000E+00  0.00000000E+00  0.00000000E+00
  0.00000000E+00  0.00000000E+00  0.00000000E+00
  0.00000000E+00  0.00000000E+00  0.00000000E+00
  0.00000000E+00  0.00000000E+00  0.00000000E+00
  0.00000000E+00  0.00000000E+00  0.00000000E+00
  0.00000000E+00  0.00000000E+00  0.00000000E+00
  0.00000000E+00  0.00000000E+00  0.00000000E+00
  0.00000000E+00  0.00000000E+00  0.00000000E+00
  0.00000000E+00  0.00000000E+00  0.00000000E+00
  0.00000000E+00  0.00000000E+00  0.00000000E+00
  0.00000000E+00  0.00000000E+00  0.00000000E+00
  0.00000000E+00  0.00000000E+00  0.00000000E+00
  0.00000000E+00  0.00000000E+00  0.00000000E+00
  0.00000000E+00  0.00000000E+00  0.00000000E+00
  0.00000000E+00  0.00000000E+00  0.00000000E+00
  0.00000000E+00  0.00000000E+00  0.00000000E+00
  0.00000000E+00  0.00000000E+00  0.00000000E+00
  0.00000000E+00  0.00000000E+00  0.00000000E+00
  0.00000000E+00  0.00000000E+00  0.00000000E+00
  0.00000000E+00  0.00000000E+00  0.00000000E+00
  0.00000000E+00  0.00000000E+00  0.00000000E+00
  0.00000000E+00  0.00000000E+00  0.00000000E+00
  0.00000000E+00  0.00000000E+00  0.00000000E+00
  0.00000000E+00  0.00000000E+00  0.00000000E+00
  0.00000000E+00  0.00000000E+00  0.00000000E+00
  0.00000000E+00  0.00000000E+00  0.00000000E+00
  0.00000000E+00  0.00000000E+00  0.00000000E+00
  0.00000000E+00  0.00000000E+00  0.00000000E+00
  0.00000000E+00  0.00000000E+00  0.00000000E+00
  0.00000000E+00  0.00000000E+00  0.00000000E+00
  0.00000000E+00  0.00000000E+00  0.00000000E+00
  0.00000000E+00  0.00000000E+00  0.00000000E+00
  0.00000000E+00  0.00000000E+00  0.00000000E+00
  0.00000000E+00  0.00000000E+00  0.00000000E+00
  0.00000000E+00  0.00000000E+00  0.00000000E+00
  0.00000000E+00  0.00000000E+00  0.00000000E+00
  0.00000000E+00  0.00000000E+00  0.00000000E+00
  0.00000000E+00  0.00000000E+00  0.00000000E+00
  0.00000000E+00  0.00000000E+00  0.00000000E+00
  0.00000000E+00  0.00000000E+00  0.00000000E+00
  0.00000000E+00  0.00000000E+00  0.00000000E+00
  0.00000000E+00  0.00000000E+00  0.00000000E+00
  0.00000000E+00  0.00000000E+00  0.00000000E+00
  0.00000000E+00  0.00000000E+00  0.00000000E+00
  0.00000000E+00  0.00000000E+00  0.00000000E+00
  0.00000000E+00  0.00000000E+00  0.00000000E+00
  0.00000000E+00  0.00000000E+00  0.00000000E+00
  0.00000000E+00  0.00000000E+00  0.00000000E+00
  0.00000000E+00  0.00000000E+00  0.00000000E+00
  0.00000000E+00  0.00000000E+00  0.00000000E+00
  0.00000000E+00  0.00000000E+00  0.00000000E+00
  0.00000000E+00  0.00000000E+00  0.00000000E+00
  0.00000000E+00  0.00000000E+00  0.00000000E+00
  0.00000000E+00  0.00000000E+00  0.00000000E+00
  0.00000000E+00  0.00000000E+00  0.00000000E+00
  0.00000000E+00  0.00000000E+00  0.00000000E+00
  0.00000000E+00  0.00000000E+00  0.00000000E+00
  0.00000000E+00  0.00000000E+00  0.00000000E+00
  0.00000000E+00  0.00000000E+00  0.00000000E+00
  0.00000000E+00  0.00000000E+00  0.00000000E+00
  0.00000000E+00  0.00000000E+00  0.00000000E+00
  0.00000000E+00  0.00000000E+00  0.00000000E+00
  0.00000000E+00  0.00000000E+00  0.00000000E+00
  0.00000000E+00  0.00000000E+00  0.00000000E+00
  0.00000000E+00  0.00000000E+00  0.00000000E+00
  0.00000000E+00  0.00000000E+00  0.00000000E+00
  0.00000000E+00  0.00000000E+00  0.00000000E+00
  0.00000000E+00  0.00000000E+00  0.00000000E+00
  0.00000000E+00  0.00000000E+00  0.00000000E+00
  0.00000000E+00  0.00000000E+00  0.00000000E+00
  0.00000000E+00  0.00000000E+00  0.00000000E+00
  0.00000000E+00  0.00000000E+00  0.00000000E+00
  0.00000000E+00  0.00000000E+00  0.00000000E+00
  0.00000000E+00  0.00000000E+00  0.00000000E+00
  0.00000000E+00  0.00000000E+00  0.00000000E+00
  0.00000000E+00  0.00000000E+00  0.00000000E+00
  0.00000000E+00  0.00000000E+00  0.00000000E+00
  0.00000000E+00  0.00000000E+00  0.00000000E+00
  0.00000000E+00  0.00000000E+00  0.00000000E+00
  0.00000000E+00  0.00000000E+00  0.00000000E+00
  0.00000000E+00  0.00000000E+00  0.00000000E+00
  0.00000000E+00  0.00000000E+00  0.00000000E+00
  0.00000000E+00  0.00000000E+00  0.00000000E+00
  0.00000000E+00  0.00000000E+00  0.00000000E+00
  0.00000000E+00  0.00000000E+00  0.00000000E+00
  0.00000000E+00  0.00000000E+00  0.00000000E+00
  0.00000000E+00  0.00000000E+00  0.00000000E+00
  0.00000000E+00  0.00000000E+00  0.00000000E+00
  0.00000000E+00  0.00000000E+00  0.00000000E+00
  0.00000000E+00  0.00000000E+00  0.00000000E+00
  0.00000000E+00  0.00000000E+00  0.00000000E+00
  0.00000000E+00  0.00000000E+00  0.00000000E+00
  0.00000000E+00  0.00000000E+00  0.00000000E+00
  0.00000000E+00  0.00000000E+00  0.00000000E+00
  0.00000000E+00  0.00000000E+00  0.00000000E+00
  0.00000000E+00  0.00000000E+00  0.00000000E+00
  0.00000000E+00  0.00000000E+00  0.00000000E+00
  0.00000000E+00  0.00000000E+00  0.00000000E+00
  0.00000000E+00  0.00000000E+00  0.00000000E+00
  0.00000000E+00  0.00000000E+00  0.00000000E+00
  0.00000000E+00  0.00000000E+00  0.00000000E+00
  0.00000000E+00  0.00000000E+00  0.00000000E+00
  0.00000000E+00  0.00000000E+00  0.00000000E+00
  0.00000000E+00  0.00000000E+00  0.00000000E+00
  0.00000000E+00  0.00000000E+00  0.00000000E+00
  0.00000000E+00  0.00000000E+00  0.00000000E+00
  0.00000000E+00  0.00000000E+00  0.00000000E+00
  0.00000000E+00  0.00000000E+00  0.00000000E+00
  0.00000000E+00  0.00000000E+00  0.00000000E+00
  0.00000000E+00  0.00000000E+00  0.00000000E+00
  0.00000000E+00  0.00000000E+00  0.00000000E+00
  0.00000000E+00  0.00000000E+00  0.00000000E+00
  0.00000000E+00  0.00000000E+00  0.00000000E+00
  0.00000000E+00  0.00000000E+00  0.00000000E+00
  0.00000000E+00  0.00000000E+00  0.00000000E+00
  0.00000000E+00  0.00000000E+00  0.00000000E+00
  0.00000000E+00  0.00000000E+00  0.00000000E+00
  0.00000000E+00  0.00000000E+00  0.00000000E+00
  0.00000000E+00  0.00000000E+00  0.00000000E+00
  0.00000000E+00  0.00000000E+00  0.00000000E+00
  0.00000000E+00  0.00000000E+00  0.00000000E+00
  0.00000000E+00  0.00000000E+00  0.00000000E+00
  0.00000000E+00  0.00000000E+00  0.00000000E+00
  0.00000000E+00  0.00000000E+00  0.00000000E+00
  0.00000000E+00  0.00000000E+00  0.00000000E+00
  0.00000000E+00  0.00000000E+00  0.00000000E+00
  0.00000000E+00  0.00000000E+00  0.00000000E+00
  0.00000000E+00  0.00000000E+00  0.00000000E+00
  0.00000000E+00  0.00000000E+00  0.00000000E+00
  0.00000000E+00  0.00000000E+00  0.00000000E+00
  0.00000000E+00  0.00000000E+00  0.00000000E+00
  0.00000000E+00  0.00000000E+00  0.00000000E+00
  0.00000000E+00  0.00000000E+00  0.00000000E+00
  0.00000000E+00  0.00000000E+00  0.00000000E+00
  0.00000000E+00  0.00000000E+00  0.00000000E+00
  0.00000000E+00  0.00000000E+00  0.00000000E+00
  0.00000000E+00  0.00000000E+00  0.00000000E+00
  0.00000000E+00  0.00000000E+00  0.00000000E+00
  0.00000000E+00  0.00000000E+00  0.00000000E+00
  0.00000000E+00  0.00000000E+00  0.00000000E+00
  0.00000000E+00  0.00000000E+00  0.00000000E+00
  0.00000000E+00  0.00000000E+00  0.00000000E+00
  0.00000000E+00  0.00000000E+00  0.00000000E+00
  0.00000000E+00  0.00000000E+00  0.00000000E+00
  0.00000000E+00  0.00000000E+00  0.00000000E+00
  0.00000000E+00  0.00000000E+00  0.00000000E+00
  0.00000000E+00  0.00000000E+00  0.00000000E+00
  0.00000000E+00  0.00000000E+00  0.00000000E+00
  0.00000000E+00  0.00000000E+00  0.00000000E+00
  0.00000000E+00  0.00000000E+00  0.00000000E+00
  0.00000000E+00  0.00000000E+00  0.00000000E+00
  0.00000000E+00  0.00000000E+00  0.00000000E+00
  0.00000000E+00  0.00000000E+00  0.00000000E+00
  0.00000000E+00  0.00000000E+00  0.00000000E+00
  0.00000000E+00  0.00000000E+00  0.00000000E+00
  0.00000000E+00  0.00000000E+00  0.00000000E+00
  0.00000000E+00  0.00000000E+00  0.00000000E+00
  0.00000000E+00  0.00000000E+00  0.00000000E+00
  0.00000000E+00  0.00000000E+00  0.00000000E+00
  0.00000000E+00  0.00000000E+00  0.00000000E+00
  0.00000000E+00  0.00000000E+00  0.00000000E+00
  0.00000000E+00  0.00000000E+00  0.00000000E+00
  0.00000000E+00  0.00000000E+00  0.00000000E+00
  0.00000000E+00  0.00000000E+00  0.00000000E+00
  0.00000000E+00  0.00000000E+00  0.00000000E+00
  0.00000000E+00  0.00000000E+00  0.00000000E+00
  0.00000000E+00  0.00000000E+00  0.00000000E+00
  0.00000000E+00  0.00000000E+00  0.00000000E+00
  0.00000000E+00  0.00000000E+00  0.00000000E+00
  0.00000000E+00  0.00000000E+00  0.00000000E+00
  0.00000000E+00  0.00000000E+00  0.00000000E+00
  0.00000000E+00  0.00000000E+00  0.00000000E+00
  0.00000000E+00  0.00000000E+00  0.00000000E+00
  0.00000000E+00  0.00000000E+00  0.00000000E+00
  0.00000000E+00  0.00000000E+00  0.00000000E+00
  0.00000000E+00  0.00000000E+00  0.00000000E+00
  0.00000000E+00  0.00000000E+00  0.00000000E+00
  0.00000000E+00  0.00000000E+00  0.00000000E+00
  0.00000000E+00  0.00000000E+00  0.00000000E+00
  0.00000000E+00  0.00000000E+00  0.00000000E+00
  0.00000000E+00  0.00000000E+00  0.00000000E+00
  0.00000000E+00  0.00000000E+00  0.00000000E+00
  0.00000000E+00  0.00000000E+00  0.00000000E+00
  0.00000000E+00  0.00000000E+00  0.00000000E+00
  0.00000000E+00  0.00000000E+00  0.00000000E+00
  0.00000000E+00  0.00000000E+00  0.00000000E+00
  0.00000000E+00  0.00000000E+00  0.00000000E+00
  0.00000000E+00  0.00000000E+00  0.00000000E+00
  0.00000000E+00  0.00000000E+00  0.00000000E+00
  0.00000000E+00  0.00000000E+00  0.00000000E+00
