generated by phonopy                    
   1.00000000000000     
     0.0000000000000000    3.2601665319596429    3.2601665319597872
     3.2601665319597042    0.0000000000000000    3.2601665319597872
     3.2601665319597042    3.2601665319596429    0.0000000000000000
   Na   K    Mg   Hf   H 
     1     1     1     1    24
Direct
  0.2500000000000000  0.2500000000000000  0.2500000000000000
  0.7500000000000000  0.7500000000000000  0.7500000000000000
  0.0000000000000000  0.0000000000000000  0.0000000000000000
  0.5000000000000000  0.5000000000000000  0.5000000000000000
  0.1164790616403266  0.8979620658124716  0.6247036956316663
  0.8979620658124716  0.1164790616403266  0.3608551769155355
  0.6247036956316663  0.3608551769155355  0.1164790616403266
  0.3608551769155355  0.6247036956316663  0.8979620658124716
  0.6247036956316663  0.1164790616403266  0.8979620658124716
  0.3608551769155355  0.8979620658124716  0.1164790616403266
  0.1164790616403266  0.6247036956316663  0.3608551769155355
  0.8979620658124716  0.3608551769155355  0.6247036956316663
  0.8979620658124716  0.6247036956316663  0.1164790616403266
  0.1164790616403266  0.3608551769155355  0.8979620658124716
  0.3608551769155355  0.1164790616403266  0.6247036956316663
  0.6247036956316663  0.8979620658124716  0.3608551769155355
  0.1164790616403266  0.3608551769155355  0.6247036956316663
  0.3608551769155355  0.1164790616403266  0.8979620658124716
  0.6247036956316663  0.8979620658124716  0.1164790616403266
  0.8979620658124716  0.6247036956316663  0.3608551769155355
  0.6247036956316663  0.1164790616403266  0.3608551769155355
  0.8979620658124716  0.3608551769155355  0.1164790616403266
  0.1164790616403266  0.6247036956316663  0.8979620658124716
  0.3608551769155355  0.8979620658124716  0.6247036956316663
  0.3608551769155355  0.6247036956316663  0.1164790616403266
  0.1164790616403266  0.8979620658124716  0.3608551769155355
  0.8979620658124716  0.1164790616403266  0.6247036956316663
  0.6247036956316663  0.3608551769155355  0.8979620658124716
 
  0.00000000E+00  0.00000000E+00  0.00000000E+00
  0.00000000E+00  0.00000000E+00  0.00000000E+00
  0.00000000E+00  0.00000000E+00  0.00000000E+00
  0.00000000E+00  0.00000000E+00  0.00000000E+00
  0.00000000E+00  0.00000000E+00  0.00000000E+00
  0.00000000E+00  0.00000000E+00  0.00000000E+00
  0.00000000E+00  0.00000000E+00  0.00000000E+00
  0.00000000E+00  0.00000000E+00  0.00000000E+00
  0.00000000E+00  0.00000000E+00  0.00000000E+00
  0.00000000E+00  0.00000000E+00  0.00000000E+00
  0.00000000E+00  0.00000000E+00  0.00000000E+00
  0.00000000E+00  0.00000000E+00  0.00000000E+00
  0.00000000E+00  0.00000000E+00  0.00000000E+00
  0.00000000E+00  0.00000000E+00  0.00000000E+00
  0.00000000E+00  0.00000000E+00  0.00000000E+00
  0.00000000E+00  0.00000000E+00  0.00000000E+00
  0.00000000E+00  0.00000000E+00  0.00000000E+00
  0.00000000E+00  0.00000000E+00  0.00000000E+00
  0.00000000E+00  0.00000000E+00  0.00000000E+00
  0.00000000E+00  0.00000000E+00  0.00000000E+00
  0.00000000E+00  0.00000000E+00  0.00000000E+00
  0.00000000E+00  0.00000000E+00  0.00000000E+00
  0.00000000E+00  0.00000000E+00  0.00000000E+00
  0.00000000E+00  0.00000000E+00  0.00000000E+00
  0.00000000E+00  0.00000000E+00  0.00000000E+00
  0.00000000E+00  0.00000000E+00  0.00000000E+00
  0.00000000E+00  0.00000000E+00  0.00000000E+00
  0.00000000E+00  0.00000000E+00  0.00000000E+00
