generated by phonopy                    
   1.00000000000000     
     0.0000000000000000    3.5165977675397522    3.5165977675398539
     3.5165977675397926    0.0000000000000000    3.5165977675398539
     3.5165977675397926    3.5165977675397522    0.0000000000000000
   Ca   Sr   Y    Ce   H 
     1     1     1     1    24
Direct
  0.2500000000000000  0.2500000000000000  0.2500000000000000
  0.7500000000000000  0.7500000000000000  0.7500000000000000
  0.0000000000000000  0.0000000000000000  0.0000000000000000
  0.5000000000000000  0.5000000000000000  0.5000000000000000
  0.1301728300058187  0.8826674578249651  0.6210877540985180
  0.8826674578249651  0.1301728300058187  0.3660719580707053
  0.6210877540985180  0.3660719580707053  0.1301728300058187
  0.3660719580707053  0.6210877540985180  0.8826674578249651
  0.6210877540985180  0.1301728300058187  0.8826674578249651
  0.3660719580707053  0.8826674578249651  0.1301728300058187
  0.1301728300058187  0.6210877540985180  0.3660719580707053
  0.8826674578249651  0.3660719580707053  0.6210877540985180
  0.8826674578249651  0.6210877540985180  0.1301728300058187
  0.1301728300058187  0.3660719580707053  0.8826674578249651
  0.3660719580707053  0.1301728300058187  0.6210877540985180
  0.6210877540985180  0.8826674578249651  0.3660719580707053
  0.1301728300058187  0.3660719580707053  0.6210877540985180
  0.3660719580707053  0.1301728300058187  0.8826674578249651
  0.6210877540985180  0.8826674578249651  0.1301728300058187
  0.8826674578249651  0.6210877540985180  0.3660719580707053
  0.6210877540985180  0.1301728300058187  0.3660719580707053
  0.8826674578249651  0.3660719580707053  0.1301728300058187
  0.1301728300058187  0.6210877540985180  0.8826674578249651
  0.3660719580707053  0.8826674578249651  0.6210877540985180
  0.3660719580707053  0.6210877540985180  0.1301728300058187
  0.1301728300058187  0.8826674578249651  0.3660719580707053
  0.8826674578249651  0.1301728300058187  0.6210877540985180
  0.6210877540985180  0.3660719580707053  0.8826674578249651
 
  0.00000000E+00  0.00000000E+00  0.00000000E+00
  0.00000000E+00  0.00000000E+00  0.00000000E+00
  0.00000000E+00  0.00000000E+00  0.00000000E+00
  0.00000000E+00  0.00000000E+00  0.00000000E+00
  0.00000000E+00  0.00000000E+00  0.00000000E+00
  0.00000000E+00  0.00000000E+00  0.00000000E+00
  0.00000000E+00  0.00000000E+00  0.00000000E+00
  0.00000000E+00  0.00000000E+00  0.00000000E+00
  0.00000000E+00  0.00000000E+00  0.00000000E+00
  0.00000000E+00  0.00000000E+00  0.00000000E+00
  0.00000000E+00  0.00000000E+00  0.00000000E+00
  0.00000000E+00  0.00000000E+00  0.00000000E+00
  0.00000000E+00  0.00000000E+00  0.00000000E+00
  0.00000000E+00  0.00000000E+00  0.00000000E+00
  0.00000000E+00  0.00000000E+00  0.00000000E+00
  0.00000000E+00  0.00000000E+00  0.00000000E+00
  0.00000000E+00  0.00000000E+00  0.00000000E+00
  0.00000000E+00  0.00000000E+00  0.00000000E+00
  0.00000000E+00  0.00000000E+00  0.00000000E+00
  0.00000000E+00  0.00000000E+00  0.00000000E+00
  0.00000000E+00  0.00000000E+00  0.00000000E+00
  0.00000000E+00  0.00000000E+00  0.00000000E+00
  0.00000000E+00  0.00000000E+00  0.00000000E+00
  0.00000000E+00  0.00000000E+00  0.00000000E+00
  0.00000000E+00  0.00000000E+00  0.00000000E+00
  0.00000000E+00  0.00000000E+00  0.00000000E+00
  0.00000000E+00  0.00000000E+00  0.00000000E+00
  0.00000000E+00  0.00000000E+00  0.00000000E+00
