generated by phonopy                    
   1.00000000000000     
     0.0000000000000000    3.2350019956932972    3.2350019956934171
     3.2350019956933433    0.0000000000000000    3.2350019956934171
     3.2350019956933433    3.2350019956932972    0.0000000000000000
   K    Ca   Mg   Zr   H 
     1     1     1     1    24
Direct
  0.2500000000000000  0.2500000000000000  0.2500000000000000
  0.7500000000000000  0.7500000000000000  0.7500000000000000
  0.0000000000000000  0.0000000000000000  0.0000000000000000
  0.5000000000000000  0.5000000000000000  0.5000000000000000
  0.1097468200736813  0.8898383518111217  0.6351976972266939
  0.8898383518111217  0.1097468200736813  0.3652171308885030
  0.6351976972266939  0.3652171308885030  0.1097468200736813
  0.3652171308885030  0.6351976972266939  0.8898383518111217
  0.6351976972266939  0.1097468200736813  0.8898383518111217
  0.3652171308885030  0.8898383518111217  0.1097468200736813
  0.1097468200736813  0.6351976972266939  0.3652171308885030
  0.8898383518111217  0.3652171308885030  0.6351976972266939
  0.8898383518111217  0.6351976972266939  0.1097468200736813
  0.1097468200736813  0.3652171308885030  0.8898383518111217
  0.3652171308885030  0.1097468200736813  0.6351976972266939
  0.6351976972266939  0.8898383518111217  0.3652171308885030
  0.1097468200736813  0.3652171308885030  0.6351976972266939
  0.3652171308885030  0.1097468200736813  0.8898383518111217
  0.6351976972266939  0.8898383518111217  0.1097468200736813
  0.8898383518111217  0.6351976972266939  0.3652171308885030
  0.6351976972266939  0.1097468200736813  0.3652171308885030
  0.8898383518111217  0.3652171308885030  0.1097468200736813
  0.1097468200736813  0.6351976972266939  0.8898383518111217
  0.3652171308885030  0.8898383518111217  0.6351976972266939
  0.3652171308885030  0.6351976972266939  0.1097468200736813
  0.1097468200736813  0.8898383518111217  0.3652171308885030
  0.8898383518111217  0.1097468200736813  0.6351976972266939
  0.6351976972266939  0.3652171308885030  0.8898383518111217
 
  0.00000000E+00  0.00000000E+00  0.00000000E+00
  0.00000000E+00  0.00000000E+00  0.00000000E+00
  0.00000000E+00  0.00000000E+00  0.00000000E+00
  0.00000000E+00  0.00000000E+00  0.00000000E+00
  0.00000000E+00  0.00000000E+00  0.00000000E+00
  0.00000000E+00  0.00000000E+00  0.00000000E+00
  0.00000000E+00  0.00000000E+00  0.00000000E+00
  0.00000000E+00  0.00000000E+00  0.00000000E+00
  0.00000000E+00  0.00000000E+00  0.00000000E+00
  0.00000000E+00  0.00000000E+00  0.00000000E+00
  0.00000000E+00  0.00000000E+00  0.00000000E+00
  0.00000000E+00  0.00000000E+00  0.00000000E+00
  0.00000000E+00  0.00000000E+00  0.00000000E+00
  0.00000000E+00  0.00000000E+00  0.00000000E+00
  0.00000000E+00  0.00000000E+00  0.00000000E+00
  0.00000000E+00  0.00000000E+00  0.00000000E+00
  0.00000000E+00  0.00000000E+00  0.00000000E+00
  0.00000000E+00  0.00000000E+00  0.00000000E+00
  0.00000000E+00  0.00000000E+00  0.00000000E+00
  0.00000000E+00  0.00000000E+00  0.00000000E+00
  0.00000000E+00  0.00000000E+00  0.00000000E+00
  0.00000000E+00  0.00000000E+00  0.00000000E+00
  0.00000000E+00  0.00000000E+00  0.00000000E+00
  0.00000000E+00  0.00000000E+00  0.00000000E+00
  0.00000000E+00  0.00000000E+00  0.00000000E+00
  0.00000000E+00  0.00000000E+00  0.00000000E+00
  0.00000000E+00  0.00000000E+00  0.00000000E+00
  0.00000000E+00  0.00000000E+00  0.00000000E+00
