generated by phonopy                    
   1.00000000000000     
     0.0000000000000000    3.2366596254368347    3.2366596254369369
     3.2366596254368787    0.0000000000000000    3.2366596254369369
     3.2366596254368787    3.2366596254368347    0.0000000000000000
   K    Ca   Mg   Hf   H 
     1     1     1     1    24
Direct
  0.2500000000000000  0.2500000000000000  0.2500000000000000
  0.7500000000000000  0.7500000000000000  0.7500000000000000
  0.0000000000000000  0.0000000000000000  0.0000000000000000
  0.5000000000000000  0.5000000000000000  0.5000000000000000
  0.1089958676985887  0.8906363710890588  0.6341283861757319
  0.8906363710890588  0.1089958676985887  0.3662393750366064
  0.6341283861757319  0.3662393750366064  0.1089958676985887
  0.3662393750366064  0.6341283861757319  0.8906363710890588
  0.6341283861757319  0.1089958676985887  0.8906363710890588
  0.3662393750366064  0.8906363710890588  0.1089958676985887
  0.1089958676985887  0.6341283861757319  0.3662393750366064
  0.8906363710890588  0.3662393750366064  0.6341283861757319
  0.8906363710890588  0.6341283861757319  0.1089958676985887
  0.1089958676985887  0.3662393750366064  0.8906363710890588
  0.3662393750366064  0.1089958676985887  0.6341283861757319
  0.6341283861757319  0.8906363710890588  0.3662393750366064
  0.1089958676985887  0.3662393750366064  0.6341283861757319
  0.3662393750366064  0.1089958676985887  0.8906363710890588
  0.6341283861757319  0.8906363710890588  0.1089958676985887
  0.8906363710890588  0.6341283861757319  0.3662393750366064
  0.6341283861757319  0.1089958676985887  0.3662393750366064
  0.8906363710890588  0.3662393750366064  0.1089958676985887
  0.1089958676985887  0.6341283861757319  0.8906363710890588
  0.3662393750366064  0.8906363710890588  0.6341283861757319
  0.3662393750366064  0.6341283861757319  0.1089958676985887
  0.1089958676985887  0.8906363710890588  0.3662393750366064
  0.8906363710890588  0.1089958676985887  0.6341283861757319
  0.6341283861757319  0.3662393750366064  0.8906363710890588
 
  0.00000000E+00  0.00000000E+00  0.00000000E+00
  0.00000000E+00  0.00000000E+00  0.00000000E+00
  0.00000000E+00  0.00000000E+00  0.00000000E+00
  0.00000000E+00  0.00000000E+00  0.00000000E+00
  0.00000000E+00  0.00000000E+00  0.00000000E+00
  0.00000000E+00  0.00000000E+00  0.00000000E+00
  0.00000000E+00  0.00000000E+00  0.00000000E+00
  0.00000000E+00  0.00000000E+00  0.00000000E+00
  0.00000000E+00  0.00000000E+00  0.00000000E+00
  0.00000000E+00  0.00000000E+00  0.00000000E+00
  0.00000000E+00  0.00000000E+00  0.00000000E+00
  0.00000000E+00  0.00000000E+00  0.00000000E+00
  0.00000000E+00  0.00000000E+00  0.00000000E+00
  0.00000000E+00  0.00000000E+00  0.00000000E+00
  0.00000000E+00  0.00000000E+00  0.00000000E+00
  0.00000000E+00  0.00000000E+00  0.00000000E+00
  0.00000000E+00  0.00000000E+00  0.00000000E+00
  0.00000000E+00  0.00000000E+00  0.00000000E+00
  0.00000000E+00  0.00000000E+00  0.00000000E+00
  0.00000000E+00  0.00000000E+00  0.00000000E+00
  0.00000000E+00  0.00000000E+00  0.00000000E+00
  0.00000000E+00  0.00000000E+00  0.00000000E+00
  0.00000000E+00  0.00000000E+00  0.00000000E+00
  0.00000000E+00  0.00000000E+00  0.00000000E+00
  0.00000000E+00  0.00000000E+00  0.00000000E+00
  0.00000000E+00  0.00000000E+00  0.00000000E+00
  0.00000000E+00  0.00000000E+00  0.00000000E+00
  0.00000000E+00  0.00000000E+00  0.00000000E+00
