generated by phonopy                    
   1.00000000000000     
     0.0000000000000000    3.3085440653247384    3.3085440653248006
     3.3085440653247669    0.0000000000000000    3.3085440653248006
     3.3085440653247669    3.3085440653247384    0.0000000000000000
   Sc   Zr   Y    Hf   H 
     1     1     1     1    24
Direct
  0.2500000000000000  0.2500000000000000  0.2500000000000000
  0.7500000000000000  0.7500000000000000  0.7500000000000000
  0.0000000000000000  0.0000000000000000  0.0000000000000000
  0.5000000000000000  0.5000000000000000  0.5000000000000000
  0.1275854291044354  0.8823983479695983  0.6183465270872901
  0.8823983479695983  0.1275854291044354  0.3716696958386763
  0.6183465270872901  0.3716696958386763  0.1275854291044354
  0.3716696958386763  0.6183465270872901  0.8823983479695983
  0.6183465270872901  0.1275854291044354  0.8823983479695983
  0.3716696958386763  0.8823983479695983  0.1275854291044354
  0.1275854291044354  0.6183465270872901  0.3716696958386763
  0.8823983479695983  0.3716696958386763  0.6183465270872901
  0.8823983479695983  0.6183465270872901  0.1275854291044354
  0.1275854291044354  0.3716696958386763  0.8823983479695983
  0.3716696958386763  0.1275854291044354  0.6183465270872901
  0.6183465270872901  0.8823983479695983  0.3716696958386763
  0.1275854291044354  0.3716696958386763  0.6183465270872901
  0.3716696958386763  0.1275854291044354  0.8823983479695983
  0.6183465270872901  0.8823983479695983  0.1275854291044354
  0.8823983479695983  0.6183465270872901  0.3716696958386763
  0.6183465270872901  0.1275854291044354  0.3716696958386763
  0.8823983479695983  0.3716696958386763  0.1275854291044354
  0.1275854291044354  0.6183465270872901  0.8823983479695983
  0.3716696958386763  0.8823983479695983  0.6183465270872901
  0.3716696958386763  0.6183465270872901  0.1275854291044354
  0.1275854291044354  0.8823983479695983  0.3716696958386763
  0.8823983479695983  0.1275854291044354  0.6183465270872901
  0.6183465270872901  0.3716696958386763  0.8823983479695983
 
  0.00000000E+00  0.00000000E+00  0.00000000E+00
  0.00000000E+00  0.00000000E+00  0.00000000E+00
  0.00000000E+00  0.00000000E+00  0.00000000E+00
  0.00000000E+00  0.00000000E+00  0.00000000E+00
  0.00000000E+00  0.00000000E+00  0.00000000E+00
  0.00000000E+00  0.00000000E+00  0.00000000E+00
  0.00000000E+00  0.00000000E+00  0.00000000E+00
  0.00000000E+00  0.00000000E+00  0.00000000E+00
  0.00000000E+00  0.00000000E+00  0.00000000E+00
  0.00000000E+00  0.00000000E+00  0.00000000E+00
  0.00000000E+00  0.00000000E+00  0.00000000E+00
  0.00000000E+00  0.00000000E+00  0.00000000E+00
  0.00000000E+00  0.00000000E+00  0.00000000E+00
  0.00000000E+00  0.00000000E+00  0.00000000E+00
  0.00000000E+00  0.00000000E+00  0.00000000E+00
  0.00000000E+00  0.00000000E+00  0.00000000E+00
  0.00000000E+00  0.00000000E+00  0.00000000E+00
  0.00000000E+00  0.00000000E+00  0.00000000E+00
  0.00000000E+00  0.00000000E+00  0.00000000E+00
  0.00000000E+00  0.00000000E+00  0.00000000E+00
  0.00000000E+00  0.00000000E+00  0.00000000E+00
  0.00000000E+00  0.00000000E+00  0.00000000E+00
  0.00000000E+00  0.00000000E+00  0.00000000E+00
  0.00000000E+00  0.00000000E+00  0.00000000E+00
  0.00000000E+00  0.00000000E+00  0.00000000E+00
  0.00000000E+00  0.00000000E+00  0.00000000E+00
  0.00000000E+00  0.00000000E+00  0.00000000E+00
  0.00000000E+00  0.00000000E+00  0.00000000E+00
