generated by phonopy                    
   1.00000000000000     
     0.0000000000000000    3.3609837576156458    3.3609837576157866
     3.3609837576157067    0.0000000000000000    3.3609837576157866
     3.3609837576157067    3.3609837576156458    0.0000000000000000
   Ca   Y    La   Zr   H 
     1     1     1     1    24
Direct
  0.2500000000000000  0.2500000000000000  0.2500000000000000
  0.7500000000000000  0.7500000000000000  0.7500000000000000
  0.0000000000000000  0.0000000000000000  0.0000000000000000
  0.5000000000000000  0.5000000000000000  0.5000000000000000
  0.1348746730881274  0.8753084031489493  0.6139157963975919
  0.8753084031489493  0.1348746730881274  0.3759011273653385
  0.6139157963975919  0.3759011273653385  0.1348746730881274
  0.3759011273653385  0.6139157963975919  0.8753084031489493
  0.6139157963975919  0.1348746730881274  0.8753084031489493
  0.3759011273653385  0.8753084031489493  0.1348746730881274
  0.1348746730881274  0.6139157963975919  0.3759011273653385
  0.8753084031489493  0.3759011273653385  0.6139157963975919
  0.8753084031489493  0.6139157963975919  0.1348746730881274
  0.1348746730881274  0.3759011273653385  0.8753084031489493
  0.3759011273653385  0.1348746730881274  0.6139157963975919
  0.6139157963975919  0.8753084031489493  0.3759011273653385
  0.1348746730881274  0.3759011273653385  0.6139157963975919
  0.3759011273653385  0.1348746730881274  0.8753084031489493
  0.6139157963975919  0.8753084031489493  0.1348746730881274
  0.8753084031489493  0.6139157963975919  0.3759011273653385
  0.6139157963975919  0.1348746730881274  0.3759011273653385
  0.8753084031489493  0.3759011273653385  0.1348746730881274
  0.1348746730881274  0.6139157963975919  0.8753084031489493
  0.3759011273653385  0.8753084031489493  0.6139157963975919
  0.3759011273653385  0.6139157963975919  0.1348746730881274
  0.1348746730881274  0.8753084031489493  0.3759011273653385
  0.8753084031489493  0.1348746730881274  0.6139157963975919
  0.6139157963975919  0.3759011273653385  0.8753084031489493
 
  0.00000000E+00  0.00000000E+00  0.00000000E+00
  0.00000000E+00  0.00000000E+00  0.00000000E+00
  0.00000000E+00  0.00000000E+00  0.00000000E+00
  0.00000000E+00  0.00000000E+00  0.00000000E+00
  0.00000000E+00  0.00000000E+00  0.00000000E+00
  0.00000000E+00  0.00000000E+00  0.00000000E+00
  0.00000000E+00  0.00000000E+00  0.00000000E+00
  0.00000000E+00  0.00000000E+00  0.00000000E+00
  0.00000000E+00  0.00000000E+00  0.00000000E+00
  0.00000000E+00  0.00000000E+00  0.00000000E+00
  0.00000000E+00  0.00000000E+00  0.00000000E+00
  0.00000000E+00  0.00000000E+00  0.00000000E+00
  0.00000000E+00  0.00000000E+00  0.00000000E+00
  0.00000000E+00  0.00000000E+00  0.00000000E+00
  0.00000000E+00  0.00000000E+00  0.00000000E+00
  0.00000000E+00  0.00000000E+00  0.00000000E+00
  0.00000000E+00  0.00000000E+00  0.00000000E+00
  0.00000000E+00  0.00000000E+00  0.00000000E+00
  0.00000000E+00  0.00000000E+00  0.00000000E+00
  0.00000000E+00  0.00000000E+00  0.00000000E+00
  0.00000000E+00  0.00000000E+00  0.00000000E+00
  0.00000000E+00  0.00000000E+00  0.00000000E+00
  0.00000000E+00  0.00000000E+00  0.00000000E+00
  0.00000000E+00  0.00000000E+00  0.00000000E+00
  0.00000000E+00  0.00000000E+00  0.00000000E+00
  0.00000000E+00  0.00000000E+00  0.00000000E+00
  0.00000000E+00  0.00000000E+00  0.00000000E+00
  0.00000000E+00  0.00000000E+00  0.00000000E+00
