generated by phonopy                    
   1.00000000000000     
     0.0000000000000000    3.3112613551562911    3.3112613551563803
     3.3112613551563292    0.0000000000000000    3.3112613551563803
     3.3112613551563292    3.3112613551562911    0.0000000000000000
   Na   Zr   Ca   Hf   H 
     1     1     1     1    24
Direct
  0.2500000000000000  0.2500000000000000  0.2500000000000000
  0.7500000000000000  0.7500000000000000  0.7500000000000000
  0.0000000000000000  0.0000000000000000  0.0000000000000000
  0.5000000000000000  0.5000000000000000  0.5000000000000000
  0.1292401902191003  0.8922786949701731  0.6174471759639104
  0.8922786949701731  0.1292401902191003  0.3610339388468233
  0.6174471759639104  0.3610339388468233  0.1292401902191003
  0.3610339388468233  0.6174471759639104  0.8922786949701731
  0.6174471759639104  0.1292401902191003  0.8922786949701731
  0.3610339388468233  0.8922786949701731  0.1292401902191003
  0.1292401902191003  0.6174471759639104  0.3610339388468233
  0.8922786949701731  0.3610339388468233  0.6174471759639104
  0.8922786949701731  0.6174471759639104  0.1292401902191003
  0.1292401902191003  0.3610339388468233  0.8922786949701731
  0.3610339388468233  0.1292401902191003  0.6174471759639104
  0.6174471759639104  0.8922786949701731  0.3610339388468233
  0.1292401902191003  0.3610339388468233  0.6174471759639104
  0.3610339388468233  0.1292401902191003  0.8922786949701731
  0.6174471759639104  0.8922786949701731  0.1292401902191003
  0.8922786949701731  0.6174471759639104  0.3610339388468233
  0.6174471759639104  0.1292401902191003  0.3610339388468233
  0.8922786949701731  0.3610339388468233  0.1292401902191003
  0.1292401902191003  0.6174471759639104  0.8922786949701731
  0.3610339388468233  0.8922786949701731  0.6174471759639104
  0.3610339388468233  0.6174471759639104  0.1292401902191003
  0.1292401902191003  0.8922786949701731  0.3610339388468233
  0.8922786949701731  0.1292401902191003  0.6174471759639104
  0.6174471759639104  0.3610339388468233  0.8922786949701731
 
  0.00000000E+00  0.00000000E+00  0.00000000E+00
  0.00000000E+00  0.00000000E+00  0.00000000E+00
  0.00000000E+00  0.00000000E+00  0.00000000E+00
  0.00000000E+00  0.00000000E+00  0.00000000E+00
  0.00000000E+00  0.00000000E+00  0.00000000E+00
  0.00000000E+00  0.00000000E+00  0.00000000E+00
  0.00000000E+00  0.00000000E+00  0.00000000E+00
  0.00000000E+00  0.00000000E+00  0.00000000E+00
  0.00000000E+00  0.00000000E+00  0.00000000E+00
  0.00000000E+00  0.00000000E+00  0.00000000E+00
  0.00000000E+00  0.00000000E+00  0.00000000E+00
  0.00000000E+00  0.00000000E+00  0.00000000E+00
  0.00000000E+00  0.00000000E+00  0.00000000E+00
  0.00000000E+00  0.00000000E+00  0.00000000E+00
  0.00000000E+00  0.00000000E+00  0.00000000E+00
  0.00000000E+00  0.00000000E+00  0.00000000E+00
  0.00000000E+00  0.00000000E+00  0.00000000E+00
  0.00000000E+00  0.00000000E+00  0.00000000E+00
  0.00000000E+00  0.00000000E+00  0.00000000E+00
  0.00000000E+00  0.00000000E+00  0.00000000E+00
  0.00000000E+00  0.00000000E+00  0.00000000E+00
  0.00000000E+00  0.00000000E+00  0.00000000E+00
  0.00000000E+00  0.00000000E+00  0.00000000E+00
  0.00000000E+00  0.00000000E+00  0.00000000E+00
  0.00000000E+00  0.00000000E+00  0.00000000E+00
  0.00000000E+00  0.00000000E+00  0.00000000E+00
  0.00000000E+00  0.00000000E+00  0.00000000E+00
  0.00000000E+00  0.00000000E+00  0.00000000E+00
