generated by phonopy                    
   1.00000000000000     
     0.0000000000000000    3.4138183761289684    3.4138183761290337
     3.4138183761289955    0.0000000000000000    3.4138183761290337
     3.4138183761289955    3.4138183761289684    0.0000000000000000
   Ca   Y    Hf   Ce   H 
     1     1     1     1    24
Direct
  0.2500000000000000  0.2500000000000000  0.2500000000000000
  0.7500000000000000  0.7500000000000000  0.7500000000000000
  0.0000000000000000  0.0000000000000000  0.0000000000000000
  0.5000000000000000  0.5000000000000000  0.5000000000000000
  0.1260416489208964  0.8829295015154841  0.6216290697545972
  0.8829295015154841  0.1260416489208964  0.3693997798090152
  0.6216290697545972  0.3693997798090152  0.1260416489208964
  0.3693997798090152  0.6216290697545972  0.8829295015154841
  0.6216290697545972  0.1260416489208964  0.8829295015154841
  0.3693997798090152  0.8829295015154841  0.1260416489208964
  0.1260416489208964  0.6216290697545972  0.3693997798090152
  0.8829295015154841  0.3693997798090152  0.6216290697545972
  0.8829295015154841  0.6216290697545972  0.1260416489208964
  0.1260416489208964  0.3693997798090152  0.8829295015154841
  0.3693997798090152  0.1260416489208964  0.6216290697545972
  0.6216290697545972  0.8829295015154841  0.3693997798090152
  0.1260416489208964  0.3693997798090152  0.6216290697545972
  0.3693997798090152  0.1260416489208964  0.8829295015154841
  0.6216290697545972  0.8829295015154841  0.1260416489208964
  0.8829295015154841  0.6216290697545972  0.3693997798090152
  0.6216290697545972  0.1260416489208964  0.3693997798090152
  0.8829295015154841  0.3693997798090152  0.1260416489208964
  0.1260416489208964  0.6216290697545972  0.8829295015154841
  0.3693997798090152  0.8829295015154841  0.6216290697545972
  0.3693997798090152  0.6216290697545972  0.1260416489208964
  0.1260416489208964  0.8829295015154841  0.3693997798090152
  0.8829295015154841  0.1260416489208964  0.6216290697545972
  0.6216290697545972  0.3693997798090152  0.8829295015154841
 
  0.00000000E+00  0.00000000E+00  0.00000000E+00
  0.00000000E+00  0.00000000E+00  0.00000000E+00
  0.00000000E+00  0.00000000E+00  0.00000000E+00
  0.00000000E+00  0.00000000E+00  0.00000000E+00
  0.00000000E+00  0.00000000E+00  0.00000000E+00
  0.00000000E+00  0.00000000E+00  0.00000000E+00
  0.00000000E+00  0.00000000E+00  0.00000000E+00
  0.00000000E+00  0.00000000E+00  0.00000000E+00
  0.00000000E+00  0.00000000E+00  0.00000000E+00
  0.00000000E+00  0.00000000E+00  0.00000000E+00
  0.00000000E+00  0.00000000E+00  0.00000000E+00
  0.00000000E+00  0.00000000E+00  0.00000000E+00
  0.00000000E+00  0.00000000E+00  0.00000000E+00
  0.00000000E+00  0.00000000E+00  0.00000000E+00
  0.00000000E+00  0.00000000E+00  0.00000000E+00
  0.00000000E+00  0.00000000E+00  0.00000000E+00
  0.00000000E+00  0.00000000E+00  0.00000000E+00
  0.00000000E+00  0.00000000E+00  0.00000000E+00
  0.00000000E+00  0.00000000E+00  0.00000000E+00
  0.00000000E+00  0.00000000E+00  0.00000000E+00
  0.00000000E+00  0.00000000E+00  0.00000000E+00
  0.00000000E+00  0.00000000E+00  0.00000000E+00
  0.00000000E+00  0.00000000E+00  0.00000000E+00
  0.00000000E+00  0.00000000E+00  0.00000000E+00
  0.00000000E+00  0.00000000E+00  0.00000000E+00
  0.00000000E+00  0.00000000E+00  0.00000000E+00
  0.00000000E+00  0.00000000E+00  0.00000000E+00
  0.00000000E+00  0.00000000E+00  0.00000000E+00
