generated by phonopy                    
   1.00000000000000     
     0.0000000000000000    3.2027173049096613    3.2027173049097528
     3.2027173049096973    0.0000000000000000    3.2027173049097528
     3.2027173049096973    3.2027173049096613    0.0000000000000000
   Na   Zr   Ca   Ti   H 
     1     1     1     1    24
Direct
  0.2500000000000000  0.2500000000000000  0.2500000000000000
  0.7500000000000000  0.7500000000000000  0.7500000000000000
  0.0000000000000000  0.0000000000000000  0.0000000000000000
  0.5000000000000000  0.5000000000000000  0.5000000000000000
  0.1359614108776341  0.8864325955206454  0.6131719963371296
  0.8864325955206454  0.1359614108776341  0.3644339972645909
  0.6131719963371296  0.3644339972645909  0.1359614108776341
  0.3644339972645909  0.6131719963371296  0.8864325955206454
  0.6131719963371296  0.1359614108776341  0.8864325955206454
  0.3644339972645909  0.8864325955206454  0.1359614108776341
  0.1359614108776341  0.6131719963371296  0.3644339972645909
  0.8864325955206454  0.3644339972645909  0.6131719963371296
  0.8864325955206454  0.6131719963371296  0.1359614108776341
  0.1359614108776341  0.3644339972645909  0.8864325955206454
  0.3644339972645909  0.1359614108776341  0.6131719963371296
  0.6131719963371296  0.8864325955206454  0.3644339972645909
  0.1359614108776341  0.3644339972645909  0.6131719963371296
  0.3644339972645909  0.1359614108776341  0.8864325955206454
  0.6131719963371296  0.8864325955206454  0.1359614108776341
  0.8864325955206454  0.6131719963371296  0.3644339972645909
  0.6131719963371296  0.1359614108776341  0.3644339972645909
  0.8864325955206454  0.3644339972645909  0.1359614108776341
  0.1359614108776341  0.6131719963371296  0.8864325955206454
  0.3644339972645909  0.8864325955206454  0.6131719963371296
  0.3644339972645909  0.6131719963371296  0.1359614108776341
  0.1359614108776341  0.8864325955206454  0.3644339972645909
  0.8864325955206454  0.1359614108776341  0.6131719963371296
  0.6131719963371296  0.3644339972645909  0.8864325955206454
 
  0.00000000E+00  0.00000000E+00  0.00000000E+00
  0.00000000E+00  0.00000000E+00  0.00000000E+00
  0.00000000E+00  0.00000000E+00  0.00000000E+00
  0.00000000E+00  0.00000000E+00  0.00000000E+00
  0.00000000E+00  0.00000000E+00  0.00000000E+00
  0.00000000E+00  0.00000000E+00  0.00000000E+00
  0.00000000E+00  0.00000000E+00  0.00000000E+00
  0.00000000E+00  0.00000000E+00  0.00000000E+00
  0.00000000E+00  0.00000000E+00  0.00000000E+00
  0.00000000E+00  0.00000000E+00  0.00000000E+00
  0.00000000E+00  0.00000000E+00  0.00000000E+00
  0.00000000E+00  0.00000000E+00  0.00000000E+00
  0.00000000E+00  0.00000000E+00  0.00000000E+00
  0.00000000E+00  0.00000000E+00  0.00000000E+00
  0.00000000E+00  0.00000000E+00  0.00000000E+00
  0.00000000E+00  0.00000000E+00  0.00000000E+00
  0.00000000E+00  0.00000000E+00  0.00000000E+00
  0.00000000E+00  0.00000000E+00  0.00000000E+00
  0.00000000E+00  0.00000000E+00  0.00000000E+00
  0.00000000E+00  0.00000000E+00  0.00000000E+00
  0.00000000E+00  0.00000000E+00  0.00000000E+00
  0.00000000E+00  0.00000000E+00  0.00000000E+00
  0.00000000E+00  0.00000000E+00  0.00000000E+00
  0.00000000E+00  0.00000000E+00  0.00000000E+00
  0.00000000E+00  0.00000000E+00  0.00000000E+00
  0.00000000E+00  0.00000000E+00  0.00000000E+00
  0.00000000E+00  0.00000000E+00  0.00000000E+00
  0.00000000E+00  0.00000000E+00  0.00000000E+00
