generated by phonopy                    
   1.00000000000000     
     0.0000000000000000    3.3518223024260472    3.3518223024263425
     3.3518223024261662    0.0000000000000000    3.3518223024263425
     3.3518223024261662    3.3518223024260472    0.0000000000000000
   Na   K    Mg   Y    H 
     1     1     1     1    24
Direct
  0.2500000000000000  0.2500000000000000  0.2500000000000000
  0.7500000000000000  0.7500000000000000  0.7500000000000000
  0.0000000000000000  0.0000000000000000  0.0000000000000000
  0.5000000000000000  0.5000000000000000  0.5000000000000000
  0.1180460709962077  0.8996306115631754  0.6272610459009087
  0.8996306115631754  0.1180460709962077  0.3550622715397012
  0.6272610459009087  0.3550622715397012  0.1180460709962077
  0.3550622715397012  0.6272610459009087  0.8996306115631754
  0.6272610459009087  0.1180460709962077  0.8996306115631754
  0.3550622715397012  0.8996306115631754  0.1180460709962077
  0.1180460709962077  0.6272610459009087  0.3550622715397012
  0.8996306115631754  0.3550622715397012  0.6272610459009087
  0.8996306115631754  0.6272610459009087  0.1180460709962077
  0.1180460709962077  0.3550622715397012  0.8996306115631754
  0.3550622715397012  0.1180460709962077  0.6272610459009087
  0.6272610459009087  0.8996306115631754  0.3550622715397012
  0.1180460709962077  0.3550622715397012  0.6272610459009087
  0.3550622715397012  0.1180460709962077  0.8996306115631754
  0.6272610459009087  0.8996306115631754  0.1180460709962077
  0.8996306115631754  0.6272610459009087  0.3550622715397012
  0.6272610459009087  0.1180460709962077  0.3550622715397012
  0.8996306115631754  0.3550622715397012  0.1180460709962077
  0.1180460709962077  0.6272610459009087  0.8996306115631754
  0.3550622715397012  0.8996306115631754  0.6272610459009087
  0.3550622715397012  0.6272610459009087  0.1180460709962077
  0.1180460709962077  0.8996306115631754  0.3550622715397012
  0.8996306115631754  0.1180460709962077  0.6272610459009087
  0.6272610459009087  0.3550622715397012  0.8996306115631754
 
  0.00000000E+00  0.00000000E+00  0.00000000E+00
  0.00000000E+00  0.00000000E+00  0.00000000E+00
  0.00000000E+00  0.00000000E+00  0.00000000E+00
  0.00000000E+00  0.00000000E+00  0.00000000E+00
  0.00000000E+00  0.00000000E+00  0.00000000E+00
  0.00000000E+00  0.00000000E+00  0.00000000E+00
  0.00000000E+00  0.00000000E+00  0.00000000E+00
  0.00000000E+00  0.00000000E+00  0.00000000E+00
  0.00000000E+00  0.00000000E+00  0.00000000E+00
  0.00000000E+00  0.00000000E+00  0.00000000E+00
  0.00000000E+00  0.00000000E+00  0.00000000E+00
  0.00000000E+00  0.00000000E+00  0.00000000E+00
  0.00000000E+00  0.00000000E+00  0.00000000E+00
  0.00000000E+00  0.00000000E+00  0.00000000E+00
  0.00000000E+00  0.00000000E+00  0.00000000E+00
  0.00000000E+00  0.00000000E+00  0.00000000E+00
  0.00000000E+00  0.00000000E+00  0.00000000E+00
  0.00000000E+00  0.00000000E+00  0.00000000E+00
  0.00000000E+00  0.00000000E+00  0.00000000E+00
  0.00000000E+00  0.00000000E+00  0.00000000E+00
  0.00000000E+00  0.00000000E+00  0.00000000E+00
  0.00000000E+00  0.00000000E+00  0.00000000E+00
  0.00000000E+00  0.00000000E+00  0.00000000E+00
  0.00000000E+00  0.00000000E+00  0.00000000E+00
  0.00000000E+00  0.00000000E+00  0.00000000E+00
  0.00000000E+00  0.00000000E+00  0.00000000E+00
  0.00000000E+00  0.00000000E+00  0.00000000E+00
  0.00000000E+00  0.00000000E+00  0.00000000E+00
