POSCAR                                  
   1.00000000000000     
    10.3061804601826470    0.0436615234484225    0.0549998996429543
     0.0438077038918107   10.3205010384123401   -0.0890365340981043
     0.0366274834273862   -0.0592358078275017    6.8786226935727273
   Y    K    Sc   Zr   H 
     9     9     9     9   216
Direct
  0.1720886350331108  0.1691297122021317  0.2539933916628279
  0.1679937721920769  0.8259691415338634  0.2537600110904396
  0.3290003024015584  0.6676942822348901  0.4933677861782167
  0.8306897280160987  0.1690287452273362  0.7524227002303533
  0.8348364805053382  0.4973968958052242  0.2449860477944735
  0.4924018098523580  0.8366357032586169  0.7471491195630415
  0.3353972064671258  0.9982851337394392  0.9989835572219374
  0.6702478247645666  0.9985123028850327  0.4975154715078339
  0.6705002999844063  0.9959285125654916  0.0022788325206388
  0.1554356070263621  0.1828774920753418  0.7614549737229810
  0.1556946214836369  0.8435716025544431  0.7640781782342246
  0.4878213849739438  0.5120260246109639  0.7671876165594340
  0.3440460267985472  0.6606355863405774  0.9886195505489380
  0.6706283041180324  0.3335722435828504  0.0025359389417083
  0.6766663496111941  0.6668619961204600  0.0121452357516503
  0.0122884334116860  0.3215003640438035  0.9809991873375293
  0.8231249793420200  0.8266007810555523  0.2405212047720453
  0.0142774537325127  0.9828686105060046  0.9832906921657506
  0.1623213307367293  0.5001199884668373  0.2518645019383934
  0.3305680304295787  0.3387329823155765  0.5059295923699484
  0.1701788230725000  0.5055448628627329  0.7411961267920640
  0.5070684006223263  0.4884692596315075  0.2623609563982760
  0.4977997279803221  0.8421464102380245  0.2588086723288497
  0.3287357727121750  0.0060567651380221  0.5060004989388115
  0.0020734633629745  0.3388016948081753  0.4913162046876827
  0.8376365067136132  0.8296389592485103  0.7457527379447221
  0.0023978578287493  0.6598351570013679  0.9966711079604305
  0.4934823005347377  0.1692930376820521  0.2561904016915667
  0.4993642043948312  0.1699887464862779  0.7491738688874364
  0.3363175725624808  0.3410350208340437  0.0041696651448347
  0.8414229934690847  0.1646404871559309  0.2378079523985994
  0.6609932569399544  0.3342243181358882  0.5053414905198279
  0.6601864585859375  0.6669702917720867  0.5044582043423672
  0.8296414255402583  0.4962192815461902  0.7515173385973171
  0.0007380447618299  0.6608264732981091  0.4981894533907124
  0.9941580335551741  0.0059391632992266  0.4889457376133079
  0.1661032455783267  0.0882882596192480  0.9922808068318948
  0.1722174008025387  0.0932592900328379  0.5111270753583776
  0.1648505960373108  0.4198548764871668  0.0225881167305222
  0.5007251016960753  0.0852484377157394  0.9958572364285604
  0.3337297736643943  0.2567161555508245  0.2568308395574934
  0.1648025884082153  0.4210226674933996  0.4917732742991634
  0.4947404909780026  0.0869076055383051  0.5042418395854161
  0.3262125747215721  0.2548319906932401  0.7438058227017273
  0.1622577415455915  0.7388786682029029  0.9962077292615399
  0.4991161564393506  0.4125054744838948  0.0081788293010429
  0.3549654842465498  0.5833057757103399  0.2414625200475466
  0.1598774825493093  0.7525210185541287  0.5136795060805796
  0.8461139276272515  0.0743137598847015  0.9961193256628667
  0.6692614703096880  0.2477849684991883  0.2513940976581029
  0.4955652182427294  0.4198421236294892  0.5119557692197751
  0.3187710481495887  0.5873407656347978  0.7379278899237846
  0.8330147047349740  0.0879683057988070  0.4935220699329289
  0.6641180740347572  0.2572164476819108  0.7508227109398768
  0.5049288629949038  0.7449449028500889  0.0387713394970757
  0.3348652544058579  0.9178949736408230  0.2632415702655790
  0.8446673319625352  0.4044696006224158  0.0040339031725924
  0.6513850518246602  0.5795836962838430  0.2485234297831934
  0.4970637249333380  0.7504349940600826  0.4765151067432802
  0.3241575417545429  0.9233460188572709  0.7305802364989351
  0.0012063658439533  0.2510585799664651  0.2519717789685120
  0.8353294417993559  0.4142701347937124  0.4950198798941077
  0.6635690228156201  0.5874889795997902  0.7501244378185129
  0.9900372376677917  0.2559663660928216  0.7149184847763776
  0.8450178952197384  0.7489377599265981  0.9799682525718153
  0.6573725703718869  0.9133784889772522  0.2536399984830082
  0.0063048983853289  0.5775872473431986  0.2333076101850907
  0.8376442469801192  0.7474677661090660  0.5010453809342608
  0.6717379611850185  0.9109309035740004  0.7450656545618701
  0.9937238713775457  0.5768262644371496  0.7597781120735325
  0.9931058656121189  0.9110232255091637  0.2448179750929274
  0.9846001500903017  0.9140802038881827  0.7196070681646412
  0.0905310944501011  0.1484613283426108  0.0179530300639328
  0.0830165588184539  0.1672281838122585  0.5036378418371297
  0.0831507188935802  0.4942843289365269  0.9770574483282332
  0.4188940207251868  0.1696015949789660  0.0038527774448230
  0.2503724843791183  0.3447699093788267  0.2632477924626515
  0.0814168557500144  0.4929184398198197  0.5136953597432966
  0.4117969802309140  0.1752163023825999  0.5040155479911733
  0.2479031876844107  0.3411028908719890  0.7352210964229658
  0.0848251172131383  0.8103202064415932  0.0118107046197354
  0.4241231158867194  0.4971827068328039  0.0386655643081381
  0.2524411833233431  0.6549251852686069  0.2350536009759571
  0.0847972867806409  0.8456474743101970  0.5098068684803115
  0.7482001601399146  0.1629198483695807  0.0084969386753165
  0.5861549457750985  0.3282834758486233  0.2536067089170312
  0.4154214413169712  0.4959154980050552  0.4951241582699155
  0.2405185829072599  0.6694241861451145  0.7475221256680076
  0.7521048456473066  0.1717444094448757  0.4901390317515885
  0.5757850391175571  0.3400426447315480  0.7566655434588228
  0.4216542939634787  0.8317250827580885  0.0174165445620533
  0.2511059741981223  0.9986729662959017  0.2645405748569030
  0.7559955253164122  0.4999072727327561  0.9931822371976224
  0.5829046904402618  0.6421090538312639  0.2542163072112635
  0.4119731856532456  0.8377011106719000  0.4938969376233652
  0.2417486775248741  0.0113140689612883  0.7431880698498804
  0.9265623659429467  0.3320114175369027  0.2448216059311806
  0.7490521449835515  0.4978124991990104  0.5063845239512674
  0.5800780877992758  0.6714198240989475  0.7783697214578529
  0.9203998877797994  0.3377523702122988  0.7370142614253991
  0.7533238763673652  0.8299235615404749  0.9721683086407996
  0.5834389824453831  0.0099533377634332  0.2523567152307669
  0.9155332639403504  0.6667076960540660  0.2624191963851711
  0.7503376570549766  0.8258534690401627  0.5103518193173758
  0.5840654191751341  0.0022314012093683  0.7492566433456422
  0.9150694914571738  0.6641107372676276  0.7361366299242535
  0.9248619837104033  0.9888603352438922  0.2361567991269413
  0.9156709598105284  0.9873037613178227  0.7476548194282177
  0.1705427111224376  0.9929156765049085  0.1316967986253634
  0.1685870408785852  0.0096798780116071  0.6280579967003207
  0.1668187982599797  0.3457853100986329  0.1243616512009194
  0.5014452344635937  0.9996345032761640  0.1311461923511137
  0.3357330819754943  0.1728571039693987  0.3892830903594572
  0.1706793549154063  0.3428158186238904  0.6265354915284235
  0.4939615250424579  0.0036944096331640  0.6168437135240820
  0.3300083902830310  0.1721101975004508  0.8714731530123666
  0.1673072894437908  0.6551051602358953  0.1186307804960375
  0.5027716843752895  0.3308749370681514  0.1290428323873039
  0.3233946547237973  0.4969212170821299  0.3680165094486128
  0.1609257476534610  0.6734774753614355  0.6365899569621496
  0.8449287664120029  0.9910563912255993  0.1110330322694651
  0.6631449080368181  0.1672863497628514  0.3782184346483403
  0.4882059010854117  0.3399702602150627  0.6311705736246765
  0.3144796490871670  0.4915662880404081  0.8740481866973930
  0.8353515883330862  0.0015793172480453  0.6225524971759943
  0.6606732159259099  0.1659473474976932  0.8793600733301145
  0.5069596951164022  0.6876404342460898  0.1271425879478649
  0.3364632212272327  0.8443980603128074  0.3757749488871587
  0.8436690689256680  0.3353768540412747  0.1081889056189988
  0.6700830812798165  0.5005262205010086  0.3836946406582982
  0.4968681452374344  0.6698682601586795  0.6243970272881363
  0.3245966327550051  0.8270601360152043  0.8762002119007278
  0.0002379200974153  0.1750862802282783  0.3690657844620881
  0.8347284350876151  0.3339779883490378  0.6182237953976594
  0.6507230891936329  0.4984414320228159  0.8913727540909010
  0.9881935995418215  0.1462194601995020  0.8723292794994851
  0.8505218556567953  0.6588852869937787  0.1140411790663061
  0.6589400748388217  0.8288180659278209  0.3722474121333071
  0.0026624728085976  0.4965415035659695  0.3722270528895155
  0.8359931979656736  0.6668983650422197  0.6351811338017512
  0.6557925510726084  0.8249461956753470  0.8828896954634782
  0.0188040270755298  0.4973742367378697  0.8809428864433403
  0.9927276383846547  0.8233019270347531  0.3772358853767862
  0.9883059031068403  0.8116435254880638  0.8695149055974928
  0.0870890336538048  0.0023051131818444  0.2473598628563077
  0.0797308349414300  0.0151401941918610  0.7182505710306840
  0.0890080792800986  0.3370892104991289  0.2474717340422041
  0.4173275900600255  0.0007515979354082  0.2566243212070110
  0.2462487354402521  0.1663828918731247  0.5135739722567585
  0.0850413860942432  0.3567208843746611  0.7241717825046494
  0.4164415915233546  0.0096253983867743  0.7450362770428218
  0.2571299674730859  0.1697058095078718  0.9968784506939475
  0.0832667711346005  0.6595752845317424  0.2469336788333455
  0.4129183546366865  0.3439364357626231  0.2627408294629404
  0.2482409672215590  0.4969684814331177  0.4911368147367109
  0.0791672728729750  0.6660096107976711  0.7462084417685967
  0.7554734715491730  0.0042219994985335  0.2494567577903787
  0.5834952726459524  0.1680527355616882  0.4906987036859550
  0.4148157234812130  0.3404822091589395  0.7400743801321311
  0.2481678066320579  0.5089306470321574  0.0224616903262436
  0.7507005228429624  0.9967357534448229  0.7474265548626862
  0.5871403074528446  0.1693230260583038  0.0172729264345361
  0.4194621116601283  0.6413815462379971  0.2454277075401371
  0.2466376447226312  0.8402811471493674  0.5119026491007355
  0.7493578637288039  0.3275073693317541  0.2583924310956730
  0.5774849789171759  0.4993695181282036  0.5168914355567727
  0.4089010472681513  0.6758996137045999  0.7313125401419115
  0.2546869900872905  0.8299544170018880  0.0004101893844560
  0.9156315691019605  0.1724515994233915  0.4974272384151945
  0.7401896448708247  0.3336398431366858  0.7440663995630837
  0.5904746139889155  0.5056845504863338  0.9969531958908663
  0.9283198127637209  0.1530878680314700  0.9848883158374977
  0.7475177833202767  0.6603255665049483  0.2709118870489668
  0.5794233496919909  0.8351835664678027  0.5024384816526974
  0.9145316587343233  0.4941485266010129  0.5055148896262641
  0.7506193478848712  0.6731892388957815  0.7475106860543723
  0.5905178103766267  0.8291706180183886  0.9843461862044907
  0.9248146231952742  0.4948355212566583  0.9872144423312214
  0.9115540233023683  0.8300533072986643  0.4907138306279155
  0.9119736897522170  0.8267078830632575  0.9912922667436095
  0.0074157822733309  0.1557192900485773  0.1189694771010256
  0.9957935636216637  0.1749408775027021  0.6134047524150037
  0.0071130615461648  0.4937323524480151  0.1225565079773802
  0.3394713089127465  0.1689387611520736  0.1182979610401665
  0.1745074485975295  0.3444279681682161  0.3774528668068787
  0.0037684944049544  0.5001866937953433  0.6220867342293319
  0.3288216092132041  0.1745825913181951  0.6333893221883510
  0.1811197236462578  0.3589759256501687  0.8717677672054769
  0.9982653051324026  0.8177606304121455  0.1298439187418181
  0.3142145303753817  0.5027459341700661  0.1246670313099240
  0.1599045290679913  0.6577927413569631  0.3684809547186301
  0.9979521568650190  0.8156444508199322  0.6222366213475012
  0.6595091308631190  0.1680485374151691  0.1239570745478834
  0.4883788052982682  0.3299342065410619  0.3796830554747717
  0.3281860286062165  0.4957986095514335  0.6221900758607617
  0.1680671023807931  0.6644868521478733  0.8787167187668914
  0.6640539489036904  0.1665798478509859  0.6251100464443857
  0.5026277123225632  0.3404674734624419  0.8799467571713192
  0.3458386633040640  0.8255415503239796  0.1267509493148532
  0.1724265295163306  0.9984404916186259  0.3841133614418442
  0.6616458999964828  0.4990395789126943  0.1373840673190315
  0.4966149807639095  0.6829907358417677  0.3658544373402927
  0.3195279965781455  0.8466843538045383  0.6242226953242397
  0.1804036874654257  0.0188720601842757  0.8732074774634032
  0.8413099563731122  0.3305139320742749  0.3741750854085402
  0.6554828912663567  0.5010310110761901  0.6298369999043641
  0.5177328788432574  0.6804473992365796  0.8780508290164705
  0.8408714910889004  0.3401634210669111  0.8686995539042836
  0.6475138936483230  0.8314012806107326  0.1298960774074443
  0.4945045781380903  0.0025326228126580  0.3769275761137514
  0.8402835467746355  0.6657963037211021  0.3715356726909675
  0.6696417525299457  0.8335051624182467  0.6328617371659576
  0.5031191491842378  0.0039213384736219  0.8809680624446584
  0.8405837088552119  0.6640828228012017  0.8746655239919096
  0.8354485810959354  0.9967801140655566  0.3630254886375575
  0.8457418942753386  0.9975175225112791  0.8692534633779687
  0.0029768241913024  0.0756900539789988  0.2351583058290147
  0.0021956860173749  0.0805964569918241  0.7422736988570187
  0.0022496722815381  0.4114648247589681  0.2343496073200659
  0.3354933559038873  0.0808174269670597  0.2603063025530947
  0.1668916048912402  0.2582226409820698  0.5053138402239031
  0.9962671145911801  0.4186670528747071  0.7412437867359756
  0.3272217282545687  0.0931205402228451  0.7440099563379741
  0.1838687061939427  0.2566557737736266  0.0139658661738889
  0.9947361668799810  0.7490616678495976  0.2394886057344327
  0.3425333923592127  0.4182500536858779  0.2535480761303647
  0.1651808401351641  0.5806754423595649  0.4981575070908583
  0.9981540774128890  0.7482902107484847  0.7613458073089033
  0.6664648187274859  0.0860787975384642  0.2537298380673566
  0.4936651168115956  0.2517929217656361  0.5108448229882298
  0.3298852599837074  0.4193775566240638  0.7413358676655093
  0.1729358474884149  0.5783310861115867  0.9990385491910783
  0.6665933091815714  0.0810620056256249  0.7498887085633876
  0.5014933817087446  0.2491988523250378  0.9987248367578593
  0.3444269980367547  0.7506106502268751  0.2397425336501074
  0.1505296957083729  0.9127426175825364  0.5064383719806603
  0.6668653479906538  0.4076261229998832  0.2598509374728832
  0.4997498536653177  0.5803350401989728  0.4889352588564507
  0.3246260750103686  0.7568817651055401  0.7484384210268816
  0.1800072272212115  0.9097973666489523  0.0209430703621994
  0.8387186552087302  0.2529821843310944  0.4908636236712066
  0.6577721887308876  0.4230145185414584  0.7525717612187848
  0.5098114476548989  0.5760816226171216  0.0463379623549921
  0.8409895665048045  0.2452897516038501  0.0067332592205545
  0.6462439235882605  0.7494850105420048  0.2593972447633405
  0.4963812350271742  0.9265783388894531  0.4996413881652175
  0.8278600819227152  0.5841041841445239  0.5044402066662951
  0.6677367288806172  0.7488603344081836  0.7534745885558698
  0.5036827075676195  0.9199976076717310  0.0068543901606248
  0.8437900384187674  0.5845444729600459  0.9927354822692369
  0.8425304544349251  0.9054741936036499  0.5021880927437050
  0.8462622608802721  0.9126712418477606  0.9965856067272219
 
  0.00000000E+00  0.00000000E+00  0.00000000E+00
  0.00000000E+00  0.00000000E+00  0.00000000E+00
  0.00000000E+00  0.00000000E+00  0.00000000E+00
  0.00000000E+00  0.00000000E+00  0.00000000E+00
  0.00000000E+00  0.00000000E+00  0.00000000E+00
  0.00000000E+00  0.00000000E+00  0.00000000E+00
  0.00000000E+00  0.00000000E+00  0.00000000E+00
  0.00000000E+00  0.00000000E+00  0.00000000E+00
  0.00000000E+00  0.00000000E+00  0.00000000E+00
  0.00000000E+00  0.00000000E+00  0.00000000E+00
  0.00000000E+00  0.00000000E+00  0.00000000E+00
  0.00000000E+00  0.00000000E+00  0.00000000E+00
  0.00000000E+00  0.00000000E+00  0.00000000E+00
  0.00000000E+00  0.00000000E+00  0.00000000E+00
  0.00000000E+00  0.00000000E+00  0.00000000E+00
  0.00000000E+00  0.00000000E+00  0.00000000E+00
  0.00000000E+00  0.00000000E+00  0.00000000E+00
  0.00000000E+00  0.00000000E+00  0.00000000E+00
  0.00000000E+00  0.00000000E+00  0.00000000E+00
  0.00000000E+00  0.00000000E+00  0.00000000E+00
  0.00000000E+00  0.00000000E+00  0.00000000E+00
  0.00000000E+00  0.00000000E+00  0.00000000E+00
  0.00000000E+00  0.00000000E+00  0.00000000E+00
  0.00000000E+00  0.00000000E+00  0.00000000E+00
  0.00000000E+00  0.00000000E+00  0.00000000E+00
  0.00000000E+00  0.00000000E+00  0.00000000E+00
  0.00000000E+00  0.00000000E+00  0.00000000E+00
  0.00000000E+00  0.00000000E+00  0.00000000E+00
  0.00000000E+00  0.00000000E+00  0.00000000E+00
  0.00000000E+00  0.00000000E+00  0.00000000E+00
  0.00000000E+00  0.00000000E+00  0.00000000E+00
  0.00000000E+00  0.00000000E+00  0.00000000E+00
  0.00000000E+00  0.00000000E+00  0.00000000E+00
  0.00000000E+00  0.00000000E+00  0.00000000E+00
  0.00000000E+00  0.00000000E+00  0.00000000E+00
  0.00000000E+00  0.00000000E+00  0.00000000E+00
  0.00000000E+00  0.00000000E+00  0.00000000E+00
  0.00000000E+00  0.00000000E+00  0.00000000E+00
  0.00000000E+00  0.00000000E+00  0.00000000E+00
  0.00000000E+00  0.00000000E+00  0.00000000E+00
  0.00000000E+00  0.00000000E+00  0.00000000E+00
  0.00000000E+00  0.00000000E+00  0.00000000E+00
  0.00000000E+00  0.00000000E+00  0.00000000E+00
  0.00000000E+00  0.00000000E+00  0.00000000E+00
  0.00000000E+00  0.00000000E+00  0.00000000E+00
  0.00000000E+00  0.00000000E+00  0.00000000E+00
  0.00000000E+00  0.00000000E+00  0.00000000E+00
  0.00000000E+00  0.00000000E+00  0.00000000E+00
  0.00000000E+00  0.00000000E+00  0.00000000E+00
  0.00000000E+00  0.00000000E+00  0.00000000E+00
  0.00000000E+00  0.00000000E+00  0.00000000E+00
  0.00000000E+00  0.00000000E+00  0.00000000E+00
  0.00000000E+00  0.00000000E+00  0.00000000E+00
  0.00000000E+00  0.00000000E+00  0.00000000E+00
  0.00000000E+00  0.00000000E+00  0.00000000E+00
  0.00000000E+00  0.00000000E+00  0.00000000E+00
  0.00000000E+00  0.00000000E+00  0.00000000E+00
  0.00000000E+00  0.00000000E+00  0.00000000E+00
  0.00000000E+00  0.00000000E+00  0.00000000E+00
  0.00000000E+00  0.00000000E+00  0.00000000E+00
  0.00000000E+00  0.00000000E+00  0.00000000E+00
  0.00000000E+00  0.00000000E+00  0.00000000E+00
  0.00000000E+00  0.00000000E+00  0.00000000E+00
  0.00000000E+00  0.00000000E+00  0.00000000E+00
  0.00000000E+00  0.00000000E+00  0.00000000E+00
  0.00000000E+00  0.00000000E+00  0.00000000E+00
  0.00000000E+00  0.00000000E+00  0.00000000E+00
  0.00000000E+00  0.00000000E+00  0.00000000E+00
  0.00000000E+00  0.00000000E+00  0.00000000E+00
  0.00000000E+00  0.00000000E+00  0.00000000E+00
  0.00000000E+00  0.00000000E+00  0.00000000E+00
  0.00000000E+00  0.00000000E+00  0.00000000E+00
  0.00000000E+00  0.00000000E+00  0.00000000E+00
  0.00000000E+00  0.00000000E+00  0.00000000E+00
  0.00000000E+00  0.00000000E+00  0.00000000E+00
  0.00000000E+00  0.00000000E+00  0.00000000E+00
  0.00000000E+00  0.00000000E+00  0.00000000E+00
  0.00000000E+00  0.00000000E+00  0.00000000E+00
  0.00000000E+00  0.00000000E+00  0.00000000E+00
  0.00000000E+00  0.00000000E+00  0.00000000E+00
  0.00000000E+00  0.00000000E+00  0.00000000E+00
  0.00000000E+00  0.00000000E+00  0.00000000E+00
  0.00000000E+00  0.00000000E+00  0.00000000E+00
  0.00000000E+00  0.00000000E+00  0.00000000E+00
  0.00000000E+00  0.00000000E+00  0.00000000E+00
  0.00000000E+00  0.00000000E+00  0.00000000E+00
  0.00000000E+00  0.00000000E+00  0.00000000E+00
  0.00000000E+00  0.00000000E+00  0.00000000E+00
  0.00000000E+00  0.00000000E+00  0.00000000E+00
  0.00000000E+00  0.00000000E+00  0.00000000E+00
  0.00000000E+00  0.00000000E+00  0.00000000E+00
  0.00000000E+00  0.00000000E+00  0.00000000E+00
  0.00000000E+00  0.00000000E+00  0.00000000E+00
  0.00000000E+00  0.00000000E+00  0.00000000E+00
  0.00000000E+00  0.00000000E+00  0.00000000E+00
  0.00000000E+00  0.00000000E+00  0.00000000E+00
  0.00000000E+00  0.00000000E+00  0.00000000E+00
  0.00000000E+00  0.00000000E+00  0.00000000E+00
  0.00000000E+00  0.00000000E+00  0.00000000E+00
  0.00000000E+00  0.00000000E+00  0.00000000E+00
  0.00000000E+00  0.00000000E+00  0.00000000E+00
  0.00000000E+00  0.00000000E+00  0.00000000E+00
  0.00000000E+00  0.00000000E+00  0.00000000E+00
  0.00000000E+00  0.00000000E+00  0.00000000E+00
  0.00000000E+00  0.00000000E+00  0.00000000E+00
  0.00000000E+00  0.00000000E+00  0.00000000E+00
  0.00000000E+00  0.00000000E+00  0.00000000E+00
  0.00000000E+00  0.00000000E+00  0.00000000E+00
  0.00000000E+00  0.00000000E+00  0.00000000E+00
  0.00000000E+00  0.00000000E+00  0.00000000E+00
  0.00000000E+00  0.00000000E+00  0.00000000E+00
  0.00000000E+00  0.00000000E+00  0.00000000E+00
  0.00000000E+00  0.00000000E+00  0.00000000E+00
  0.00000000E+00  0.00000000E+00  0.00000000E+00
  0.00000000E+00  0.00000000E+00  0.00000000E+00
  0.00000000E+00  0.00000000E+00  0.00000000E+00
  0.00000000E+00  0.00000000E+00  0.00000000E+00
  0.00000000E+00  0.00000000E+00  0.00000000E+00
  0.00000000E+00  0.00000000E+00  0.00000000E+00
  0.00000000E+00  0.00000000E+00  0.00000000E+00
  0.00000000E+00  0.00000000E+00  0.00000000E+00
  0.00000000E+00  0.00000000E+00  0.00000000E+00
  0.00000000E+00  0.00000000E+00  0.00000000E+00
  0.00000000E+00  0.00000000E+00  0.00000000E+00
  0.00000000E+00  0.00000000E+00  0.00000000E+00
  0.00000000E+00  0.00000000E+00  0.00000000E+00
  0.00000000E+00  0.00000000E+00  0.00000000E+00
  0.00000000E+00  0.00000000E+00  0.00000000E+00
  0.00000000E+00  0.00000000E+00  0.00000000E+00
  0.00000000E+00  0.00000000E+00  0.00000000E+00
  0.00000000E+00  0.00000000E+00  0.00000000E+00
  0.00000000E+00  0.00000000E+00  0.00000000E+00
  0.00000000E+00  0.00000000E+00  0.00000000E+00
  0.00000000E+00  0.00000000E+00  0.00000000E+00
  0.00000000E+00  0.00000000E+00  0.00000000E+00
  0.00000000E+00  0.00000000E+00  0.00000000E+00
  0.00000000E+00  0.00000000E+00  0.00000000E+00
  0.00000000E+00  0.00000000E+00  0.00000000E+00
  0.00000000E+00  0.00000000E+00  0.00000000E+00
  0.00000000E+00  0.00000000E+00  0.00000000E+00
  0.00000000E+00  0.00000000E+00  0.00000000E+00
  0.00000000E+00  0.00000000E+00  0.00000000E+00
  0.00000000E+00  0.00000000E+00  0.00000000E+00
  0.00000000E+00  0.00000000E+00  0.00000000E+00
  0.00000000E+00  0.00000000E+00  0.00000000E+00
  0.00000000E+00  0.00000000E+00  0.00000000E+00
  0.00000000E+00  0.00000000E+00  0.00000000E+00
  0.00000000E+00  0.00000000E+00  0.00000000E+00
  0.00000000E+00  0.00000000E+00  0.00000000E+00
  0.00000000E+00  0.00000000E+00  0.00000000E+00
  0.00000000E+00  0.00000000E+00  0.00000000E+00
  0.00000000E+00  0.00000000E+00  0.00000000E+00
  0.00000000E+00  0.00000000E+00  0.00000000E+00
  0.00000000E+00  0.00000000E+00  0.00000000E+00
  0.00000000E+00  0.00000000E+00  0.00000000E+00
  0.00000000E+00  0.00000000E+00  0.00000000E+00
  0.00000000E+00  0.00000000E+00  0.00000000E+00
  0.00000000E+00  0.00000000E+00  0.00000000E+00
  0.00000000E+00  0.00000000E+00  0.00000000E+00
  0.00000000E+00  0.00000000E+00  0.00000000E+00
  0.00000000E+00  0.00000000E+00  0.00000000E+00
  0.00000000E+00  0.00000000E+00  0.00000000E+00
  0.00000000E+00  0.00000000E+00  0.00000000E+00
  0.00000000E+00  0.00000000E+00  0.00000000E+00
  0.00000000E+00  0.00000000E+00  0.00000000E+00
  0.00000000E+00  0.00000000E+00  0.00000000E+00
  0.00000000E+00  0.00000000E+00  0.00000000E+00
  0.00000000E+00  0.00000000E+00  0.00000000E+00
  0.00000000E+00  0.00000000E+00  0.00000000E+00
  0.00000000E+00  0.00000000E+00  0.00000000E+00
  0.00000000E+00  0.00000000E+00  0.00000000E+00
  0.00000000E+00  0.00000000E+00  0.00000000E+00
  0.00000000E+00  0.00000000E+00  0.00000000E+00
  0.00000000E+00  0.00000000E+00  0.00000000E+00
  0.00000000E+00  0.00000000E+00  0.00000000E+00
  0.00000000E+00  0.00000000E+00  0.00000000E+00
  0.00000000E+00  0.00000000E+00  0.00000000E+00
  0.00000000E+00  0.00000000E+00  0.00000000E+00
  0.00000000E+00  0.00000000E+00  0.00000000E+00
  0.00000000E+00  0.00000000E+00  0.00000000E+00
  0.00000000E+00  0.00000000E+00  0.00000000E+00
  0.00000000E+00  0.00000000E+00  0.00000000E+00
  0.00000000E+00  0.00000000E+00  0.00000000E+00
  0.00000000E+00  0.00000000E+00  0.00000000E+00
  0.00000000E+00  0.00000000E+00  0.00000000E+00
  0.00000000E+00  0.00000000E+00  0.00000000E+00
  0.00000000E+00  0.00000000E+00  0.00000000E+00
  0.00000000E+00  0.00000000E+00  0.00000000E+00
  0.00000000E+00  0.00000000E+00  0.00000000E+00
  0.00000000E+00  0.00000000E+00  0.00000000E+00
  0.00000000E+00  0.00000000E+00  0.00000000E+00
  0.00000000E+00  0.00000000E+00  0.00000000E+00
  0.00000000E+00  0.00000000E+00  0.00000000E+00
  0.00000000E+00  0.00000000E+00  0.00000000E+00
  0.00000000E+00  0.00000000E+00  0.00000000E+00
  0.00000000E+00  0.00000000E+00  0.00000000E+00
  0.00000000E+00  0.00000000E+00  0.00000000E+00
  0.00000000E+00  0.00000000E+00  0.00000000E+00
  0.00000000E+00  0.00000000E+00  0.00000000E+00
  0.00000000E+00  0.00000000E+00  0.00000000E+00
  0.00000000E+00  0.00000000E+00  0.00000000E+00
  0.00000000E+00  0.00000000E+00  0.00000000E+00
  0.00000000E+00  0.00000000E+00  0.00000000E+00
  0.00000000E+00  0.00000000E+00  0.00000000E+00
  0.00000000E+00  0.00000000E+00  0.00000000E+00
  0.00000000E+00  0.00000000E+00  0.00000000E+00
  0.00000000E+00  0.00000000E+00  0.00000000E+00
  0.00000000E+00  0.00000000E+00  0.00000000E+00
  0.00000000E+00  0.00000000E+00  0.00000000E+00
  0.00000000E+00  0.00000000E+00  0.00000000E+00
  0.00000000E+00  0.00000000E+00  0.00000000E+00
  0.00000000E+00  0.00000000E+00  0.00000000E+00
  0.00000000E+00  0.00000000E+00  0.00000000E+00
  0.00000000E+00  0.00000000E+00  0.00000000E+00
  0.00000000E+00  0.00000000E+00  0.00000000E+00
  0.00000000E+00  0.00000000E+00  0.00000000E+00
  0.00000000E+00  0.00000000E+00  0.00000000E+00
  0.00000000E+00  0.00000000E+00  0.00000000E+00
  0.00000000E+00  0.00000000E+00  0.00000000E+00
  0.00000000E+00  0.00000000E+00  0.00000000E+00
  0.00000000E+00  0.00000000E+00  0.00000000E+00
  0.00000000E+00  0.00000000E+00  0.00000000E+00
  0.00000000E+00  0.00000000E+00  0.00000000E+00
  0.00000000E+00  0.00000000E+00  0.00000000E+00
  0.00000000E+00  0.00000000E+00  0.00000000E+00
  0.00000000E+00  0.00000000E+00  0.00000000E+00
  0.00000000E+00  0.00000000E+00  0.00000000E+00
  0.00000000E+00  0.00000000E+00  0.00000000E+00
  0.00000000E+00  0.00000000E+00  0.00000000E+00
  0.00000000E+00  0.00000000E+00  0.00000000E+00
  0.00000000E+00  0.00000000E+00  0.00000000E+00
  0.00000000E+00  0.00000000E+00  0.00000000E+00
  0.00000000E+00  0.00000000E+00  0.00000000E+00
  0.00000000E+00  0.00000000E+00  0.00000000E+00
  0.00000000E+00  0.00000000E+00  0.00000000E+00
  0.00000000E+00  0.00000000E+00  0.00000000E+00
  0.00000000E+00  0.00000000E+00  0.00000000E+00
  0.00000000E+00  0.00000000E+00  0.00000000E+00
  0.00000000E+00  0.00000000E+00  0.00000000E+00
  0.00000000E+00  0.00000000E+00  0.00000000E+00
  0.00000000E+00  0.00000000E+00  0.00000000E+00
  0.00000000E+00  0.00000000E+00  0.00000000E+00
  0.00000000E+00  0.00000000E+00  0.00000000E+00
  0.00000000E+00  0.00000000E+00  0.00000000E+00
  0.00000000E+00  0.00000000E+00  0.00000000E+00
  0.00000000E+00  0.00000000E+00  0.00000000E+00
  0.00000000E+00  0.00000000E+00  0.00000000E+00
  0.00000000E+00  0.00000000E+00  0.00000000E+00
  0.00000000E+00  0.00000000E+00  0.00000000E+00
  0.00000000E+00  0.00000000E+00  0.00000000E+00
  0.00000000E+00  0.00000000E+00  0.00000000E+00
  0.00000000E+00  0.00000000E+00  0.00000000E+00
