POSCAR                                  
   1.00000000000000     
    10.2996777213488695    0.0385188487524343    0.0527825980632747
     0.0386537881495579   10.3232596012586253   -0.0919302729803653
     0.0351486787091255   -0.0611705534126338    6.8811584571862117
   Y    K    Sc   Zr   H 
     9     9     9     9   216
Direct
  0.1716842485572769  0.1688223708247847  0.2540833191824632
  0.1678697174955417  0.8262241934154915  0.2537340661717309
  0.3293555745601040  0.6681484951803611  0.4931348301068184
  0.8304729126786583  0.1689685559963436  0.7527171446917009
  0.8348634902529639  0.4972155338953144  0.2449942893164092
  0.4925827900085267  0.8366268664607119  0.7469004328616862
  0.3349928044878467  0.9984312959066486  0.9987609978791241
  0.6702216125223188  0.9986768114463516  0.4977380057304686
  0.6704439614964386  0.9958770099461134  0.0023676281715694
  0.1553588589938286  0.1830493343940702  0.7616137005337009
  0.1557322921890005  0.8436501313548348  0.7636356396310475
  0.4884206697345874  0.5121947220839829  0.7674053513935348
  0.3439623332479371  0.6610673648280425  0.9881661448651613
  0.6710833338610129  0.3333432866874588  0.0028234732182355
  0.6761955700779154  0.6665758261897921  0.0122300461171605
  0.0124696490594118  0.3214524515926485  0.9810887676402302
  0.8230535470201374  0.8259640816701150  0.2399705768753435
  0.0138142791372289  0.9823873715055029  0.9838870144588512
  0.1633015475530186  0.5006640988032558  0.2520533432368879
  0.3304064020707997  0.3387629727674835  0.5063527633970466
  0.1703749831334278  0.5058145336763857  0.7408987888742047
  0.5060408012221060  0.4883753359457117  0.2626396539234150
  0.4978607805817958  0.8427568210137935  0.2587707709516707
  0.3289663809996455  0.0065867948734706  0.5064602170366825
  0.0023703351318716  0.3390504158167857  0.4917350594634371
  0.8375115922807126  0.8291846423202571  0.7452766099923167
  0.0024095270485560  0.6598009952438133  0.9963533329506831
  0.4934212489074739  0.1694648859348646  0.2561164891307399
  0.4993054233040226  0.1705595869448047  0.7495251631505653
  0.3362140241176448  0.3412953789129176  0.0043783529041335
  0.8415305291339905  0.1645930446049633  0.2380618274110802
  0.6608335611076441  0.3341685239913090  0.5050438154679213
  0.6602874792798943  0.6668159212694320  0.5041274836112066
  0.8299311875839592  0.4960579111148604  0.7512810419697402
  0.0010967281265550  0.6608146734258256  0.4978540881845319
  0.9938003790560117  0.0059094737757519  0.4893920791399609
  0.1652962887104579  0.0882075138410201  0.9921104660257853
  0.1714212692781842  0.0931265460445800  0.5113293187642753
  0.1649352615792381  0.4192811488747950  0.0246437885688522
  0.5006406639604535  0.0852960485645582  0.9954104069545977
  0.3335103020373467  0.2563349422364283  0.2576564880117047
  0.1653911939755659  0.4209427056240642  0.4911776635479441
  0.4948605008810247  0.0871145190136389  0.5045869081480419
  0.3260891678107427  0.2551883281233245  0.7435402875870523
  0.1619046176574628  0.7386837937055120  0.9959025468259597
  0.4994451205760200  0.4124129497075799  0.0079716759703388
  0.3537658391823726  0.5838123563844491  0.2410792157017951
  0.1603347375331339  0.7528871468750893  0.5135430297227828
  0.8461604351366034  0.0748552319519860  0.9968609065499123
  0.6680547623753412  0.2476004893761043  0.2514334223383656
  0.4944663147197801  0.4199808584528597  0.5124468286020658
  0.3195285969403443  0.5875222034251948  0.7371230663239032
  0.8329886239287276  0.0885842534419510  0.4930292506815661
  0.6639889938358579  0.2573168209629557  0.7507836744233956
  0.5048346849299037  0.7452780655122240  0.0390859796236711
  0.3348560520561321  0.9180866079320680  0.2634725750492350
  0.8451259623198624  0.4039009266263633  0.0052513014976086
  0.6509690137196387  0.5791782499459188  0.2485539544617197
  0.4973463145712103  0.7505548638233535  0.4758356164714215
  0.3241824115081684  0.9234302937896288  0.7303617046197246
  0.0013145146372509  0.2516459634504926  0.2522912965241488
  0.8363848601862003  0.4137884226720274  0.4942486980543919
  0.6641694425427360  0.5871208923665776  0.7498564099997012
  0.9898340747047740  0.2562691081130879  0.7151431701822801
  0.8447410408960323  0.7492687093185992  0.9790269280178236
  0.6578262224039904  0.9133414446727457  0.2540473612053091
  0.0068959667193695  0.5774262394217544  0.2325853618587601
  0.8376518677291713  0.7471954523683380  0.5004260972029755
  0.6721838321778577  0.9109912610397473  0.7451160283568043
  0.9940989579726249  0.5768906245285876  0.7596722265991502
  0.9929310235379987  0.9105017637411308  0.2454522222815996
  0.9844721604812392  0.9138661669390729  0.7196260358307285
  0.0905846816236462  0.1481500730123244  0.0177106767892425
  0.0832308565052031  0.1667968270706055  0.5039016151678979
  0.0831955309432857  0.4946069161017448  0.9764964403669438
  0.4189920961894131  0.1693926507743768  0.0040876882102125
  0.2504518693570290  0.3440898767628440  0.2626713194008943
  0.0820892945021043  0.4931930620234795  0.5123628731157694
  0.4120749373562376  0.1758938658831255  0.5044308706323619
  0.2478814926749138  0.3415043323991327  0.7361999391550214
  0.0854629359129078  0.8103293063082333  0.0115501678102987
  0.4246202290082053  0.4980916752705014  0.0382145141285122
  0.2527422728134852  0.6555485310044560  0.2346752870830713
  0.0846370675579919  0.8457450647864562  0.5096698877557628
  0.7478503585839533  0.1630165024574595  0.0088987736921808
  0.5861816022701944  0.3288691266144497  0.2530366708566376
  0.4158792134109106  0.4957481169033855  0.4965581254976570
  0.2407233589563802  0.6697318106639685  0.7472984126935103
  0.7519486232773929  0.1718381516563880  0.4898714653970373
  0.5754297499660623  0.3398740353466749  0.7574457795580756
  0.4216557750564505  0.8322634489917391  0.0172264348269877
  0.2507978844708276  0.9986516568502495  0.2650416147631987
  0.7563423287657329  0.4999477713194338  0.9927201873567810
  0.5824183057135244  0.6415024919414520  0.2541214990054783
  0.4121464331927882  0.8381239936521538  0.4935298987085304
  0.2414791856582852  0.0116152463159054  0.7429998466103527
  0.9262502913398905  0.3314484331856278  0.2449784834316944
  0.7489221199784595  0.4971789847818044  0.5064952178378022
  0.5802062342162628  0.6719348284124820  0.7779221307363997
  0.9205519337399508  0.3373091880308507  0.7372630937047262
  0.7535072207801718  0.8296875261396224  0.9715978418882045
  0.5836332978419136  0.0102161226091084  0.2524994010972534
  0.9152899864965747  0.6663326110076255  0.2630617664949426
  0.7501959636944804  0.8259360303094425  0.5091127392982955
  0.5841444113520922  0.0020528728587905  0.7493588011516721
  0.9148695643248672  0.6641410495360560  0.7350814603817923
  0.9244912091122401  0.9890565151283397  0.2366611871212996
  0.9153200555615300  0.9869830351749798  0.7488911763877226
  0.1706138536482200  0.9930495039863345  0.1320078461283600
  0.1684017818648940  0.0098632663443183  0.6279040040437422
  0.1666047635648837  0.3461974653427760  0.1249100134646852
  0.5010413096682100  0.9998076226600148  0.1311641400964589
  0.3354305844364447  0.1729611925094900  0.3896086011830064
  0.1696232914597786  0.3430450642761969  0.6265450054981869
  0.4940817608084984  0.0037662413338069  0.6169641022460794
  0.3300810084361885  0.1723458183871571  0.8719351296563431
  0.1673704338497544  0.6557866253579476  0.1183861318457744
  0.5029670503828925  0.3310242736921793  0.1293861940688643
  0.3252054865214760  0.4968599707125776  0.3683151547961927
  0.1611308791432648  0.6733672794707033  0.6360340378410569
  0.8446330890916016  0.9894255442041242  0.1097067162293328
  0.6637034415074510  0.1675300259038934  0.3779389944452518
  0.4893121523523192  0.3404680971961511  0.6308151654795822
  0.3148242052929362  0.4916627850189172  0.8743104476411929
  0.8352152784416518  0.0016022068244155  0.6224905319595706
  0.6606628213576116  0.1656499908761333  0.8798453616685862
  0.5067500716048770  0.6881640355388825  0.1272030788891385
  0.3365113757644806  0.8449224283728967  0.3756841218890656
  0.8442273172362178  0.3359291089999914  0.1074940735439469
  0.6699581982673308  0.5001899320378769  0.3835036757588881
  0.4969328713267700  0.6699071727157602  0.6243159780252441
  0.3247849506013907  0.8273294308792600  0.8754329344437508
  0.0001042901736241  0.1751618692033077  0.3690426248373413
  0.8341495225048732  0.3340348490290879  0.6185389153585987
  0.6506058243909649  0.4979828892844722  0.8925714663321642
  0.9881446887624321  0.1460592671344187  0.8726947070228874
  0.8504060581663566  0.6580598069828199  0.1138001731955924
  0.6591707154516513  0.8288589426708697  0.3722603001015514
  0.0029455189543697  0.4966589929686620  0.3719343923507736
  0.8360379092221990  0.6666289641772138  0.6344497265151645
  0.6564812816389960  0.8249444200672897  0.8829513650469138
  0.0188574055691788  0.4971318144208112  0.8808003355489973
  0.9927831937925689  0.8227119537349594  0.3769801645742135
  0.9881821419338550  0.8119742837332282  0.8690929080999084
  0.0866771603233047  0.0021050994790031  0.2478987743793368
  0.0792072167388795  0.0151767466349995  0.7190079065056736
  0.0888225341872015  0.3370553167946113  0.2477066075618666
  0.4172399395099688  0.0010543593205483  0.2561113306344112
  0.2463619742162493  0.1667290898191283  0.5134461290764847
  0.0851204951223465  0.3569018090690150  0.7244564043168964
  0.4168093868857881  0.0097256739048248  0.7456502612761469
  0.2570604839044464  0.1698120639786751  0.9971687581395372
  0.0831594386000702  0.6593975437589066  0.2460408197665771
  0.4121445728296891  0.3434919117712667  0.2615925007292290
  0.2483623283352614  0.4972378448007220  0.4933945424473691
  0.0792234130851881  0.6660586976593308  0.7462025206917602
  0.7556379217986162  0.0037764123466957  0.2497289695970721
  0.5831450672260416  0.1680845276632468  0.4907714463051533
  0.4146210882936998  0.3409283368713290  0.7412355085940376
  0.2473833256309703  0.5093760853570259  0.0199884006862732
  0.7506432030788091  0.9964823594499137  0.7476493834383575
  0.5867700485279030  0.1691531563665762  0.0171479313036969
  0.4193163565309703  0.6416083800351373  0.2452502331088056
  0.2465334864908471  0.8402649922112388  0.5116375814561209
  0.7499529169911980  0.3271154505100711  0.2588292007224737
  0.5780517110995831  0.4994363950964313  0.5168406996796122
  0.4090661078097924  0.6756436443377822  0.7310633896368586
  0.2547974659624401  0.8302605609887550  0.0005575251422201
  0.9157674909090758  0.1727152376558507  0.4983836141027496
  0.7402077827081115  0.3335505953370657  0.7440913335520563
  0.5910888820033549  0.5044355626027581  0.9969119229177679
  0.9287109636276156  0.1527652652168356  0.9845601446209287
  0.7471370598960121  0.6598644945759986  0.2705976558236287
  0.5797511490675475  0.8352732874440463  0.5023284418575145
  0.9149333611902719  0.4943242697999182  0.5053790547862675
  0.7506912107314179  0.6727385679224511  0.7478658599684778
  0.5904106678811232  0.8291805429488761  0.9842592300899966
  0.9249509747763938  0.4953930440141860  0.9873815476890826
  0.9115536586662714  0.8307847292349493  0.4901973926380947
  0.9127206482179417  0.8238611834529763  0.9911284855276961
  0.0067949394438642  0.1558090042844995  0.1194771240044190
  0.9955192755319189  0.1747995673395408  0.6135229207338355
  0.0075308425090768  0.4935701618370345  0.1230235944249358
  0.3390121272959732  0.1691523048960804  0.1183981904117530
  0.1745228546325279  0.3442311050324633  0.3774306511790542
  0.0040995327246662  0.5003254645748498  0.6214392669002180
  0.3286969845782153  0.1743527622755110  0.6341280694129310
  0.1810040615190829  0.3596501638328675  0.8718059943129219
  0.9979085203538531  0.8175911901204245  0.1296649672919159
  0.3156019459804185  0.5027774682621597  0.1236492235909665
  0.1601801352351444  0.6581849669204587  0.3685224603988999
  0.9977110057119347  0.8151644193807428  0.6223882986266176
  0.6605698264066575  0.1678646423820140  0.1242895491985365
  0.4886936611302488  0.3298067714131463  0.3799447265642257
  0.3285850019574141  0.4960157919641404  0.6225213909511922
  0.1681684738664089  0.6647810884149834  0.8778787446442635
  0.6639397626143335  0.1667673121843052  0.6249977820172035
  0.5028695775563392  0.3408568256155249  0.8800600247790840
  0.3455928639308894  0.8256661975388297  0.1264528285433428
  0.1727693339535890  0.9981562158829220  0.3842283781933276
  0.6609545827354282  0.4987791536987132  0.1379780256999581
  0.4967626060308490  0.6834020813041093  0.3653528627577813
  0.3198439835611353  0.8478102338442852  0.6241085948077938
  0.1798025538921522  0.0187825715749099  0.8728410954632366
  0.8411959131213749  0.3309913648254792  0.3751927960309445
  0.6556760393912029  0.5006060690695193  0.6298073300386164
  0.5176546137834563  0.6807112643873978  0.8775204136731745
  0.8412269927758018  0.3402221460856438  0.8680699387091835
  0.6473850805219143  0.8313100000801583  0.1297913826033152
  0.4942860439214130  0.0029358214432094  0.3769650436876404
  0.8402831049235076  0.6655437627695804  0.3714305400619438
  0.6701282572192397  0.8333504736556705  0.6329204595902524
  0.5029918668895235  0.0038250538408988  0.8816545514826757
  0.8399544313914546  0.6632094612571962  0.8739537503674413
  0.8351375095827152  0.9962663513432375  0.3631598801554645
  0.8458908530275409  0.9968963454851831  0.8684907598950176
  0.0027635017479426  0.0749936922662542  0.2354390831165816
  0.0020204268438206  0.0802824969004803  0.7426600069022058
  0.0030607188366218  0.4122348624438459  0.2337875104382547
  0.3354305765380090  0.0806871321122316  0.2605409942486219
  0.1667367335330852  0.2580547362571934  0.5053751645311806
  0.9965651992190061  0.4189248571141846  0.7413571740635305
  0.3274264226325485  0.0934039688646635  0.7440109327392221
  0.1838997566810718  0.2565177994982548  0.0143585706194358
  0.9948822872512082  0.7486095900910996  0.2399321033054278
  0.3404121321288613  0.4182887782274136  0.2546859199064855
  0.1657015548553176  0.5807709859688472  0.4975225308134341
  0.9983646439170855  0.7478119916577342  0.7616764149896156
  0.6655843427548191  0.0857061753901149  0.2537803154704434
  0.4929782608079236  0.2519315468383425  0.5113849771525381
  0.3303265216150280  0.4196745805140267  0.7411062151096175
  0.1731325552087526  0.5779572805325088  0.9999176581344713
  0.6663958996249306  0.0810419140023129  0.7504000704239076
  0.5013427662177818  0.2494019055379866  0.9995601402771968
  0.3444354396863218  0.7510041297275691  0.2392815015884153
  0.1502250155475764  0.9128472610360348  0.5064509829579009
  0.6660770576310071  0.4076358947226737  0.2598388611310227
  0.4996775476450495  0.5804003909358713  0.4889922986388981
  0.3244786706654139  0.7569846255225059  0.7480672567433899
  0.1796966677882992  0.9091125850520640  0.0204054839141961
  0.8399122603958986  0.2527869577827460  0.4903495640540356
  0.6585877759629923  0.4229563112834924  0.7526610369738975
  0.5085310269368222  0.5760686559892463  0.0469616053529407
  0.8413522735443877  0.2447322913583534  0.0071160557704530
  0.6458585731601616  0.7493892744470401  0.2592643060744706
  0.4963026339866659  0.9268626314999793  0.4998622662310837
  0.8277417000797840  0.5838813762049142  0.5039885263354194
  0.6680656970725636  0.7485433022497290  0.7534646923521038
  0.5034357365245228  0.9201663034774228  0.0061286017958366
  0.8433522605549797  0.5846427053210022  0.9928890263083403
  0.8426064142354974  0.9051839043350398  0.5012031892850928
  0.8446857469844105  0.9134787935716844  0.9971398121086352
 
  0.00000000E+00  0.00000000E+00  0.00000000E+00
  0.00000000E+00  0.00000000E+00  0.00000000E+00
  0.00000000E+00  0.00000000E+00  0.00000000E+00
  0.00000000E+00  0.00000000E+00  0.00000000E+00
  0.00000000E+00  0.00000000E+00  0.00000000E+00
  0.00000000E+00  0.00000000E+00  0.00000000E+00
  0.00000000E+00  0.00000000E+00  0.00000000E+00
  0.00000000E+00  0.00000000E+00  0.00000000E+00
  0.00000000E+00  0.00000000E+00  0.00000000E+00
  0.00000000E+00  0.00000000E+00  0.00000000E+00
  0.00000000E+00  0.00000000E+00  0.00000000E+00
  0.00000000E+00  0.00000000E+00  0.00000000E+00
  0.00000000E+00  0.00000000E+00  0.00000000E+00
  0.00000000E+00  0.00000000E+00  0.00000000E+00
  0.00000000E+00  0.00000000E+00  0.00000000E+00
  0.00000000E+00  0.00000000E+00  0.00000000E+00
  0.00000000E+00  0.00000000E+00  0.00000000E+00
  0.00000000E+00  0.00000000E+00  0.00000000E+00
  0.00000000E+00  0.00000000E+00  0.00000000E+00
  0.00000000E+00  0.00000000E+00  0.00000000E+00
  0.00000000E+00  0.00000000E+00  0.00000000E+00
  0.00000000E+00  0.00000000E+00  0.00000000E+00
  0.00000000E+00  0.00000000E+00  0.00000000E+00
  0.00000000E+00  0.00000000E+00  0.00000000E+00
  0.00000000E+00  0.00000000E+00  0.00000000E+00
  0.00000000E+00  0.00000000E+00  0.00000000E+00
  0.00000000E+00  0.00000000E+00  0.00000000E+00
  0.00000000E+00  0.00000000E+00  0.00000000E+00
  0.00000000E+00  0.00000000E+00  0.00000000E+00
  0.00000000E+00  0.00000000E+00  0.00000000E+00
  0.00000000E+00  0.00000000E+00  0.00000000E+00
  0.00000000E+00  0.00000000E+00  0.00000000E+00
  0.00000000E+00  0.00000000E+00  0.00000000E+00
  0.00000000E+00  0.00000000E+00  0.00000000E+00
  0.00000000E+00  0.00000000E+00  0.00000000E+00
  0.00000000E+00  0.00000000E+00  0.00000000E+00
  0.00000000E+00  0.00000000E+00  0.00000000E+00
  0.00000000E+00  0.00000000E+00  0.00000000E+00
  0.00000000E+00  0.00000000E+00  0.00000000E+00
  0.00000000E+00  0.00000000E+00  0.00000000E+00
  0.00000000E+00  0.00000000E+00  0.00000000E+00
  0.00000000E+00  0.00000000E+00  0.00000000E+00
  0.00000000E+00  0.00000000E+00  0.00000000E+00
  0.00000000E+00  0.00000000E+00  0.00000000E+00
  0.00000000E+00  0.00000000E+00  0.00000000E+00
  0.00000000E+00  0.00000000E+00  0.00000000E+00
  0.00000000E+00  0.00000000E+00  0.00000000E+00
  0.00000000E+00  0.00000000E+00  0.00000000E+00
  0.00000000E+00  0.00000000E+00  0.00000000E+00
  0.00000000E+00  0.00000000E+00  0.00000000E+00
  0.00000000E+00  0.00000000E+00  0.00000000E+00
  0.00000000E+00  0.00000000E+00  0.00000000E+00
  0.00000000E+00  0.00000000E+00  0.00000000E+00
  0.00000000E+00  0.00000000E+00  0.00000000E+00
  0.00000000E+00  0.00000000E+00  0.00000000E+00
  0.00000000E+00  0.00000000E+00  0.00000000E+00
  0.00000000E+00  0.00000000E+00  0.00000000E+00
  0.00000000E+00  0.00000000E+00  0.00000000E+00
  0.00000000E+00  0.00000000E+00  0.00000000E+00
  0.00000000E+00  0.00000000E+00  0.00000000E+00
  0.00000000E+00  0.00000000E+00  0.00000000E+00
  0.00000000E+00  0.00000000E+00  0.00000000E+00
  0.00000000E+00  0.00000000E+00  0.00000000E+00
  0.00000000E+00  0.00000000E+00  0.00000000E+00
  0.00000000E+00  0.00000000E+00  0.00000000E+00
  0.00000000E+00  0.00000000E+00  0.00000000E+00
  0.00000000E+00  0.00000000E+00  0.00000000E+00
  0.00000000E+00  0.00000000E+00  0.00000000E+00
  0.00000000E+00  0.00000000E+00  0.00000000E+00
  0.00000000E+00  0.00000000E+00  0.00000000E+00
  0.00000000E+00  0.00000000E+00  0.00000000E+00
  0.00000000E+00  0.00000000E+00  0.00000000E+00
  0.00000000E+00  0.00000000E+00  0.00000000E+00
  0.00000000E+00  0.00000000E+00  0.00000000E+00
  0.00000000E+00  0.00000000E+00  0.00000000E+00
  0.00000000E+00  0.00000000E+00  0.00000000E+00
  0.00000000E+00  0.00000000E+00  0.00000000E+00
  0.00000000E+00  0.00000000E+00  0.00000000E+00
  0.00000000E+00  0.00000000E+00  0.00000000E+00
  0.00000000E+00  0.00000000E+00  0.00000000E+00
  0.00000000E+00  0.00000000E+00  0.00000000E+00
  0.00000000E+00  0.00000000E+00  0.00000000E+00
  0.00000000E+00  0.00000000E+00  0.00000000E+00
  0.00000000E+00  0.00000000E+00  0.00000000E+00
  0.00000000E+00  0.00000000E+00  0.00000000E+00
  0.00000000E+00  0.00000000E+00  0.00000000E+00
  0.00000000E+00  0.00000000E+00  0.00000000E+00
  0.00000000E+00  0.00000000E+00  0.00000000E+00
  0.00000000E+00  0.00000000E+00  0.00000000E+00
  0.00000000E+00  0.00000000E+00  0.00000000E+00
  0.00000000E+00  0.00000000E+00  0.00000000E+00
  0.00000000E+00  0.00000000E+00  0.00000000E+00
  0.00000000E+00  0.00000000E+00  0.00000000E+00
  0.00000000E+00  0.00000000E+00  0.00000000E+00
  0.00000000E+00  0.00000000E+00  0.00000000E+00
  0.00000000E+00  0.00000000E+00  0.00000000E+00
  0.00000000E+00  0.00000000E+00  0.00000000E+00
  0.00000000E+00  0.00000000E+00  0.00000000E+00
  0.00000000E+00  0.00000000E+00  0.00000000E+00
  0.00000000E+00  0.00000000E+00  0.00000000E+00
  0.00000000E+00  0.00000000E+00  0.00000000E+00
  0.00000000E+00  0.00000000E+00  0.00000000E+00
  0.00000000E+00  0.00000000E+00  0.00000000E+00
  0.00000000E+00  0.00000000E+00  0.00000000E+00
  0.00000000E+00  0.00000000E+00  0.00000000E+00
  0.00000000E+00  0.00000000E+00  0.00000000E+00
  0.00000000E+00  0.00000000E+00  0.00000000E+00
  0.00000000E+00  0.00000000E+00  0.00000000E+00
  0.00000000E+00  0.00000000E+00  0.00000000E+00
  0.00000000E+00  0.00000000E+00  0.00000000E+00
  0.00000000E+00  0.00000000E+00  0.00000000E+00
  0.00000000E+00  0.00000000E+00  0.00000000E+00
  0.00000000E+00  0.00000000E+00  0.00000000E+00
  0.00000000E+00  0.00000000E+00  0.00000000E+00
  0.00000000E+00  0.00000000E+00  0.00000000E+00
  0.00000000E+00  0.00000000E+00  0.00000000E+00
  0.00000000E+00  0.00000000E+00  0.00000000E+00
  0.00000000E+00  0.00000000E+00  0.00000000E+00
  0.00000000E+00  0.00000000E+00  0.00000000E+00
  0.00000000E+00  0.00000000E+00  0.00000000E+00
  0.00000000E+00  0.00000000E+00  0.00000000E+00
  0.00000000E+00  0.00000000E+00  0.00000000E+00
  0.00000000E+00  0.00000000E+00  0.00000000E+00
  0.00000000E+00  0.00000000E+00  0.00000000E+00
  0.00000000E+00  0.00000000E+00  0.00000000E+00
  0.00000000E+00  0.00000000E+00  0.00000000E+00
  0.00000000E+00  0.00000000E+00  0.00000000E+00
  0.00000000E+00  0.00000000E+00  0.00000000E+00
  0.00000000E+00  0.00000000E+00  0.00000000E+00
  0.00000000E+00  0.00000000E+00  0.00000000E+00
  0.00000000E+00  0.00000000E+00  0.00000000E+00
  0.00000000E+00  0.00000000E+00  0.00000000E+00
  0.00000000E+00  0.00000000E+00  0.00000000E+00
  0.00000000E+00  0.00000000E+00  0.00000000E+00
  0.00000000E+00  0.00000000E+00  0.00000000E+00
  0.00000000E+00  0.00000000E+00  0.00000000E+00
  0.00000000E+00  0.00000000E+00  0.00000000E+00
  0.00000000E+00  0.00000000E+00  0.00000000E+00
  0.00000000E+00  0.00000000E+00  0.00000000E+00
  0.00000000E+00  0.00000000E+00  0.00000000E+00
  0.00000000E+00  0.00000000E+00  0.00000000E+00
  0.00000000E+00  0.00000000E+00  0.00000000E+00
  0.00000000E+00  0.00000000E+00  0.00000000E+00
  0.00000000E+00  0.00000000E+00  0.00000000E+00
  0.00000000E+00  0.00000000E+00  0.00000000E+00
  0.00000000E+00  0.00000000E+00  0.00000000E+00
  0.00000000E+00  0.00000000E+00  0.00000000E+00
  0.00000000E+00  0.00000000E+00  0.00000000E+00
  0.00000000E+00  0.00000000E+00  0.00000000E+00
  0.00000000E+00  0.00000000E+00  0.00000000E+00
  0.00000000E+00  0.00000000E+00  0.00000000E+00
  0.00000000E+00  0.00000000E+00  0.00000000E+00
  0.00000000E+00  0.00000000E+00  0.00000000E+00
  0.00000000E+00  0.00000000E+00  0.00000000E+00
  0.00000000E+00  0.00000000E+00  0.00000000E+00
  0.00000000E+00  0.00000000E+00  0.00000000E+00
  0.00000000E+00  0.00000000E+00  0.00000000E+00
  0.00000000E+00  0.00000000E+00  0.00000000E+00
  0.00000000E+00  0.00000000E+00  0.00000000E+00
  0.00000000E+00  0.00000000E+00  0.00000000E+00
  0.00000000E+00  0.00000000E+00  0.00000000E+00
  0.00000000E+00  0.00000000E+00  0.00000000E+00
  0.00000000E+00  0.00000000E+00  0.00000000E+00
  0.00000000E+00  0.00000000E+00  0.00000000E+00
  0.00000000E+00  0.00000000E+00  0.00000000E+00
  0.00000000E+00  0.00000000E+00  0.00000000E+00
  0.00000000E+00  0.00000000E+00  0.00000000E+00
  0.00000000E+00  0.00000000E+00  0.00000000E+00
  0.00000000E+00  0.00000000E+00  0.00000000E+00
  0.00000000E+00  0.00000000E+00  0.00000000E+00
  0.00000000E+00  0.00000000E+00  0.00000000E+00
  0.00000000E+00  0.00000000E+00  0.00000000E+00
  0.00000000E+00  0.00000000E+00  0.00000000E+00
  0.00000000E+00  0.00000000E+00  0.00000000E+00
  0.00000000E+00  0.00000000E+00  0.00000000E+00
  0.00000000E+00  0.00000000E+00  0.00000000E+00
  0.00000000E+00  0.00000000E+00  0.00000000E+00
  0.00000000E+00  0.00000000E+00  0.00000000E+00
  0.00000000E+00  0.00000000E+00  0.00000000E+00
  0.00000000E+00  0.00000000E+00  0.00000000E+00
  0.00000000E+00  0.00000000E+00  0.00000000E+00
  0.00000000E+00  0.00000000E+00  0.00000000E+00
  0.00000000E+00  0.00000000E+00  0.00000000E+00
  0.00000000E+00  0.00000000E+00  0.00000000E+00
  0.00000000E+00  0.00000000E+00  0.00000000E+00
  0.00000000E+00  0.00000000E+00  0.00000000E+00
  0.00000000E+00  0.00000000E+00  0.00000000E+00
  0.00000000E+00  0.00000000E+00  0.00000000E+00
  0.00000000E+00  0.00000000E+00  0.00000000E+00
  0.00000000E+00  0.00000000E+00  0.00000000E+00
  0.00000000E+00  0.00000000E+00  0.00000000E+00
  0.00000000E+00  0.00000000E+00  0.00000000E+00
  0.00000000E+00  0.00000000E+00  0.00000000E+00
  0.00000000E+00  0.00000000E+00  0.00000000E+00
  0.00000000E+00  0.00000000E+00  0.00000000E+00
  0.00000000E+00  0.00000000E+00  0.00000000E+00
  0.00000000E+00  0.00000000E+00  0.00000000E+00
  0.00000000E+00  0.00000000E+00  0.00000000E+00
  0.00000000E+00  0.00000000E+00  0.00000000E+00
  0.00000000E+00  0.00000000E+00  0.00000000E+00
  0.00000000E+00  0.00000000E+00  0.00000000E+00
  0.00000000E+00  0.00000000E+00  0.00000000E+00
  0.00000000E+00  0.00000000E+00  0.00000000E+00
  0.00000000E+00  0.00000000E+00  0.00000000E+00
  0.00000000E+00  0.00000000E+00  0.00000000E+00
  0.00000000E+00  0.00000000E+00  0.00000000E+00
  0.00000000E+00  0.00000000E+00  0.00000000E+00
  0.00000000E+00  0.00000000E+00  0.00000000E+00
  0.00000000E+00  0.00000000E+00  0.00000000E+00
  0.00000000E+00  0.00000000E+00  0.00000000E+00
  0.00000000E+00  0.00000000E+00  0.00000000E+00
  0.00000000E+00  0.00000000E+00  0.00000000E+00
  0.00000000E+00  0.00000000E+00  0.00000000E+00
  0.00000000E+00  0.00000000E+00  0.00000000E+00
  0.00000000E+00  0.00000000E+00  0.00000000E+00
  0.00000000E+00  0.00000000E+00  0.00000000E+00
  0.00000000E+00  0.00000000E+00  0.00000000E+00
  0.00000000E+00  0.00000000E+00  0.00000000E+00
  0.00000000E+00  0.00000000E+00  0.00000000E+00
  0.00000000E+00  0.00000000E+00  0.00000000E+00
  0.00000000E+00  0.00000000E+00  0.00000000E+00
  0.00000000E+00  0.00000000E+00  0.00000000E+00
  0.00000000E+00  0.00000000E+00  0.00000000E+00
  0.00000000E+00  0.00000000E+00  0.00000000E+00
  0.00000000E+00  0.00000000E+00  0.00000000E+00
  0.00000000E+00  0.00000000E+00  0.00000000E+00
  0.00000000E+00  0.00000000E+00  0.00000000E+00
  0.00000000E+00  0.00000000E+00  0.00000000E+00
  0.00000000E+00  0.00000000E+00  0.00000000E+00
  0.00000000E+00  0.00000000E+00  0.00000000E+00
  0.00000000E+00  0.00000000E+00  0.00000000E+00
  0.00000000E+00  0.00000000E+00  0.00000000E+00
  0.00000000E+00  0.00000000E+00  0.00000000E+00
  0.00000000E+00  0.00000000E+00  0.00000000E+00
  0.00000000E+00  0.00000000E+00  0.00000000E+00
  0.00000000E+00  0.00000000E+00  0.00000000E+00
  0.00000000E+00  0.00000000E+00  0.00000000E+00
  0.00000000E+00  0.00000000E+00  0.00000000E+00
  0.00000000E+00  0.00000000E+00  0.00000000E+00
  0.00000000E+00  0.00000000E+00  0.00000000E+00
  0.00000000E+00  0.00000000E+00  0.00000000E+00
  0.00000000E+00  0.00000000E+00  0.00000000E+00
  0.00000000E+00  0.00000000E+00  0.00000000E+00
  0.00000000E+00  0.00000000E+00  0.00000000E+00
  0.00000000E+00  0.00000000E+00  0.00000000E+00
  0.00000000E+00  0.00000000E+00  0.00000000E+00
  0.00000000E+00  0.00000000E+00  0.00000000E+00
  0.00000000E+00  0.00000000E+00  0.00000000E+00
  0.00000000E+00  0.00000000E+00  0.00000000E+00
  0.00000000E+00  0.00000000E+00  0.00000000E+00
  0.00000000E+00  0.00000000E+00  0.00000000E+00
  0.00000000E+00  0.00000000E+00  0.00000000E+00
