POSCAR                                  
   1.00000000000000     
    10.3012079164143575    0.0263288477800842    0.0397653045819279
     0.0264386391289170   10.3257612411615565   -0.0682322390433592
     0.0264900311970405   -0.0454228982636822    6.8787264320732220
   Y    K    Sc   Zr   H 
     9     9     9     9   216
Direct
  0.1732191518843859  0.1689698100705144  0.2538101749638302
  0.1678118440976992  0.8258078548078630  0.2545817823078884
  0.3284616916187826  0.6672514077333760  0.4928234298260597
  0.8304557381441150  0.1696538317929689  0.7520638071746311
  0.8347254573176409  0.4980496279341073  0.2453351847790367
  0.4923029608463446  0.8358410586646793  0.7477735540360747
  0.3349731482709839 -0.0024627005728074 -0.0019631100838041
  0.6704560733220574 -0.0018287090860682  0.4977612238890262
  0.6704073388581725 -0.0030838392761443  0.0025194740261555
  0.1554195274824120  0.1827538966513865  0.7604292719058958
  0.1547026277723170  0.8439066289032602  0.7636847776340563
  0.4870466309602369  0.5116406809921070  0.7654746584318621
  0.3442976194590409  0.6595962659065738 -0.0118558288281658
  0.6705523289363475  0.3335733393058695  0.0030979419186073
  0.6774779659602043  0.6671806996334880  0.0120564261418966
  0.0122713673698691  0.3216292681723285 -0.0188691161374441
  0.8233589884790989  0.8272243985008838  0.2398849467402895
  0.0150369988484376 -0.0164004638865433 -0.0160995331125741
  0.1600624454147184  0.4991469650428287  0.2512507451765216
  0.3305667200866657  0.3391617981880584  0.5045016194552115
  0.1695279830508885  0.5048195848710606  0.7417289043102059
  0.5097245849801451  0.4882196527698031  0.2609864251405669
  0.4975799863443317  0.8408965331202939  0.2574137094825639
  0.3307397341610687  0.0059354385738443  0.5074567140913865
  0.0012465988237246  0.3383305729825294  0.4927733467607969
  0.8380022302270462  0.8282667458516838  0.7470273551775690
  0.0037156858123312  0.6593209379382537 -0.0024144803048179
  0.4934412871980774  0.1696444326433623  0.2545638708828507
  0.4995209326366259  0.1709676246250452  0.7504051216633013
  0.3361414206021324  0.3421349650516852  0.0039955757481018
  0.8427918257190395  0.1655209436841951  0.2371746468225190
  0.6611350293152820  0.3335801630297296  0.5057445093428321
  0.6599388028651300  0.6672396842588916  0.5045825417497238
  0.8287998794487522  0.4969579685115351  0.7539296312333236
  0.0012157755037450  0.6608978019064116  0.4987900199775978
 -0.0065650373826428  0.0070463651565014  0.4883455330724971
  0.1674488019343388  0.0879831175843313 -0.0085465147188004
  0.1727946043302698  0.0927254363804540  0.5120550222861390
  0.1648750814019077  0.4208528131717513  0.0203957855759697
  0.4992549938604449  0.0857732594428500 -0.0049132150358622
  0.3340667300829826  0.2573716231031427  0.2573088240762199
  0.1624762683985068  0.4206941198709244  0.4912919912278655
  0.4966341926460467  0.0869869834747962  0.5055547651033147
  0.3267385409387834  0.2547842187450720  0.7431089088818728
  0.1627830383502516  0.7387011827683910 -0.0037980124267435
  0.4996863490191373  0.4117060147825899  0.0054384282491033
  0.3564908894823139  0.5820696033192250  0.2417486028294657
  0.1601994367444792  0.7524998513571673  0.5148287288359861
  0.8465971809599814  0.0748780503542535 -0.0056099890490574
  0.6689856492107780  0.2479965957257929  0.2515394446949020
  0.4948822610250538  0.4198039192173313  0.5113089352719732
  0.3180451019112339  0.5868206669465719  0.7368900404823814
  0.8332935553114464  0.0898501661535372  0.4911836780563191
  0.6637165151083260  0.2573075910969073  0.7512128467385446
  0.5051370830812787  0.7446691173837765  0.0380086503656865
  0.3353789489320409  0.9168296645814699  0.2639381911154282
  0.8452939392825489  0.4063665627481891  0.0030168029308393
  0.6523887854960635  0.5807760561653378  0.2503937815133996
  0.4963869194258956  0.7506810318345063  0.4777933672268928
  0.3239377309322903  0.9219757148224078  0.7296727169280040
  0.0029115659119996  0.2511650627342283  0.2514255765851121
  0.8385177674303805  0.4142372073666991  0.4953500728479032
  0.6625844176194828  0.5875986801564769  0.7498394137011255
 -0.0101680535711281  0.2569210425169124  0.7164044100223153
  0.8475551079643892  0.7480576036274709 -0.0185836245609890
  0.6567522182948629  0.9131677019332630  0.2535919909014589
  0.0055801117079865  0.5779108966469857  0.2353341106875865
  0.8384097040059829  0.7474200752789931  0.5006024156401991
  0.6728895469533284  0.9114071483294058  0.7443530441747469
 -0.0062781254491112  0.5771811524608746  0.7591968800112225
 -0.0063038975403258  0.9112816457604392  0.2448005652307509
 -0.0166765219117482  0.9144385512627096  0.7199608187599278
  0.0907814936237635  0.1492263983921696  0.0178609550099638
  0.0845009715351776  0.1665482366446532  0.5020730494606374
  0.0828980196733921  0.4942962841642224 -0.0228811773511035
  0.4190929855690719  0.1697147570489232  0.0036829203271466
  0.2495599791828721  0.3450725104360013  0.2645087251005097
  0.0815276394465101  0.4917756613087630  0.5134716146502691
  0.4134791576108651  0.1768971365582452  0.5038830852650413
  0.2465011011443118  0.3418352479798470  0.7325989602380644
  0.0846031656196068  0.8114002939300975  0.0128501566475645
  0.4237388061526118  0.4968553890963612  0.0396218594321689
  0.2515758148378699  0.6545768173855203  0.2330856955212376
  0.0836562242637073  0.8472005819917923  0.5090610668709401
  0.7486907189020834  0.1637054333776764  0.0086195405028118
  0.5869372390616249  0.3270609752883685  0.2540671329317721
  0.4159655110070873  0.4955298745811549  0.4921575136797366
  0.2402673675343967  0.6697162418362990  0.7495693550284068
  0.7520264952990249  0.1714994324344442  0.4883502138960669
  0.5749150287011119  0.3395447548172908  0.7574271735965947
  0.4222161338303794  0.8314450189931372  0.0169688052248416
  0.2506584734865835 -0.0012470308503508  0.2679132814584202
  0.7548426282234227  0.4999244541853171 -0.0046177208588825
  0.5824445652890726  0.6428446160440340  0.2535575754260213
  0.4124355140700850  0.8365564085628890  0.4941497130389775
  0.2404271566849161  0.0110788076059653  0.7433974899584106
  0.9271140944730030  0.3333718690099968  0.2442378980680775
  0.7486616463942609  0.4973173017602052  0.5069423279577465
  0.5798426222329892  0.6714119022529497  0.7789593746026358
  0.9199980749777219  0.3381915246490132  0.7382071112267989
  0.7516460328613205  0.8318574189452917 -0.0288533494038634
  0.5840935669095935  0.0107434825117562  0.2518986637336904
  0.9153964547379549  0.6673923518848160  0.2660594251104568
  0.7501402328378887  0.8255226074582794  0.5097380747624461
  0.5847679374351342  0.0012899679798199  0.7503295764630034
  0.9153864920805643  0.6629783130144609  0.7350451843246932
  0.9251687594116368 -0.0109081455293713  0.2365127820105763
  0.9152290221916294 -0.0150436614158927  0.7507607725946263
  0.1711767576287130 -0.0066858501519769  0.1341839607193102
  0.1682631882124522  0.0102092873772258  0.6257742759067939
  0.1668681613412072  0.3458986701942838  0.1244169245722329
  0.5005933851694903 -0.0010724597032915  0.1327818775008445
  0.3362829945600656  0.1704775757371636  0.3916490090371175
  0.1730069292280050  0.3425734756645106  0.6247004300669489
  0.4938468959682339  0.0032154712315920  0.6155093103994848
  0.3288496828431259  0.1730667805623181  0.8727934315376511
  0.1694742657459609  0.6547227531975145  0.1191891332156430
  0.5014588426094237  0.3310635274765893  0.1287920826352856
  0.3194833979440739  0.4966309165879326  0.3689167645758648
  0.1601587402603700  0.6728712522298900  0.6366425719897693
  0.8444239143960527 -0.0084875466968259  0.1092533442811482
  0.6626858433206165  0.1669250512937448  0.3775495013332543
  0.4895069037388782  0.3397636051703862  0.6302452649648851
  0.3136754210363498  0.4916987360319797  0.8745141958487593
  0.8356337889207729  0.0027055045363871  0.6223143955388751
  0.6607133870502134  0.1661053345167891  0.8786207479379629
  0.5072988789595697  0.6859817855222067  0.1266000916317278
  0.3368239062196017  0.8444388278911290  0.3762691855999932
  0.8441929342726928  0.3345649373065363  0.1100495060034871
  0.6701115544692560  0.4997152391289532  0.3839806202863794
  0.4960866155100656  0.6698380853339254  0.6239103047716497
  0.3244646967174288  0.8259892517426908  0.8748123255508472
  0.0011847722196709  0.1736970014288790  0.3685756312737456
  0.8310236784215842  0.3348206105985136  0.6181106637609325
  0.6502330298011852  0.4986145692566682  0.8897467614595701
 -0.0120805434855653  0.1461791979270660  0.8702277389807722
  0.8509330950389253  0.6603359252780117  0.1147459488218553
  0.6589784162341497  0.8287084861459497  0.3715200750863119
  0.0018197284930895  0.4968440473897285  0.3723523989017011
  0.8366367163365007  0.6665541939608145  0.6348703970683753
  0.6568132006479633  0.8254549541059195  0.8837441452193244
  0.0181821635466148  0.4978600761667603  0.8795145128435390
 -0.0070648555576957  0.8223718702847810  0.3784574610350500
 -0.0118862373966639  0.8110250294527646  0.8721560384667874
  0.0873773940109129  0.0024090775561035  0.2469739712194687
  0.0783801305858168  0.0158023095885770  0.7177167209488454
  0.0884034853076597  0.3361884469171194  0.2474250318169377
  0.4179004697787710  0.0006481445659832  0.2548136645530085
  0.2476307506635290  0.1655147491011384  0.5128025918089283
  0.0838709023407036  0.3564196807916956  0.7247589858203033
  0.4167124617443452  0.0093749899602923  0.7448156281305629
  0.2574148144478084  0.1698028128368902 -0.0050435757166109
  0.0826952120686297  0.6590002834925029  0.2453932420735301
  0.4128645926037308  0.3462811368605913  0.2634875465496373
  0.2483694640675282  0.4967535997791664  0.4870235219747138
  0.0784944104019641  0.6658086132345657  0.7474815802750077
  0.7557757111866849  0.0055111654729795  0.2493318027130725
  0.5824089002219013  0.1665815270942503  0.4894588607108594
  0.4141999336012716  0.3398044036961963  0.7402212667542588
  0.2487379750911931  0.5077732017483271  0.0267903324398587
  0.7512143757685928 -0.0037109624836828  0.7470639485287288
  0.5858139333362680  0.1696089619910834  0.0153880451609301
  0.4195612645949985  0.6394176431448515  0.2449133622959941
  0.2464985184118697  0.8390846455831042  0.5118631183514741
  0.7506103548755203  0.3265115764274177  0.2599040553607651
  0.5778245246219311  0.4992780800743080  0.5162504902916693
  0.4086851972404722  0.6756007752335494  0.7302415464505789
  0.2547005093884689  0.8293125168299542  0.0014751699661604
  0.9164652503400378  0.1747770711221297  0.4971398307765600
  0.7402235507820345  0.3340757735282894  0.7437896798009165
  0.5897510199947411  0.5060088847771759 -0.0037645801429391
  0.9281271148832994  0.1527605488550581 -0.0148608692894932
  0.7480488769103798  0.6610934726525270  0.2714732540786931
  0.5796987707420292  0.8353779274988959  0.5027856286958259
  0.9139204894894501  0.4939939164539561  0.5071182153240061
  0.7516435329599483  0.6718783344493741  0.7482316019088996
  0.5898838589075037  0.8288005403755579 -0.0148798261166635
  0.9237349014480966  0.4944564011667381 -0.0129829388647113
  0.9114516049963313  0.8319946440784058  0.4901186526356614
  0.9083718724351876  0.8316896003753635 -0.0106196391621683
  0.0085967055802925  0.1567382259744389  0.1168989315712214
 -0.0051595093182382  0.1747557404307098  0.6127421175313298
  0.0062627214619103  0.4946911262390319  0.1210460461596635
  0.3399361757556067  0.1681249196413223  0.1178556621843127
  0.1747671573469774  0.3446651129284325  0.3770543884769242
  0.0037877191784040  0.5014528854274831  0.6217932623331802
  0.3284727904867469  0.1759225053931283  0.6359629454726528
  0.1812207514287117  0.3578215420055795  0.8719808462219328
 -0.0012549606408101  0.8174634828213778  0.1312727541256181
  0.3116705867019489  0.5029444827995322  0.1278532769468286
  0.1597076964634508  0.6575071716015274  0.3688026505399324
 -0.0035312826805206  0.8142269565980959  0.6226907621986415
  0.6624017423741850  0.1675825423940311  0.1254188208694172
  0.4900604701056782  0.3296941484476068  0.3803405084574760
  0.3264610393009033  0.4950375568902636  0.6225567987443534
  0.1697307130967128  0.6646978413766440  0.8782796765343500
  0.6643438388400000  0.1671796108491880  0.6224897412778525
  0.5025905485300605  0.3415686342169244  0.8805515632492961
  0.3442880355345028  0.8242655786203001  0.1267340069017842
  0.1751178348062790 -0.0024784286313133  0.3850918454554213
  0.6634718200661960  0.4996204566827478  0.1355625193719089
  0.4963432531509014  0.6836217552395744  0.3655249394967031
  0.3191619649298922  0.8482431808701926  0.6251597270027877
  0.1807048640692692  0.0193227187617169  0.8723024772179639
  0.8413531018511573  0.3317207835743188  0.3748292706110083
  0.6553978929355759  0.5003122943498305  0.6303050632096284
  0.5183656943075627  0.6788937867049506  0.8785708134319564
  0.8406818241993884  0.3400599262711568  0.8691560600476835
  0.6474663748755142  0.8318034684401511  0.1287435727407645
  0.4951762226554318  0.0019774439849805  0.3761936479336006
  0.8410413423850872  0.6663418481467518  0.3728257912161065
  0.6706609185662927  0.8340278979063500  0.6340816099383400
  0.5037401888855143  0.0022373460377556  0.8809329055336419
  0.8409221090762483  0.6661178671549730  0.8732466670975936
  0.8348188941628982 -0.0023605740236983  0.3617673737027310
  0.8467929711922961 -0.0009199326143520  0.8674588300449334
  0.0045005403600644  0.0758548251276760  0.2359698367436361
  0.0011556658930789  0.0820911821398345  0.7441187471058247
  0.0001413829483710  0.4111127898677263  0.2354283755446781
  0.3359341425140518  0.0791981523516209  0.2625349296014159
  0.1662358883635403  0.2579479802500829  0.5040608646320490
 -0.0061798473225181  0.4193126321208352  0.7417608605735844
  0.3288585284943119  0.0936894615713288  0.7433526667788531
  0.1840703609116061  0.2567454804484658  0.0133596324216462
 -0.0063002812498775  0.7495620855997196  0.2383968998640522
  0.3452525688413065  0.4191105086174412  0.2545999972086128
  0.1658363683214966  0.5795511861527562  0.4998555597293929
 -0.0019418966807707  0.7472590786758424  0.7683612987691778
  0.6639600479800669  0.0850219168484786  0.2536547180117603
  0.4935157512839237  0.2522432429882960  0.5109240621460505
  0.3295890013140204  0.4181212927994875  0.7419591925678983
  0.1715446249017718  0.5792195290553038 -0.0018742795705628
  0.6668432495297766  0.0801180136909760  0.7494272819479982
  0.5005836588973256  0.2488249630762108 -0.0014587905242870
  0.3445236637130076  0.7505197018567104  0.2383552191870326
  0.1478009008551405  0.9130870193771350  0.5065731280754677
  0.6679531547328166  0.4081367693343994  0.2607068224643426
  0.4998636797893888  0.5798942140824690  0.4868379997314435
  0.3235717785178305  0.7564600122087076  0.7490744073654205
  0.1796943142701028  0.9064326569292401  0.0199025097270526
  0.8401425976235682  0.2533427827400589  0.4893133538195735
  0.6573657672499703  0.4233051117915565  0.7533220562249175
  0.5108579343945996  0.5760909062869888  0.0444701515357527
  0.8399078581266753  0.2470508863426689  0.0063148793385541
  0.6464029375284813  0.7494439869435165  0.2598339709328995
  0.4972431017022080  0.9255517385390973  0.4997506056049462
  0.8266804469870064  0.5835101598343931  0.5043616637724464
  0.6672362079059113  0.7492233442619425  0.7529454184404631
  0.5029986490409134  0.9203038640604569  0.0065768341238157
  0.8449932723230372  0.5841448147817770 -0.0059978785494780
  0.8440801436945299  0.9051647743432450  0.5020413346290979
  0.8471763328982989  0.9126457644909646 -0.0025602878359929
 
  0.00000000E+00  0.00000000E+00  0.00000000E+00
  0.00000000E+00  0.00000000E+00  0.00000000E+00
  0.00000000E+00  0.00000000E+00  0.00000000E+00
  0.00000000E+00  0.00000000E+00  0.00000000E+00
  0.00000000E+00  0.00000000E+00  0.00000000E+00
  0.00000000E+00  0.00000000E+00  0.00000000E+00
  0.00000000E+00  0.00000000E+00  0.00000000E+00
  0.00000000E+00  0.00000000E+00  0.00000000E+00
  0.00000000E+00  0.00000000E+00  0.00000000E+00
  0.00000000E+00  0.00000000E+00  0.00000000E+00
  0.00000000E+00  0.00000000E+00  0.00000000E+00
  0.00000000E+00  0.00000000E+00  0.00000000E+00
  0.00000000E+00  0.00000000E+00  0.00000000E+00
  0.00000000E+00  0.00000000E+00  0.00000000E+00
  0.00000000E+00  0.00000000E+00  0.00000000E+00
  0.00000000E+00  0.00000000E+00  0.00000000E+00
  0.00000000E+00  0.00000000E+00  0.00000000E+00
  0.00000000E+00  0.00000000E+00  0.00000000E+00
  0.00000000E+00  0.00000000E+00  0.00000000E+00
  0.00000000E+00  0.00000000E+00  0.00000000E+00
  0.00000000E+00  0.00000000E+00  0.00000000E+00
  0.00000000E+00  0.00000000E+00  0.00000000E+00
  0.00000000E+00  0.00000000E+00  0.00000000E+00
  0.00000000E+00  0.00000000E+00  0.00000000E+00
  0.00000000E+00  0.00000000E+00  0.00000000E+00
  0.00000000E+00  0.00000000E+00  0.00000000E+00
  0.00000000E+00  0.00000000E+00  0.00000000E+00
  0.00000000E+00  0.00000000E+00  0.00000000E+00
  0.00000000E+00  0.00000000E+00  0.00000000E+00
  0.00000000E+00  0.00000000E+00  0.00000000E+00
  0.00000000E+00  0.00000000E+00  0.00000000E+00
  0.00000000E+00  0.00000000E+00  0.00000000E+00
  0.00000000E+00  0.00000000E+00  0.00000000E+00
  0.00000000E+00  0.00000000E+00  0.00000000E+00
  0.00000000E+00  0.00000000E+00  0.00000000E+00
  0.00000000E+00  0.00000000E+00  0.00000000E+00
  0.00000000E+00  0.00000000E+00  0.00000000E+00
  0.00000000E+00  0.00000000E+00  0.00000000E+00
  0.00000000E+00  0.00000000E+00  0.00000000E+00
  0.00000000E+00  0.00000000E+00  0.00000000E+00
  0.00000000E+00  0.00000000E+00  0.00000000E+00
  0.00000000E+00  0.00000000E+00  0.00000000E+00
  0.00000000E+00  0.00000000E+00  0.00000000E+00
  0.00000000E+00  0.00000000E+00  0.00000000E+00
  0.00000000E+00  0.00000000E+00  0.00000000E+00
  0.00000000E+00  0.00000000E+00  0.00000000E+00
  0.00000000E+00  0.00000000E+00  0.00000000E+00
  0.00000000E+00  0.00000000E+00  0.00000000E+00
  0.00000000E+00  0.00000000E+00  0.00000000E+00
  0.00000000E+00  0.00000000E+00  0.00000000E+00
  0.00000000E+00  0.00000000E+00  0.00000000E+00
  0.00000000E+00  0.00000000E+00  0.00000000E+00
  0.00000000E+00  0.00000000E+00  0.00000000E+00
  0.00000000E+00  0.00000000E+00  0.00000000E+00
  0.00000000E+00  0.00000000E+00  0.00000000E+00
  0.00000000E+00  0.00000000E+00  0.00000000E+00
  0.00000000E+00  0.00000000E+00  0.00000000E+00
  0.00000000E+00  0.00000000E+00  0.00000000E+00
  0.00000000E+00  0.00000000E+00  0.00000000E+00
  0.00000000E+00  0.00000000E+00  0.00000000E+00
  0.00000000E+00  0.00000000E+00  0.00000000E+00
  0.00000000E+00  0.00000000E+00  0.00000000E+00
  0.00000000E+00  0.00000000E+00  0.00000000E+00
  0.00000000E+00  0.00000000E+00  0.00000000E+00
  0.00000000E+00  0.00000000E+00  0.00000000E+00
  0.00000000E+00  0.00000000E+00  0.00000000E+00
  0.00000000E+00  0.00000000E+00  0.00000000E+00
  0.00000000E+00  0.00000000E+00  0.00000000E+00
  0.00000000E+00  0.00000000E+00  0.00000000E+00
  0.00000000E+00  0.00000000E+00  0.00000000E+00
  0.00000000E+00  0.00000000E+00  0.00000000E+00
  0.00000000E+00  0.00000000E+00  0.00000000E+00
  0.00000000E+00  0.00000000E+00  0.00000000E+00
  0.00000000E+00  0.00000000E+00  0.00000000E+00
  0.00000000E+00  0.00000000E+00  0.00000000E+00
  0.00000000E+00  0.00000000E+00  0.00000000E+00
  0.00000000E+00  0.00000000E+00  0.00000000E+00
  0.00000000E+00  0.00000000E+00  0.00000000E+00
  0.00000000E+00  0.00000000E+00  0.00000000E+00
  0.00000000E+00  0.00000000E+00  0.00000000E+00
  0.00000000E+00  0.00000000E+00  0.00000000E+00
  0.00000000E+00  0.00000000E+00  0.00000000E+00
  0.00000000E+00  0.00000000E+00  0.00000000E+00
  0.00000000E+00  0.00000000E+00  0.00000000E+00
  0.00000000E+00  0.00000000E+00  0.00000000E+00
  0.00000000E+00  0.00000000E+00  0.00000000E+00
  0.00000000E+00  0.00000000E+00  0.00000000E+00
  0.00000000E+00  0.00000000E+00  0.00000000E+00
  0.00000000E+00  0.00000000E+00  0.00000000E+00
  0.00000000E+00  0.00000000E+00  0.00000000E+00
  0.00000000E+00  0.00000000E+00  0.00000000E+00
  0.00000000E+00  0.00000000E+00  0.00000000E+00
  0.00000000E+00  0.00000000E+00  0.00000000E+00
  0.00000000E+00  0.00000000E+00  0.00000000E+00
  0.00000000E+00  0.00000000E+00  0.00000000E+00
  0.00000000E+00  0.00000000E+00  0.00000000E+00
  0.00000000E+00  0.00000000E+00  0.00000000E+00
  0.00000000E+00  0.00000000E+00  0.00000000E+00
  0.00000000E+00  0.00000000E+00  0.00000000E+00
  0.00000000E+00  0.00000000E+00  0.00000000E+00
  0.00000000E+00  0.00000000E+00  0.00000000E+00
  0.00000000E+00  0.00000000E+00  0.00000000E+00
  0.00000000E+00  0.00000000E+00  0.00000000E+00
  0.00000000E+00  0.00000000E+00  0.00000000E+00
  0.00000000E+00  0.00000000E+00  0.00000000E+00
  0.00000000E+00  0.00000000E+00  0.00000000E+00
  0.00000000E+00  0.00000000E+00  0.00000000E+00
  0.00000000E+00  0.00000000E+00  0.00000000E+00
  0.00000000E+00  0.00000000E+00  0.00000000E+00
  0.00000000E+00  0.00000000E+00  0.00000000E+00
  0.00000000E+00  0.00000000E+00  0.00000000E+00
  0.00000000E+00  0.00000000E+00  0.00000000E+00
  0.00000000E+00  0.00000000E+00  0.00000000E+00
  0.00000000E+00  0.00000000E+00  0.00000000E+00
  0.00000000E+00  0.00000000E+00  0.00000000E+00
  0.00000000E+00  0.00000000E+00  0.00000000E+00
  0.00000000E+00  0.00000000E+00  0.00000000E+00
  0.00000000E+00  0.00000000E+00  0.00000000E+00
  0.00000000E+00  0.00000000E+00  0.00000000E+00
  0.00000000E+00  0.00000000E+00  0.00000000E+00
  0.00000000E+00  0.00000000E+00  0.00000000E+00
  0.00000000E+00  0.00000000E+00  0.00000000E+00
  0.00000000E+00  0.00000000E+00  0.00000000E+00
  0.00000000E+00  0.00000000E+00  0.00000000E+00
  0.00000000E+00  0.00000000E+00  0.00000000E+00
  0.00000000E+00  0.00000000E+00  0.00000000E+00
  0.00000000E+00  0.00000000E+00  0.00000000E+00
  0.00000000E+00  0.00000000E+00  0.00000000E+00
  0.00000000E+00  0.00000000E+00  0.00000000E+00
  0.00000000E+00  0.00000000E+00  0.00000000E+00
  0.00000000E+00  0.00000000E+00  0.00000000E+00
  0.00000000E+00  0.00000000E+00  0.00000000E+00
  0.00000000E+00  0.00000000E+00  0.00000000E+00
  0.00000000E+00  0.00000000E+00  0.00000000E+00
  0.00000000E+00  0.00000000E+00  0.00000000E+00
  0.00000000E+00  0.00000000E+00  0.00000000E+00
  0.00000000E+00  0.00000000E+00  0.00000000E+00
  0.00000000E+00  0.00000000E+00  0.00000000E+00
  0.00000000E+00  0.00000000E+00  0.00000000E+00
  0.00000000E+00  0.00000000E+00  0.00000000E+00
  0.00000000E+00  0.00000000E+00  0.00000000E+00
  0.00000000E+00  0.00000000E+00  0.00000000E+00
  0.00000000E+00  0.00000000E+00  0.00000000E+00
  0.00000000E+00  0.00000000E+00  0.00000000E+00
  0.00000000E+00  0.00000000E+00  0.00000000E+00
  0.00000000E+00  0.00000000E+00  0.00000000E+00
  0.00000000E+00  0.00000000E+00  0.00000000E+00
  0.00000000E+00  0.00000000E+00  0.00000000E+00
  0.00000000E+00  0.00000000E+00  0.00000000E+00
  0.00000000E+00  0.00000000E+00  0.00000000E+00
  0.00000000E+00  0.00000000E+00  0.00000000E+00
  0.00000000E+00  0.00000000E+00  0.00000000E+00
  0.00000000E+00  0.00000000E+00  0.00000000E+00
  0.00000000E+00  0.00000000E+00  0.00000000E+00
  0.00000000E+00  0.00000000E+00  0.00000000E+00
  0.00000000E+00  0.00000000E+00  0.00000000E+00
  0.00000000E+00  0.00000000E+00  0.00000000E+00
  0.00000000E+00  0.00000000E+00  0.00000000E+00
  0.00000000E+00  0.00000000E+00  0.00000000E+00
  0.00000000E+00  0.00000000E+00  0.00000000E+00
  0.00000000E+00  0.00000000E+00  0.00000000E+00
  0.00000000E+00  0.00000000E+00  0.00000000E+00
  0.00000000E+00  0.00000000E+00  0.00000000E+00
  0.00000000E+00  0.00000000E+00  0.00000000E+00
  0.00000000E+00  0.00000000E+00  0.00000000E+00
  0.00000000E+00  0.00000000E+00  0.00000000E+00
  0.00000000E+00  0.00000000E+00  0.00000000E+00
  0.00000000E+00  0.00000000E+00  0.00000000E+00
  0.00000000E+00  0.00000000E+00  0.00000000E+00
  0.00000000E+00  0.00000000E+00  0.00000000E+00
  0.00000000E+00  0.00000000E+00  0.00000000E+00
  0.00000000E+00  0.00000000E+00  0.00000000E+00
  0.00000000E+00  0.00000000E+00  0.00000000E+00
  0.00000000E+00  0.00000000E+00  0.00000000E+00
  0.00000000E+00  0.00000000E+00  0.00000000E+00
  0.00000000E+00  0.00000000E+00  0.00000000E+00
  0.00000000E+00  0.00000000E+00  0.00000000E+00
  0.00000000E+00  0.00000000E+00  0.00000000E+00
  0.00000000E+00  0.00000000E+00  0.00000000E+00
  0.00000000E+00  0.00000000E+00  0.00000000E+00
  0.00000000E+00  0.00000000E+00  0.00000000E+00
  0.00000000E+00  0.00000000E+00  0.00000000E+00
  0.00000000E+00  0.00000000E+00  0.00000000E+00
  0.00000000E+00  0.00000000E+00  0.00000000E+00
  0.00000000E+00  0.00000000E+00  0.00000000E+00
  0.00000000E+00  0.00000000E+00  0.00000000E+00
  0.00000000E+00  0.00000000E+00  0.00000000E+00
  0.00000000E+00  0.00000000E+00  0.00000000E+00
  0.00000000E+00  0.00000000E+00  0.00000000E+00
  0.00000000E+00  0.00000000E+00  0.00000000E+00
  0.00000000E+00  0.00000000E+00  0.00000000E+00
  0.00000000E+00  0.00000000E+00  0.00000000E+00
  0.00000000E+00  0.00000000E+00  0.00000000E+00
  0.00000000E+00  0.00000000E+00  0.00000000E+00
  0.00000000E+00  0.00000000E+00  0.00000000E+00
  0.00000000E+00  0.00000000E+00  0.00000000E+00
  0.00000000E+00  0.00000000E+00  0.00000000E+00
  0.00000000E+00  0.00000000E+00  0.00000000E+00
  0.00000000E+00  0.00000000E+00  0.00000000E+00
  0.00000000E+00  0.00000000E+00  0.00000000E+00
  0.00000000E+00  0.00000000E+00  0.00000000E+00
  0.00000000E+00  0.00000000E+00  0.00000000E+00
  0.00000000E+00  0.00000000E+00  0.00000000E+00
  0.00000000E+00  0.00000000E+00  0.00000000E+00
  0.00000000E+00  0.00000000E+00  0.00000000E+00
  0.00000000E+00  0.00000000E+00  0.00000000E+00
  0.00000000E+00  0.00000000E+00  0.00000000E+00
  0.00000000E+00  0.00000000E+00  0.00000000E+00
  0.00000000E+00  0.00000000E+00  0.00000000E+00
  0.00000000E+00  0.00000000E+00  0.00000000E+00
  0.00000000E+00  0.00000000E+00  0.00000000E+00
  0.00000000E+00  0.00000000E+00  0.00000000E+00
  0.00000000E+00  0.00000000E+00  0.00000000E+00
  0.00000000E+00  0.00000000E+00  0.00000000E+00
  0.00000000E+00  0.00000000E+00  0.00000000E+00
  0.00000000E+00  0.00000000E+00  0.00000000E+00
  0.00000000E+00  0.00000000E+00  0.00000000E+00
  0.00000000E+00  0.00000000E+00  0.00000000E+00
  0.00000000E+00  0.00000000E+00  0.00000000E+00
  0.00000000E+00  0.00000000E+00  0.00000000E+00
  0.00000000E+00  0.00000000E+00  0.00000000E+00
  0.00000000E+00  0.00000000E+00  0.00000000E+00
  0.00000000E+00  0.00000000E+00  0.00000000E+00
  0.00000000E+00  0.00000000E+00  0.00000000E+00
  0.00000000E+00  0.00000000E+00  0.00000000E+00
  0.00000000E+00  0.00000000E+00  0.00000000E+00
  0.00000000E+00  0.00000000E+00  0.00000000E+00
  0.00000000E+00  0.00000000E+00  0.00000000E+00
  0.00000000E+00  0.00000000E+00  0.00000000E+00
  0.00000000E+00  0.00000000E+00  0.00000000E+00
  0.00000000E+00  0.00000000E+00  0.00000000E+00
  0.00000000E+00  0.00000000E+00  0.00000000E+00
  0.00000000E+00  0.00000000E+00  0.00000000E+00
  0.00000000E+00  0.00000000E+00  0.00000000E+00
  0.00000000E+00  0.00000000E+00  0.00000000E+00
  0.00000000E+00  0.00000000E+00  0.00000000E+00
  0.00000000E+00  0.00000000E+00  0.00000000E+00
  0.00000000E+00  0.00000000E+00  0.00000000E+00
  0.00000000E+00  0.00000000E+00  0.00000000E+00
  0.00000000E+00  0.00000000E+00  0.00000000E+00
  0.00000000E+00  0.00000000E+00  0.00000000E+00
  0.00000000E+00  0.00000000E+00  0.00000000E+00
  0.00000000E+00  0.00000000E+00  0.00000000E+00
  0.00000000E+00  0.00000000E+00  0.00000000E+00
  0.00000000E+00  0.00000000E+00  0.00000000E+00
  0.00000000E+00  0.00000000E+00  0.00000000E+00
  0.00000000E+00  0.00000000E+00  0.00000000E+00
  0.00000000E+00  0.00000000E+00  0.00000000E+00
  0.00000000E+00  0.00000000E+00  0.00000000E+00
  0.00000000E+00  0.00000000E+00  0.00000000E+00
  0.00000000E+00  0.00000000E+00  0.00000000E+00
  0.00000000E+00  0.00000000E+00  0.00000000E+00
