       N       E                     dE             d eps       ncg     rms          rms(c)
DAV:   1     0.106317549748E+05    0.10632E+05   -0.27146E+05 17656   0.170E+03
DAV:   2     0.125604257673E+04   -0.93757E+04   -0.87581E+04 23984   0.782E+02
DAV:   3    -0.473084306009E+03   -0.17291E+04   -0.16006E+04 29376   0.353E+02
DAV:   4    -0.725515268022E+03   -0.25243E+03   -0.24076E+03 32528   0.175E+02
DAV:   5    -0.753156890928E+03   -0.27642E+02   -0.26733E+02 32528   0.747E+01    0.292E+02
DAV:   6    -0.641817577775E+03    0.11134E+03   -0.21691E+02 30472   0.519E+01    0.172E+02
DAV:   7    -0.647406199820E+03   -0.55886E+01   -0.22959E+02 29456   0.441E+01    0.463E+01
DAV:   8    -0.643702675914E+03    0.37035E+01   -0.52417E+01 28136   0.378E+01    0.189E+01
DAV:   9    -0.641636451484E+03    0.20662E+01   -0.16889E+01 29800   0.171E+01    0.738E+00
DAV:  10    -0.641428004489E+03    0.20845E+00   -0.58226E+00 29672   0.900E+00    0.790E+00
DAV:  11    -0.641453413303E+03   -0.25409E-01   -0.10509E+00 30640   0.375E+00    0.604E+00
DAV:  12    -0.641437800899E+03    0.15612E-01   -0.22633E-01 30032   0.196E+00    0.287E+00
DAV:  13    -0.641422813453E+03    0.14987E-01   -0.14732E-01 27848   0.140E+00    0.183E+00
DAV:  14    -0.641418438349E+03    0.43751E-02   -0.34984E-02 29592   0.783E-01    0.674E-01
DAV:  15    -0.641419235793E+03   -0.79744E-03   -0.11414E-02 29616   0.340E-01    0.555E-01
DAV:  16    -0.641418701872E+03    0.53392E-03   -0.39932E-03 27272   0.270E-01    0.243E-01
DAV:  17    -0.641418782270E+03   -0.80398E-04   -0.94413E-04 30944   0.985E-02    0.225E-01
DAV:  18    -0.641418697323E+03    0.84947E-04   -0.41334E-04 28312   0.773E-02    0.434E-02
DAV:  19    -0.641418705278E+03   -0.79555E-05   -0.10173E-04 30688   0.329E-02    0.374E-02
DAV:  20    -0.641418706143E+03   -0.86446E-06   -0.11438E-05 24904   0.152E-02    0.264E-02
DAV:  21    -0.641418705946E+03    0.19655E-06   -0.20145E-06 16256   0.674E-03
   1 F= 0.27178881E+03 E0= 0.27178856E+03  d E =0.271789E+03
