generated by phonopy                    
   1.00000000000000     
     0.0000000000000000    3.2335379829484738    3.2335379829485968
     3.2335379829485271    0.0000000000000000    3.2335379829485968
     3.2335379829485271    3.2335379829484738    0.0000000000000000
   Na   Hf   K    Ca   H 
     1     1     1     1    24
Direct
  0.2500000000000000  0.2500000000000000  0.2500000000000000
  0.7500000000000000  0.7500000000000000  0.7500000000000000
  0.0000000000000000  0.0000000000000000  0.0000000000000000
  0.5000000000000000  0.5000000000000000  0.5000000000000000
  0.1412555630112422  0.8860444674884320  0.6122844917381443
  0.8860444674884320  0.1412555630112422  0.3604154777621815
  0.6122844917381443  0.3604154777621815  0.1412555630112422
  0.3604154777621815  0.6122844917381443  0.8860444674884320
  0.6122844917381443  0.1412555630112422  0.8860444674884320
  0.3604154777621815  0.8860444674884320  0.1412555630112422
  0.1412555630112422  0.6122844917381443  0.3604154777621815
  0.8860444674884320  0.3604154777621815  0.6122844917381443
  0.8860444674884320  0.6122844917381443  0.1412555630112422
  0.1412555630112422  0.3604154777621815  0.8860444674884320
  0.3604154777621815  0.1412555630112422  0.6122844917381443
  0.6122844917381443  0.8860444674884320  0.3604154777621815
  0.1412555630112422  0.3604154777621815  0.6122844917381443
  0.3604154777621815  0.1412555630112422  0.8860444674884320
  0.6122844917381443  0.8860444674884320  0.1412555630112422
  0.8860444674884320  0.6122844917381443  0.3604154777621815
  0.6122844917381443  0.1412555630112422  0.3604154777621815
  0.8860444674884320  0.3604154777621815  0.1412555630112422
  0.1412555630112422  0.6122844917381443  0.8860444674884320
  0.3604154777621815  0.8860444674884320  0.6122844917381443
  0.3604154777621815  0.6122844917381443  0.1412555630112422
  0.1412555630112422  0.8860444674884320  0.3604154777621815
  0.8860444674884320  0.1412555630112422  0.6122844917381443
  0.6122844917381443  0.3604154777621815  0.8860444674884320
 
  0.00000000E+00  0.00000000E+00  0.00000000E+00
  0.00000000E+00  0.00000000E+00  0.00000000E+00
  0.00000000E+00  0.00000000E+00  0.00000000E+00
  0.00000000E+00  0.00000000E+00  0.00000000E+00
  0.00000000E+00  0.00000000E+00  0.00000000E+00
  0.00000000E+00  0.00000000E+00  0.00000000E+00
  0.00000000E+00  0.00000000E+00  0.00000000E+00
  0.00000000E+00  0.00000000E+00  0.00000000E+00
  0.00000000E+00  0.00000000E+00  0.00000000E+00
  0.00000000E+00  0.00000000E+00  0.00000000E+00
  0.00000000E+00  0.00000000E+00  0.00000000E+00
  0.00000000E+00  0.00000000E+00  0.00000000E+00
  0.00000000E+00  0.00000000E+00  0.00000000E+00
  0.00000000E+00  0.00000000E+00  0.00000000E+00
  0.00000000E+00  0.00000000E+00  0.00000000E+00
  0.00000000E+00  0.00000000E+00  0.00000000E+00
  0.00000000E+00  0.00000000E+00  0.00000000E+00
  0.00000000E+00  0.00000000E+00  0.00000000E+00
  0.00000000E+00  0.00000000E+00  0.00000000E+00
  0.00000000E+00  0.00000000E+00  0.00000000E+00
  0.00000000E+00  0.00000000E+00  0.00000000E+00
  0.00000000E+00  0.00000000E+00  0.00000000E+00
  0.00000000E+00  0.00000000E+00  0.00000000E+00
  0.00000000E+00  0.00000000E+00  0.00000000E+00
  0.00000000E+00  0.00000000E+00  0.00000000E+00
  0.00000000E+00  0.00000000E+00  0.00000000E+00
  0.00000000E+00  0.00000000E+00  0.00000000E+00
  0.00000000E+00  0.00000000E+00  0.00000000E+00
