generated by phonopy                    
   1.00000000000000     
     0.0000000000000000    3.3519467176295761    3.3519467176296129
     3.3519467176295907    0.0000000000000000    3.3519467176296129
     3.3519467176295907    3.3519467176295761    0.0000000000000000
   Ca   Y    Sc   Hf   H 
     1     1     1     1    24
Direct
  0.2500000000000000  0.2500000000000000  0.2500000000000000
  0.7500000000000000  0.7500000000000000  0.7500000000000000
  0.0000000000000000  0.0000000000000000  0.0000000000000000
  0.5000000000000000  0.5000000000000000  0.5000000000000000
  0.1212400086823280  0.8874541969308325  0.6236222927399027
  0.8874541969308325  0.1212400086823280  0.3676835016469369
  0.6236222927399027  0.3676835016469369  0.1212400086823280
  0.3676835016469369  0.6236222927399027  0.8874541969308325
  0.6236222927399027  0.1212400086823280  0.8874541969308325
  0.3676835016469369  0.8874541969308325  0.1212400086823280
  0.1212400086823280  0.6236222927399027  0.3676835016469369
  0.8874541969308325  0.3676835016469369  0.6236222927399027
  0.8874541969308325  0.6236222927399027  0.1212400086823280
  0.1212400086823280  0.3676835016469369  0.8874541969308325
  0.3676835016469369  0.1212400086823280  0.6236222927399027
  0.6236222927399027  0.8874541969308325  0.3676835016469369
  0.1212400086823280  0.3676835016469369  0.6236222927399027
  0.3676835016469369  0.1212400086823280  0.8874541969308325
  0.6236222927399027  0.8874541969308325  0.1212400086823280
  0.8874541969308325  0.6236222927399027  0.3676835016469369
  0.6236222927399027  0.1212400086823280  0.3676835016469369
  0.8874541969308325  0.3676835016469369  0.1212400086823280
  0.1212400086823280  0.6236222927399027  0.8874541969308325
  0.3676835016469369  0.8874541969308325  0.6236222927399027
  0.3676835016469369  0.6236222927399027  0.1212400086823280
  0.1212400086823280  0.8874541969308325  0.3676835016469369
  0.8874541969308325  0.1212400086823280  0.6236222927399027
  0.6236222927399027  0.3676835016469369  0.8874541969308325
 
  0.00000000E+00  0.00000000E+00  0.00000000E+00
  0.00000000E+00  0.00000000E+00  0.00000000E+00
  0.00000000E+00  0.00000000E+00  0.00000000E+00
  0.00000000E+00  0.00000000E+00  0.00000000E+00
  0.00000000E+00  0.00000000E+00  0.00000000E+00
  0.00000000E+00  0.00000000E+00  0.00000000E+00
  0.00000000E+00  0.00000000E+00  0.00000000E+00
  0.00000000E+00  0.00000000E+00  0.00000000E+00
  0.00000000E+00  0.00000000E+00  0.00000000E+00
  0.00000000E+00  0.00000000E+00  0.00000000E+00
  0.00000000E+00  0.00000000E+00  0.00000000E+00
  0.00000000E+00  0.00000000E+00  0.00000000E+00
  0.00000000E+00  0.00000000E+00  0.00000000E+00
  0.00000000E+00  0.00000000E+00  0.00000000E+00
  0.00000000E+00  0.00000000E+00  0.00000000E+00
  0.00000000E+00  0.00000000E+00  0.00000000E+00
  0.00000000E+00  0.00000000E+00  0.00000000E+00
  0.00000000E+00  0.00000000E+00  0.00000000E+00
  0.00000000E+00  0.00000000E+00  0.00000000E+00
  0.00000000E+00  0.00000000E+00  0.00000000E+00
  0.00000000E+00  0.00000000E+00  0.00000000E+00
  0.00000000E+00  0.00000000E+00  0.00000000E+00
  0.00000000E+00  0.00000000E+00  0.00000000E+00
  0.00000000E+00  0.00000000E+00  0.00000000E+00
  0.00000000E+00  0.00000000E+00  0.00000000E+00
  0.00000000E+00  0.00000000E+00  0.00000000E+00
  0.00000000E+00  0.00000000E+00  0.00000000E+00
  0.00000000E+00  0.00000000E+00  0.00000000E+00
