generated by phonopy                    
   1.00000000000000     
     0.0000000000000000    3.1906934137057372    3.1906934137058158
     3.1906934137057705    0.0000000000000000    3.1906934137058158
     3.1906934137057705    3.1906934137057372    0.0000000000000000
   Na   Ca   Mg   Hf   H 
     1     1     1     1    24
Direct
  0.2500000000000000  0.2500000000000000  0.2500000000000000
  0.7500000000000000  0.7500000000000000  0.7500000000000000
  0.0000000000000000  0.0000000000000000  0.0000000000000000
  0.5000000000000000  0.5000000000000000  0.5000000000000000
  0.1160865561191429  0.8965549940901241  0.6258863809197308
  0.8965549940901241  0.1160865561191429  0.3614720688710023
  0.6258863809197308  0.3614720688710023  0.1160865561191429
  0.3614720688710023  0.6258863809197308  0.8965549940901241
  0.6258863809197308  0.1160865561191429  0.8965549940901241
  0.3614720688710023  0.8965549940901241  0.1160865561191429
  0.1160865561191429  0.6258863809197308  0.3614720688710023
  0.8965549940901241  0.3614720688710023  0.6258863809197308
  0.8965549940901241  0.6258863809197308  0.1160865561191429
  0.1160865561191429  0.3614720688710023  0.8965549940901241
  0.3614720688710023  0.1160865561191429  0.6258863809197308
  0.6258863809197308  0.8965549940901241  0.3614720688710023
  0.1160865561191429  0.3614720688710023  0.6258863809197308
  0.3614720688710023  0.1160865561191429  0.8965549940901241
  0.6258863809197308  0.8965549940901241  0.1160865561191429
  0.8965549940901241  0.6258863809197308  0.3614720688710023
  0.6258863809197308  0.1160865561191429  0.3614720688710023
  0.8965549940901241  0.3614720688710023  0.1160865561191429
  0.1160865561191429  0.6258863809197308  0.8965549940901241
  0.3614720688710023  0.8965549940901241  0.6258863809197308
  0.3614720688710023  0.6258863809197308  0.1160865561191429
  0.1160865561191429  0.8965549940901241  0.3614720688710023
  0.8965549940901241  0.1160865561191429  0.6258863809197308
  0.6258863809197308  0.3614720688710023  0.8965549940901241
 
  0.00000000E+00  0.00000000E+00  0.00000000E+00
  0.00000000E+00  0.00000000E+00  0.00000000E+00
  0.00000000E+00  0.00000000E+00  0.00000000E+00
  0.00000000E+00  0.00000000E+00  0.00000000E+00
  0.00000000E+00  0.00000000E+00  0.00000000E+00
  0.00000000E+00  0.00000000E+00  0.00000000E+00
  0.00000000E+00  0.00000000E+00  0.00000000E+00
  0.00000000E+00  0.00000000E+00  0.00000000E+00
  0.00000000E+00  0.00000000E+00  0.00000000E+00
  0.00000000E+00  0.00000000E+00  0.00000000E+00
  0.00000000E+00  0.00000000E+00  0.00000000E+00
  0.00000000E+00  0.00000000E+00  0.00000000E+00
  0.00000000E+00  0.00000000E+00  0.00000000E+00
  0.00000000E+00  0.00000000E+00  0.00000000E+00
  0.00000000E+00  0.00000000E+00  0.00000000E+00
  0.00000000E+00  0.00000000E+00  0.00000000E+00
  0.00000000E+00  0.00000000E+00  0.00000000E+00
  0.00000000E+00  0.00000000E+00  0.00000000E+00
  0.00000000E+00  0.00000000E+00  0.00000000E+00
  0.00000000E+00  0.00000000E+00  0.00000000E+00
  0.00000000E+00  0.00000000E+00  0.00000000E+00
  0.00000000E+00  0.00000000E+00  0.00000000E+00
  0.00000000E+00  0.00000000E+00  0.00000000E+00
  0.00000000E+00  0.00000000E+00  0.00000000E+00
  0.00000000E+00  0.00000000E+00  0.00000000E+00
  0.00000000E+00  0.00000000E+00  0.00000000E+00
  0.00000000E+00  0.00000000E+00  0.00000000E+00
  0.00000000E+00  0.00000000E+00  0.00000000E+00
