generated by phonopy                    
   1.00000000000000     
     0.0000000000000000    3.2611599056679692    3.2611599056680514
     3.2611599056680038    0.0000000000000000    3.2611599056680514
     3.2611599056680038    3.2611599056679692    0.0000000000000000
   Na   Hf   Ca   Y    H 
     1     1     1     1    24
Direct
  0.2500000000000000  0.2500000000000000  0.2500000000000000
  0.7500000000000000  0.7500000000000000  0.7500000000000000
  0.0000000000000000  0.0000000000000000  0.0000000000000000
  0.5000000000000000  0.5000000000000000  0.5000000000000000
  0.1342335692229284  0.8914438956607569  0.6176122575190419
  0.8914438956607569  0.1342335692229284  0.3567102775972870
  0.6176122575190419  0.3567102775972870  0.1342335692229284
  0.3567102775972870  0.6176122575190419  0.8914438956607569
  0.6176122575190419  0.1342335692229284  0.8914438956607569
  0.3567102775972870  0.8914438956607569  0.1342335692229284
  0.1342335692229284  0.6176122575190419  0.3567102775972870
  0.8914438956607569  0.3567102775972870  0.6176122575190419
  0.8914438956607569  0.6176122575190419  0.1342335692229284
  0.1342335692229284  0.3567102775972870  0.8914438956607569
  0.3567102775972870  0.1342335692229284  0.6176122575190419
  0.6176122575190419  0.8914438956607569  0.3567102775972870
  0.1342335692229284  0.3567102775972870  0.6176122575190419
  0.3567102775972870  0.1342335692229284  0.8914438956607569
  0.6176122575190419  0.8914438956607569  0.1342335692229284
  0.8914438956607569  0.6176122575190419  0.3567102775972870
  0.6176122575190419  0.1342335692229284  0.3567102775972870
  0.8914438956607569  0.3567102775972870  0.1342335692229284
  0.1342335692229284  0.6176122575190419  0.8914438956607569
  0.3567102775972870  0.8914438956607569  0.6176122575190419
  0.3567102775972870  0.6176122575190419  0.1342335692229284
  0.1342335692229284  0.8914438956607569  0.3567102775972870
  0.8914438956607569  0.1342335692229284  0.6176122575190419
  0.6176122575190419  0.3567102775972870  0.8914438956607569
 
  0.00000000E+00  0.00000000E+00  0.00000000E+00
  0.00000000E+00  0.00000000E+00  0.00000000E+00
  0.00000000E+00  0.00000000E+00  0.00000000E+00
  0.00000000E+00  0.00000000E+00  0.00000000E+00
  0.00000000E+00  0.00000000E+00  0.00000000E+00
  0.00000000E+00  0.00000000E+00  0.00000000E+00
  0.00000000E+00  0.00000000E+00  0.00000000E+00
  0.00000000E+00  0.00000000E+00  0.00000000E+00
  0.00000000E+00  0.00000000E+00  0.00000000E+00
  0.00000000E+00  0.00000000E+00  0.00000000E+00
  0.00000000E+00  0.00000000E+00  0.00000000E+00
  0.00000000E+00  0.00000000E+00  0.00000000E+00
  0.00000000E+00  0.00000000E+00  0.00000000E+00
  0.00000000E+00  0.00000000E+00  0.00000000E+00
  0.00000000E+00  0.00000000E+00  0.00000000E+00
  0.00000000E+00  0.00000000E+00  0.00000000E+00
  0.00000000E+00  0.00000000E+00  0.00000000E+00
  0.00000000E+00  0.00000000E+00  0.00000000E+00
  0.00000000E+00  0.00000000E+00  0.00000000E+00
  0.00000000E+00  0.00000000E+00  0.00000000E+00
  0.00000000E+00  0.00000000E+00  0.00000000E+00
  0.00000000E+00  0.00000000E+00  0.00000000E+00
  0.00000000E+00  0.00000000E+00  0.00000000E+00
  0.00000000E+00  0.00000000E+00  0.00000000E+00
  0.00000000E+00  0.00000000E+00  0.00000000E+00
  0.00000000E+00  0.00000000E+00  0.00000000E+00
  0.00000000E+00  0.00000000E+00  0.00000000E+00
  0.00000000E+00  0.00000000E+00  0.00000000E+00
