generated by phonopy                    
   1.00000000000000     
     0.0000000000000000    3.2952904030255055    3.2952904030255539
     3.2952904030255250    0.0000000000000000    3.2952904030255539
     3.2952904030255250    3.2952904030255055    0.0000000000000000
   Ca   Sc   Ti   Hf   H 
     1     1     1     1    24
Direct
  0.2500000000000000  0.2500000000000000  0.2500000000000000
  0.7500000000000000  0.7500000000000000  0.7500000000000000
  0.0000000000000000  0.0000000000000000  0.0000000000000000
  0.5000000000000000  0.5000000000000000  0.5000000000000000
  0.1154108399505347  0.8831625246952015  0.6282657908094293
  0.8831625246952015  0.1154108399505347  0.3731608445448273
  0.6282657908094293  0.3731608445448273  0.1154108399505347
  0.3731608445448273  0.6282657908094293  0.8831625246952015
  0.6282657908094293  0.1154108399505347  0.8831625246952015
  0.3731608445448273  0.8831625246952015  0.1154108399505347
  0.1154108399505347  0.6282657908094293  0.3731608445448273
  0.8831625246952015  0.3731608445448273  0.6282657908094293
  0.8831625246952015  0.6282657908094293  0.1154108399505347
  0.1154108399505347  0.3731608445448273  0.8831625246952015
  0.3731608445448273  0.1154108399505347  0.6282657908094293
  0.6282657908094293  0.8831625246952015  0.3731608445448273
  0.1154108399505347  0.3731608445448273  0.6282657908094293
  0.3731608445448273  0.1154108399505347  0.8831625246952015
  0.6282657908094293  0.8831625246952015  0.1154108399505347
  0.8831625246952015  0.6282657908094293  0.3731608445448273
  0.6282657908094293  0.1154108399505347  0.3731608445448273
  0.8831625246952015  0.3731608445448273  0.1154108399505347
  0.1154108399505347  0.6282657908094293  0.8831625246952015
  0.3731608445448273  0.8831625246952015  0.6282657908094293
  0.3731608445448273  0.6282657908094293  0.1154108399505347
  0.1154108399505347  0.8831625246952015  0.3731608445448273
  0.8831625246952015  0.1154108399505347  0.6282657908094293
  0.6282657908094293  0.3731608445448273  0.8831625246952015
 
  0.00000000E+00  0.00000000E+00  0.00000000E+00
  0.00000000E+00  0.00000000E+00  0.00000000E+00
  0.00000000E+00  0.00000000E+00  0.00000000E+00
  0.00000000E+00  0.00000000E+00  0.00000000E+00
  0.00000000E+00  0.00000000E+00  0.00000000E+00
  0.00000000E+00  0.00000000E+00  0.00000000E+00
  0.00000000E+00  0.00000000E+00  0.00000000E+00
  0.00000000E+00  0.00000000E+00  0.00000000E+00
  0.00000000E+00  0.00000000E+00  0.00000000E+00
  0.00000000E+00  0.00000000E+00  0.00000000E+00
  0.00000000E+00  0.00000000E+00  0.00000000E+00
  0.00000000E+00  0.00000000E+00  0.00000000E+00
  0.00000000E+00  0.00000000E+00  0.00000000E+00
  0.00000000E+00  0.00000000E+00  0.00000000E+00
  0.00000000E+00  0.00000000E+00  0.00000000E+00
  0.00000000E+00  0.00000000E+00  0.00000000E+00
  0.00000000E+00  0.00000000E+00  0.00000000E+00
  0.00000000E+00  0.00000000E+00  0.00000000E+00
  0.00000000E+00  0.00000000E+00  0.00000000E+00
  0.00000000E+00  0.00000000E+00  0.00000000E+00
  0.00000000E+00  0.00000000E+00  0.00000000E+00
  0.00000000E+00  0.00000000E+00  0.00000000E+00
  0.00000000E+00  0.00000000E+00  0.00000000E+00
  0.00000000E+00  0.00000000E+00  0.00000000E+00
  0.00000000E+00  0.00000000E+00  0.00000000E+00
  0.00000000E+00  0.00000000E+00  0.00000000E+00
  0.00000000E+00  0.00000000E+00  0.00000000E+00
  0.00000000E+00  0.00000000E+00  0.00000000E+00
