generated by phonopy                    
   1.00000000000000     
     0.0000000000000000    3.2334490913035636    3.2334490913036276
     3.2334490913035943    0.0000000000000000    3.2334490913036276
     3.2334490913035943    3.2334490913035636    0.0000000000000000
   Mg   Zr   Ti   Hf   H 
     1     1     1     1    24
Direct
  0.2500000000000000  0.2500000000000000  0.2500000000000000
  0.7500000000000000  0.7500000000000000  0.7500000000000000
  0.0000000000000000  0.0000000000000000  0.0000000000000000
  0.5000000000000000  0.5000000000000000  0.5000000000000000
  0.1258318958771056  0.8911912391380383  0.6203825644195291
  0.8911912391380383  0.1258318958771056  0.3625943005653269
  0.6203825644195291  0.3625943005653269  0.1258318958771056
  0.3625943005653269  0.6203825644195291  0.8911912391380383
  0.6203825644195291  0.1258318958771056  0.8911912391380383
  0.3625943005653269  0.8911912391380383  0.1258318958771056
  0.1258318958771056  0.6203825644195291  0.3625943005653269
  0.8911912391380383  0.3625943005653269  0.6203825644195291
  0.8911912391380383  0.6203825644195291  0.1258318958771056
  0.1258318958771056  0.3625943005653269  0.8911912391380383
  0.3625943005653269  0.1258318958771056  0.6203825644195291
  0.6203825644195291  0.8911912391380383  0.3625943005653269
  0.1258318958771056  0.3625943005653269  0.6203825644195291
  0.3625943005653269  0.1258318958771056  0.8911912391380383
  0.6203825644195291  0.8911912391380383  0.1258318958771056
  0.8911912391380383  0.6203825644195291  0.3625943005653269
  0.6203825644195291  0.1258318958771056  0.3625943005653269
  0.8911912391380383  0.3625943005653269  0.1258318958771056
  0.1258318958771056  0.6203825644195291  0.8911912391380383
  0.3625943005653269  0.8911912391380383  0.6203825644195291
  0.3625943005653269  0.6203825644195291  0.1258318958771056
  0.1258318958771056  0.8911912391380383  0.3625943005653269
  0.8911912391380383  0.1258318958771056  0.6203825644195291
  0.6203825644195291  0.3625943005653269  0.8911912391380383
 
  0.00000000E+00  0.00000000E+00  0.00000000E+00
  0.00000000E+00  0.00000000E+00  0.00000000E+00
  0.00000000E+00  0.00000000E+00  0.00000000E+00
  0.00000000E+00  0.00000000E+00  0.00000000E+00
  0.00000000E+00  0.00000000E+00  0.00000000E+00
  0.00000000E+00  0.00000000E+00  0.00000000E+00
  0.00000000E+00  0.00000000E+00  0.00000000E+00
  0.00000000E+00  0.00000000E+00  0.00000000E+00
  0.00000000E+00  0.00000000E+00  0.00000000E+00
  0.00000000E+00  0.00000000E+00  0.00000000E+00
  0.00000000E+00  0.00000000E+00  0.00000000E+00
  0.00000000E+00  0.00000000E+00  0.00000000E+00
  0.00000000E+00  0.00000000E+00  0.00000000E+00
  0.00000000E+00  0.00000000E+00  0.00000000E+00
  0.00000000E+00  0.00000000E+00  0.00000000E+00
  0.00000000E+00  0.00000000E+00  0.00000000E+00
  0.00000000E+00  0.00000000E+00  0.00000000E+00
  0.00000000E+00  0.00000000E+00  0.00000000E+00
  0.00000000E+00  0.00000000E+00  0.00000000E+00
  0.00000000E+00  0.00000000E+00  0.00000000E+00
  0.00000000E+00  0.00000000E+00  0.00000000E+00
  0.00000000E+00  0.00000000E+00  0.00000000E+00
  0.00000000E+00  0.00000000E+00  0.00000000E+00
  0.00000000E+00  0.00000000E+00  0.00000000E+00
  0.00000000E+00  0.00000000E+00  0.00000000E+00
  0.00000000E+00  0.00000000E+00  0.00000000E+00
  0.00000000E+00  0.00000000E+00  0.00000000E+00
  0.00000000E+00  0.00000000E+00  0.00000000E+00
