POSCAR                                  
   1.00000000000000     
     9.9108893084730809    0.0400245593389885    0.0279792246372241
     0.0400323121492962    9.9146755019608968    0.0183098021604255
     0.0184795456228235    0.0121222546696371    6.6217807558840764
   Y    Sr   Ca   Sc   H 
     9     9     9     9   216
Direct
  0.1638035921119823  0.1702342995030008  0.2513685211843253
  0.5007722361250941  0.1647808450776864  0.2489001890567195
  0.3292060710658120  0.3347192934514780  0.5026102379045341
  0.1690120907598995  0.8290142589519647  0.2492371177131858
  0.1667800740173249  0.8320489709613454  0.7540335602352854
  0.3319004688752045  0.9976399507886597  0.5023747027439001
  0.9942533229385973  0.3347053462001384  0.4932289307720055
  0.6675870302234870  0.9965622364882734  0.4976342231619455
  0.8304192584580434  0.8365401192957478  0.7507882646815105
  0.1617660575976103  0.1615230371370586  0.7592932944511475
  0.1693067132790986  0.4954494171830817  0.7569634128738798
  0.5026487787093856  0.5002781416647935  0.7475255349820102
  0.8354389462518625  0.4981823252870399  0.2483851377267072
  0.6706515065701169  0.6572537446584121  0.5063092396480542
  0.3369684505253190  0.0013161151301020  0.0011698411488084
  0.8321831808848401  0.4979717823643739  0.7486856323061346
  0.9933295855894073  0.3480438634011094  0.9930351773270161
  0.9978630382902622  0.0053354519895805  0.9962323474658632
  0.1718153597794370  0.5050633494362131  0.2533585755029790
  0.3390965149076237  0.3416076431055046  0.9994617311724596
  0.8312777854724445  0.1633234360526217  0.2447340076623661
  0.6630601295251921  0.3277055173928858  0.4955688771015829
  0.3399181324415963  0.6642964019333704  0.0006157934236697
  0.5015417980613037  0.8316137208456738  0.2499469030800014
  0.5032849389011176  0.8335269280752442  0.7505850765520847
  0.6668475335074433  0.0000431520780779  0.0011994205455608
  0.0042477938802818  0.6725084423575183  0.0002643266838191
  0.5026758905197326  0.1670284593522737  0.7503206316687496
  0.5001695593236448  0.5018899901856742  0.2504266276606302
  0.3352624498123760  0.6676351060705343  0.5012908576133484
  0.8271821850716634  0.1635860297425467  0.7473798910954628
  0.6621449684295158  0.3271105286098432  0.0013696964146064
  0.6659870815222177  0.6701191533262971  0.0057852730655341
  0.8330238415413902  0.8322807950958619  0.2473209821708551
  0.0020974722210312  0.6709847655092673  0.4987170869320252
  0.9947676097665266  0.9973468691820671  0.4942842978537101
  0.1681622340905093  0.0842013799060339  0.0130981846007288
  0.1562837780007271  0.0776560972083331  0.5010564315079620
  0.1717605070606965  0.4207713151482650  0.0215326691085380
  0.5072611812694063  0.0848089206650826  0.9891024254280154
  0.3363982223849078  0.2569145226914671  0.2427575108906836
  0.1615445619780473  0.4216804342957019  0.4915596230385688
  0.5007668375786025  0.0821118290183875  0.5103500951726332
  0.3363454274749813  0.2491901889089263  0.7604152168627607
  0.1734208180684504  0.7452749244327777  0.0014288651223140
  0.5088668166742139  0.4204834459251643  0.0112240183075656
  0.3373293559778006  0.5847661096145202  0.2530666131462382
  0.1665515929880641  0.7474538847277756  0.5027690691822357
  0.8245150745951335  0.0850851806167228  0.9948798939106780
  0.6680698240219058  0.2492102249764372  0.2471841395587830
  0.4997390112874669  0.4166627799906237  0.4867987773296605
  0.3343598380093198  0.5885023729889625  0.7489698865613121
  0.8360354369901444  0.0809859423073860  0.4950413702751391
  0.6648063475965813  0.2434916657166113  0.7449036902163400
  0.5019851995811209  0.7500941169597439  0.0027989183790851
  0.3369207071385318  0.9118687091028406  0.2547932327213047
  0.8105033147187157  0.4140158777472891  0.9995933271657123
  0.6607995919832490  0.5786088598337855  0.2360823453400371
  0.4986129863509774  0.7486711118164990  0.4977411688644864
  0.3397609827788486  0.9126258242227934  0.7488225137951403
  0.9910703739954840  0.2510776407425368  0.2407898921363056
  0.8207815111746299  0.4101955327416817  0.4977638148739487
  0.6664608559607430  0.5832982922182808  0.7791944231107522
  0.9876192107141009  0.2460478335658465  0.7462640815681851
  0.8356196792151991  0.7526608298103881  0.0075233066747487
  0.6695231585682819  0.9132670660192161  0.2428629099591291
  0.0052937607779739  0.5901502956212354  0.2481102925650660
  0.8400775618200527  0.7526038113494522  0.4909691262133293
  0.6612495848628015  0.9198755857834229  0.7585260233585629
  0.0019224988452535  0.5888223858466404  0.7534880331516831
  0.9953707529257940  0.9165591505517909  0.2564166374193277
  0.9964673021611574  0.9196010840080717  0.7345199566228615
  0.0788639201732053  0.1792207265680830  0.0113871552191753
  0.0753046688098777  0.1618661512833341  0.5033065495057514
  0.0905477470148810  0.5133463067848254  0.0164045374509172
  0.4202214345933655  0.1757486847091769  0.9917798288967461
  0.2508866954590872  0.3376411967361719  0.2411733579911797
  0.0892568526319977  0.5150324112237712  0.4973879859633925
  0.4163945383415424  0.1690525811600665  0.5062507336974846
  0.2541786448754024  0.3236562885886585  0.7593231514525840
  0.0830393762455870  0.8337470309443447  0.0052242317212929
  0.4229618981076371  0.5031356034872516  0.0114644296191670
  0.2565586995826266  0.6620678847901047  0.2573274649425770
  0.0809096830624156  0.8299713332774630  0.4984310655293314
  0.7454441353011987  0.1668088043893974  0.9945464761530189
  0.5826522720378762  0.3366823420239271  0.2457525270409135
  0.4149838381308442  0.5043470687203211  0.4909559773068679
  0.2530844490437829  0.6649958989950804  0.7439218860651238
  0.7511103972011313  0.1654569626589932  0.5020451292120569
  0.5860505127302176  0.3259991447199369  0.7549378504538211
  0.4215287964632211  0.8261497399545377  0.0006189161074417
  0.2465340344764471  0.9992241898303007  0.2548001915544873
  0.7417411614315768  0.4957391628586052  0.0027591789430019
  0.5847596333042944  0.6683472096827003  0.2478700590387177
  0.4171772922983408  0.8249477570944279  0.4997832774357960
  0.2497299883059227  0.9964539174949891  0.7482502992556164
  0.9100151717564202  0.3216947261679195  0.2487265190599501
  0.7478095874497441  0.4831521613090999  0.4981845226521031
  0.5851336372754830  0.6713931620876323  0.7675643405989305
  0.9045964855025446  0.3183985861983984  0.7405074119692685
  0.7480840227738170  0.8313657940287627  0.0078350190119281
  0.5860934481372695  0.9929072465253981  0.2440546913635515
  0.9191333623693794  0.6725724108249196  0.2496067858535085
  0.7544919371186865  0.8288534573412250  0.4886476119060177
  0.5846897547769743  0.0026520618579866  0.7555618656611784
  0.9193512566233011  0.6699893433875417  0.7488454632611976
  0.9151033553067904  0.9966548327054312  0.2541997352340388
  0.9136553264871239  0.0044835277911730  0.7388969881326020
  0.1656132095846132  0.9984838794436968  0.1336123303833432
  0.1568906569462669  0.9974581426630849  0.6193106837542359
  0.1718079577640026  0.3445569507502384  0.1264638670790887
  0.5071979104107456  0.9950001354193958  0.1231806309635459
  0.3337638205919049  0.1666630444652597  0.3784011823153648
  0.1584062850149408  0.3271673195961569  0.6264844233434772
  0.5002244702767413  0.0028175903686360  0.6297052234371918
  0.3428869652829221  0.1784460252710289  0.8759441794176581
  0.1719396401265385  0.6632597512717666  0.1256980352927712
  0.5017211802704367  0.3344894951961592  0.1218399613914514
  0.3371686867083099  0.5071166327100300  0.3718614450666848
  0.1698777557328626  0.6661823238357840  0.6275849319136810
  0.8286609978463488  0.9962436558824379  0.1267153952152853
  0.6693360134982953  0.1669388325390173  0.3743362299861346
  0.5012668457886349  0.3254575160874538  0.6258264613267315
  0.3366582054053993  0.5046066132588720  0.8815371790590376
  0.8364037911036633  0.0040666786024772  0.6193758981997135
  0.6655384500007386  0.1675465356214971  0.8735616308144998
  0.5028663784985952  0.6658632609072725  0.1279413963923304
  0.3389513707306548  0.8259589579416300  0.3779264425405131
  0.8193730764100167  0.3241821044601139  0.1166754798563971
  0.6598687460287849  0.4892834011133544  0.3653300615928075
  0.4929904155790865  0.6737484323392309  0.6241956714070298
  0.3396521645542734  0.8251828325706683  0.8739719048496823
  0.9912052190318335  0.1608620445179554  0.3781835719833069
  0.8233447595260941  0.3221954033578243  0.6262549373867117
  0.6657981907666226  0.4996305265962562  0.8870375053466901
  0.9824128796438245  0.1764506980147758  0.8661872154582184
  0.8323428529129728  0.6720667453385119  0.1226873339165522
  0.6698077869006553  0.8264405700276924  0.3684824072792381
  0.0071648635797388  0.5098372543076906  0.3747029589951154
  0.8462523803500233  0.6719852866055049  0.6260559669594699
  0.6636919835416748  0.8316890584217447  0.8841605582145746
  0.9987052996914443  0.5207207347928176  0.8703524750918419
  0.9962558284209067  0.8325345090524294  0.3750023461431766
  0.9966164796777832  0.8322184661080456  0.8740653663724771
  0.0801846361371332  0.9965615811840891  0.2596762568495663
  0.0759213111954011  0.9954233134374917  0.7280084910377695
  0.0844564483581038  0.3409010542434601  0.2447007942656612
  0.4200072212183272  0.9956662468914175  0.2551235352660157
  0.2466961867776405  0.1667322158077482  0.5022272921744957
  0.0768770329425692  0.3292830480263049  0.7365516451037166
  0.4234960658090898  0.0008658783433830  0.7484451981349949
  0.2563282151115089  0.1798838277615502  0.0086160494976326
  0.0844202438172772  0.6645589447603584  0.2587061990907529
  0.4173207816656515  0.3381721313640611  0.2475818974516883
  0.2509235526892510  0.5104564366416753  0.4944193797831318
  0.0835951370461885  0.6649040006311679  0.7380722298830094
  0.7513294240722814  0.9963366369894970  0.2444480440766554
  0.5817596780714425  0.1654737803973916  0.5074738041818065
  0.4198011657409353  0.3269267875746564  0.7522470834599773
  0.2570415648316029  0.5058765751852192  0.0128379568720689
  0.7475765408457420  0.0068698958877960  0.7525639069422994
  0.5852078683296327  0.1685555690741936  0.9904593440472667
  0.4203414978277351  0.6672556519110415  0.2495100396696799
  0.2500580965473063  0.8250121294011592  0.5014747144076424
  0.7432259853008816  0.3273787033002904  0.2408433619940737
  0.5787660757614432  0.4899640486969048  0.4844338750796737
  0.4179575031210945  0.6732542680109361  0.7477914360422844
  0.2560501507631372  0.8251009734606995  0.0023816807303874
  0.9118208552382612  0.1646647937519816  0.4968282023431030
  0.7443795002828608  0.3228487592576741  0.7535856183753893
  0.5834141597411531  0.4932554142414745  0.0076197767751225
  0.9070608986482895  0.1770531602846646  0.9913473767942378
  0.7521511280048045  0.6721692640542543  0.2412128392096449
  0.5816956508314561  0.8280839438651384  0.4971962998117121
  0.9254912500404231  0.5140336277444177  0.4987020961964177
  0.7514040791379273  0.6711325961365233  0.7703630197055915
  0.5853984795114613  0.8334273564499384  0.0029912032022992
  0.9158257914101142  0.5212295219155223  0.9974048084660794
  0.9185733148508817  0.8345525110066490  0.4932566809702976
  0.9137223492693352  0.8297236485377510  0.0064098865189521
  0.9969471076017200  0.1766501784597594  0.1234223046243415
  0.9901051065822770  0.1620963190119298  0.6190502837993108
  0.0103263431456639  0.5162730048293724  0.1306896837583409
  0.3326879406714767  0.1785136205641606  0.1191447878516456
  0.1636590275378609  0.3397573127739051  0.3690437950066965
  0.0021513420551287  0.5073859235425289  0.6190571024061811
  0.3395238980361412  0.1655747949455986  0.6333396719262012
  0.1751842798560546  0.3259025162064262  0.8897219775103977
  0.9958234439931957  0.8328773367523539  0.1287515653490559
  0.3384457561468182  0.5038653950615810  0.1315417662187741
  0.1691034888264298  0.6649061871576833  0.3794711139802089
  0.9974314549613439  0.8335632082181803  0.6178335335127443
  0.6695157035551134  0.1671538925869882  0.1183282417193823
  0.4995254021772482  0.3367965970475097  0.3705315260920585
  0.3362758206823528  0.5078638491007510  0.6183266342974463
  0.1732557053663371  0.6660754993731715  0.8791669546870580
  0.6653792691654203  0.1680448891101634  0.6282052569219658
  0.5045089472744522  0.3257460211641003  0.8744760540265872
  0.3394098961966208  0.8259337295183613  0.1244394532345225
  0.1584406106973688  0.9975634739294819  0.3790432866539319
  0.6624829321753438  0.5036783000562366  0.1257600666252259
  0.4975701861757571  0.6660828847990032  0.3732097619346533
  0.3388378915354124  0.8261695102274231  0.6273601991777227
  0.1691762806584407  0.9929376445815308  0.8792534462481001
  0.8257150203736359  0.3239239667230933  0.3728038838584737
  0.6677306539831562  0.4834029710406327  0.6217041706430138
  0.5060879849094277  0.6719356773985083  0.8794002283459719
  0.8171442743731063  0.3206437064709959  0.8697644830197433
  0.6670593611572713  0.8299683100646718  0.1247626203766430
  0.4994750609889209  0.9953420005698774  0.3768557041578191
  0.8423664460828135  0.6737711883269242  0.3702535968142371
  0.6639598100418240  0.8280499045254004  0.6275258260067602
  0.5062134217938663  0.0030570254083884  0.8710662985043598
  0.8332427765267170  0.6693240659279311  0.8808635618807870
  0.8371353508981088  0.9981531272024071  0.3720573139674741
  0.8279965029652701  0.0064303716838623  0.8734348062967427
  0.9940882865414906  0.0804869019415761  0.2610001524680854
  0.9870611910806062  0.0826852941717959  0.7280011771773260
  0.0127808532780449  0.4278250576381453  0.2530214941433115
  0.3324942969234996  0.0837164948964570  0.2564811761221577
  0.1618805197561457  0.2470996844441942  0.5066131018669537
  0.0018234826071648  0.4213287639650645  0.7307141340419676
  0.3413120522205091  0.0856299803266083  0.7453768889031664
  0.1685219185492670  0.2591181064372847  0.9998193826506849
  0.9954829380161527  0.7522546984679153  0.2531398996406580
  0.3388581178585497  0.4228549111855813  0.2484898206724608
  0.1643309188766082  0.5831629149164428  0.4994536620516570
  0.9976885257975638  0.7511283556072499  0.7434001207711987
  0.6718147557604155  0.0790556862825866  0.2442526356686088
  0.4987453003470392  0.2484165634029409  0.5049375592420660
  0.3392991269521488  0.4137683047065153  0.7530004149327283
  0.1710263925746816  0.5844683291549870  0.0101174380759943
  0.6647019416383770  0.0837075762585187  0.7552191211930861
  0.5006958733883025  0.2547709223673067  0.9987062667755211
  0.3414663042916928  0.7451909535323935  0.2520235547802869
  0.1594328579769950  0.9151521357474195  0.4987124473649303
  0.6602252249763865  0.4137149434264202  0.2382686164386953
  0.4934946569117500  0.5822679322316233  0.4849527664289397
  0.3399517017698130  0.7501583631466886  0.7535126815504825
  0.1663656338348432  0.9162075708467583  0.0036443400177149
  0.8278809998449148  0.2414408277027320  0.4998492158687284
  0.6665407760200637  0.4068756263775057  0.7580723895671468
  0.5088618522972865  0.5828252836760370  0.0102520482243307
  0.8279353275715309  0.2481337481582102  0.9993920301841328
  0.6658501677450772  0.7494000590992513  0.2493475678316059
  0.5004032149962256  0.9135257407287440  0.5008135320956058
  0.8489020547493027  0.5870380275912197  0.4954912348709826
  0.6649752384096388  0.7502982815154340  0.7596737853414197
  0.5091279692718800  0.9152967801981475  0.9989492833942961
  0.8341385963632106  0.5895075124671223  0.0000666959019568
  0.8394663474928663  0.9160525064065297  0.4911561331066210
  0.8269113632174268  0.9167606277626774  0.0071138350598545
 
  0.00000000E+00  0.00000000E+00  0.00000000E+00
  0.00000000E+00  0.00000000E+00  0.00000000E+00
  0.00000000E+00  0.00000000E+00  0.00000000E+00
  0.00000000E+00  0.00000000E+00  0.00000000E+00
  0.00000000E+00  0.00000000E+00  0.00000000E+00
  0.00000000E+00  0.00000000E+00  0.00000000E+00
  0.00000000E+00  0.00000000E+00  0.00000000E+00
  0.00000000E+00  0.00000000E+00  0.00000000E+00
  0.00000000E+00  0.00000000E+00  0.00000000E+00
  0.00000000E+00  0.00000000E+00  0.00000000E+00
  0.00000000E+00  0.00000000E+00  0.00000000E+00
  0.00000000E+00  0.00000000E+00  0.00000000E+00
  0.00000000E+00  0.00000000E+00  0.00000000E+00
  0.00000000E+00  0.00000000E+00  0.00000000E+00
  0.00000000E+00  0.00000000E+00  0.00000000E+00
  0.00000000E+00  0.00000000E+00  0.00000000E+00
  0.00000000E+00  0.00000000E+00  0.00000000E+00
  0.00000000E+00  0.00000000E+00  0.00000000E+00
  0.00000000E+00  0.00000000E+00  0.00000000E+00
  0.00000000E+00  0.00000000E+00  0.00000000E+00
  0.00000000E+00  0.00000000E+00  0.00000000E+00
  0.00000000E+00  0.00000000E+00  0.00000000E+00
  0.00000000E+00  0.00000000E+00  0.00000000E+00
  0.00000000E+00  0.00000000E+00  0.00000000E+00
  0.00000000E+00  0.00000000E+00  0.00000000E+00
  0.00000000E+00  0.00000000E+00  0.00000000E+00
  0.00000000E+00  0.00000000E+00  0.00000000E+00
  0.00000000E+00  0.00000000E+00  0.00000000E+00
  0.00000000E+00  0.00000000E+00  0.00000000E+00
  0.00000000E+00  0.00000000E+00  0.00000000E+00
  0.00000000E+00  0.00000000E+00  0.00000000E+00
  0.00000000E+00  0.00000000E+00  0.00000000E+00
  0.00000000E+00  0.00000000E+00  0.00000000E+00
  0.00000000E+00  0.00000000E+00  0.00000000E+00
  0.00000000E+00  0.00000000E+00  0.00000000E+00
  0.00000000E+00  0.00000000E+00  0.00000000E+00
  0.00000000E+00  0.00000000E+00  0.00000000E+00
  0.00000000E+00  0.00000000E+00  0.00000000E+00
  0.00000000E+00  0.00000000E+00  0.00000000E+00
  0.00000000E+00  0.00000000E+00  0.00000000E+00
  0.00000000E+00  0.00000000E+00  0.00000000E+00
  0.00000000E+00  0.00000000E+00  0.00000000E+00
  0.00000000E+00  0.00000000E+00  0.00000000E+00
  0.00000000E+00  0.00000000E+00  0.00000000E+00
  0.00000000E+00  0.00000000E+00  0.00000000E+00
  0.00000000E+00  0.00000000E+00  0.00000000E+00
  0.00000000E+00  0.00000000E+00  0.00000000E+00
  0.00000000E+00  0.00000000E+00  0.00000000E+00
  0.00000000E+00  0.00000000E+00  0.00000000E+00
  0.00000000E+00  0.00000000E+00  0.00000000E+00
  0.00000000E+00  0.00000000E+00  0.00000000E+00
  0.00000000E+00  0.00000000E+00  0.00000000E+00
  0.00000000E+00  0.00000000E+00  0.00000000E+00
  0.00000000E+00  0.00000000E+00  0.00000000E+00
  0.00000000E+00  0.00000000E+00  0.00000000E+00
  0.00000000E+00  0.00000000E+00  0.00000000E+00
  0.00000000E+00  0.00000000E+00  0.00000000E+00
  0.00000000E+00  0.00000000E+00  0.00000000E+00
  0.00000000E+00  0.00000000E+00  0.00000000E+00
  0.00000000E+00  0.00000000E+00  0.00000000E+00
  0.00000000E+00  0.00000000E+00  0.00000000E+00
  0.00000000E+00  0.00000000E+00  0.00000000E+00
  0.00000000E+00  0.00000000E+00  0.00000000E+00
  0.00000000E+00  0.00000000E+00  0.00000000E+00
  0.00000000E+00  0.00000000E+00  0.00000000E+00
  0.00000000E+00  0.00000000E+00  0.00000000E+00
  0.00000000E+00  0.00000000E+00  0.00000000E+00
  0.00000000E+00  0.00000000E+00  0.00000000E+00
  0.00000000E+00  0.00000000E+00  0.00000000E+00
  0.00000000E+00  0.00000000E+00  0.00000000E+00
  0.00000000E+00  0.00000000E+00  0.00000000E+00
  0.00000000E+00  0.00000000E+00  0.00000000E+00
  0.00000000E+00  0.00000000E+00  0.00000000E+00
  0.00000000E+00  0.00000000E+00  0.00000000E+00
  0.00000000E+00  0.00000000E+00  0.00000000E+00
  0.00000000E+00  0.00000000E+00  0.00000000E+00
  0.00000000E+00  0.00000000E+00  0.00000000E+00
  0.00000000E+00  0.00000000E+00  0.00000000E+00
  0.00000000E+00  0.00000000E+00  0.00000000E+00
  0.00000000E+00  0.00000000E+00  0.00000000E+00
  0.00000000E+00  0.00000000E+00  0.00000000E+00
  0.00000000E+00  0.00000000E+00  0.00000000E+00
  0.00000000E+00  0.00000000E+00  0.00000000E+00
  0.00000000E+00  0.00000000E+00  0.00000000E+00
  0.00000000E+00  0.00000000E+00  0.00000000E+00
  0.00000000E+00  0.00000000E+00  0.00000000E+00
  0.00000000E+00  0.00000000E+00  0.00000000E+00
  0.00000000E+00  0.00000000E+00  0.00000000E+00
  0.00000000E+00  0.00000000E+00  0.00000000E+00
  0.00000000E+00  0.00000000E+00  0.00000000E+00
  0.00000000E+00  0.00000000E+00  0.00000000E+00
  0.00000000E+00  0.00000000E+00  0.00000000E+00
  0.00000000E+00  0.00000000E+00  0.00000000E+00
  0.00000000E+00  0.00000000E+00  0.00000000E+00
  0.00000000E+00  0.00000000E+00  0.00000000E+00
  0.00000000E+00  0.00000000E+00  0.00000000E+00
  0.00000000E+00  0.00000000E+00  0.00000000E+00
  0.00000000E+00  0.00000000E+00  0.00000000E+00
  0.00000000E+00  0.00000000E+00  0.00000000E+00
  0.00000000E+00  0.00000000E+00  0.00000000E+00
  0.00000000E+00  0.00000000E+00  0.00000000E+00
  0.00000000E+00  0.00000000E+00  0.00000000E+00
  0.00000000E+00  0.00000000E+00  0.00000000E+00
  0.00000000E+00  0.00000000E+00  0.00000000E+00
  0.00000000E+00  0.00000000E+00  0.00000000E+00
  0.00000000E+00  0.00000000E+00  0.00000000E+00
  0.00000000E+00  0.00000000E+00  0.00000000E+00
  0.00000000E+00  0.00000000E+00  0.00000000E+00
  0.00000000E+00  0.00000000E+00  0.00000000E+00
  0.00000000E+00  0.00000000E+00  0.00000000E+00
  0.00000000E+00  0.00000000E+00  0.00000000E+00
  0.00000000E+00  0.00000000E+00  0.00000000E+00
  0.00000000E+00  0.00000000E+00  0.00000000E+00
  0.00000000E+00  0.00000000E+00  0.00000000E+00
  0.00000000E+00  0.00000000E+00  0.00000000E+00
  0.00000000E+00  0.00000000E+00  0.00000000E+00
  0.00000000E+00  0.00000000E+00  0.00000000E+00
  0.00000000E+00  0.00000000E+00  0.00000000E+00
  0.00000000E+00  0.00000000E+00  0.00000000E+00
  0.00000000E+00  0.00000000E+00  0.00000000E+00
  0.00000000E+00  0.00000000E+00  0.00000000E+00
  0.00000000E+00  0.00000000E+00  0.00000000E+00
  0.00000000E+00  0.00000000E+00  0.00000000E+00
  0.00000000E+00  0.00000000E+00  0.00000000E+00
  0.00000000E+00  0.00000000E+00  0.00000000E+00
  0.00000000E+00  0.00000000E+00  0.00000000E+00
  0.00000000E+00  0.00000000E+00  0.00000000E+00
  0.00000000E+00  0.00000000E+00  0.00000000E+00
  0.00000000E+00  0.00000000E+00  0.00000000E+00
  0.00000000E+00  0.00000000E+00  0.00000000E+00
  0.00000000E+00  0.00000000E+00  0.00000000E+00
  0.00000000E+00  0.00000000E+00  0.00000000E+00
  0.00000000E+00  0.00000000E+00  0.00000000E+00
  0.00000000E+00  0.00000000E+00  0.00000000E+00
  0.00000000E+00  0.00000000E+00  0.00000000E+00
  0.00000000E+00  0.00000000E+00  0.00000000E+00
  0.00000000E+00  0.00000000E+00  0.00000000E+00
  0.00000000E+00  0.00000000E+00  0.00000000E+00
  0.00000000E+00  0.00000000E+00  0.00000000E+00
  0.00000000E+00  0.00000000E+00  0.00000000E+00
  0.00000000E+00  0.00000000E+00  0.00000000E+00
  0.00000000E+00  0.00000000E+00  0.00000000E+00
  0.00000000E+00  0.00000000E+00  0.00000000E+00
  0.00000000E+00  0.00000000E+00  0.00000000E+00
  0.00000000E+00  0.00000000E+00  0.00000000E+00
  0.00000000E+00  0.00000000E+00  0.00000000E+00
  0.00000000E+00  0.00000000E+00  0.00000000E+00
  0.00000000E+00  0.00000000E+00  0.00000000E+00
  0.00000000E+00  0.00000000E+00  0.00000000E+00
  0.00000000E+00  0.00000000E+00  0.00000000E+00
  0.00000000E+00  0.00000000E+00  0.00000000E+00
  0.00000000E+00  0.00000000E+00  0.00000000E+00
  0.00000000E+00  0.00000000E+00  0.00000000E+00
  0.00000000E+00  0.00000000E+00  0.00000000E+00
  0.00000000E+00  0.00000000E+00  0.00000000E+00
  0.00000000E+00  0.00000000E+00  0.00000000E+00
  0.00000000E+00  0.00000000E+00  0.00000000E+00
  0.00000000E+00  0.00000000E+00  0.00000000E+00
  0.00000000E+00  0.00000000E+00  0.00000000E+00
  0.00000000E+00  0.00000000E+00  0.00000000E+00
  0.00000000E+00  0.00000000E+00  0.00000000E+00
  0.00000000E+00  0.00000000E+00  0.00000000E+00
  0.00000000E+00  0.00000000E+00  0.00000000E+00
  0.00000000E+00  0.00000000E+00  0.00000000E+00
  0.00000000E+00  0.00000000E+00  0.00000000E+00
  0.00000000E+00  0.00000000E+00  0.00000000E+00
  0.00000000E+00  0.00000000E+00  0.00000000E+00
  0.00000000E+00  0.00000000E+00  0.00000000E+00
  0.00000000E+00  0.00000000E+00  0.00000000E+00
  0.00000000E+00  0.00000000E+00  0.00000000E+00
  0.00000000E+00  0.00000000E+00  0.00000000E+00
  0.00000000E+00  0.00000000E+00  0.00000000E+00
  0.00000000E+00  0.00000000E+00  0.00000000E+00
  0.00000000E+00  0.00000000E+00  0.00000000E+00
  0.00000000E+00  0.00000000E+00  0.00000000E+00
  0.00000000E+00  0.00000000E+00  0.00000000E+00
  0.00000000E+00  0.00000000E+00  0.00000000E+00
  0.00000000E+00  0.00000000E+00  0.00000000E+00
  0.00000000E+00  0.00000000E+00  0.00000000E+00
  0.00000000E+00  0.00000000E+00  0.00000000E+00
  0.00000000E+00  0.00000000E+00  0.00000000E+00
  0.00000000E+00  0.00000000E+00  0.00000000E+00
  0.00000000E+00  0.00000000E+00  0.00000000E+00
  0.00000000E+00  0.00000000E+00  0.00000000E+00
  0.00000000E+00  0.00000000E+00  0.00000000E+00
  0.00000000E+00  0.00000000E+00  0.00000000E+00
  0.00000000E+00  0.00000000E+00  0.00000000E+00
  0.00000000E+00  0.00000000E+00  0.00000000E+00
  0.00000000E+00  0.00000000E+00  0.00000000E+00
  0.00000000E+00  0.00000000E+00  0.00000000E+00
  0.00000000E+00  0.00000000E+00  0.00000000E+00
  0.00000000E+00  0.00000000E+00  0.00000000E+00
  0.00000000E+00  0.00000000E+00  0.00000000E+00
  0.00000000E+00  0.00000000E+00  0.00000000E+00
  0.00000000E+00  0.00000000E+00  0.00000000E+00
  0.00000000E+00  0.00000000E+00  0.00000000E+00
  0.00000000E+00  0.00000000E+00  0.00000000E+00
  0.00000000E+00  0.00000000E+00  0.00000000E+00
  0.00000000E+00  0.00000000E+00  0.00000000E+00
  0.00000000E+00  0.00000000E+00  0.00000000E+00
  0.00000000E+00  0.00000000E+00  0.00000000E+00
  0.00000000E+00  0.00000000E+00  0.00000000E+00
  0.00000000E+00  0.00000000E+00  0.00000000E+00
  0.00000000E+00  0.00000000E+00  0.00000000E+00
  0.00000000E+00  0.00000000E+00  0.00000000E+00
  0.00000000E+00  0.00000000E+00  0.00000000E+00
  0.00000000E+00  0.00000000E+00  0.00000000E+00
  0.00000000E+00  0.00000000E+00  0.00000000E+00
  0.00000000E+00  0.00000000E+00  0.00000000E+00
  0.00000000E+00  0.00000000E+00  0.00000000E+00
  0.00000000E+00  0.00000000E+00  0.00000000E+00
  0.00000000E+00  0.00000000E+00  0.00000000E+00
  0.00000000E+00  0.00000000E+00  0.00000000E+00
  0.00000000E+00  0.00000000E+00  0.00000000E+00
  0.00000000E+00  0.00000000E+00  0.00000000E+00
  0.00000000E+00  0.00000000E+00  0.00000000E+00
  0.00000000E+00  0.00000000E+00  0.00000000E+00
  0.00000000E+00  0.00000000E+00  0.00000000E+00
  0.00000000E+00  0.00000000E+00  0.00000000E+00
  0.00000000E+00  0.00000000E+00  0.00000000E+00
  0.00000000E+00  0.00000000E+00  0.00000000E+00
  0.00000000E+00  0.00000000E+00  0.00000000E+00
  0.00000000E+00  0.00000000E+00  0.00000000E+00
  0.00000000E+00  0.00000000E+00  0.00000000E+00
  0.00000000E+00  0.00000000E+00  0.00000000E+00
  0.00000000E+00  0.00000000E+00  0.00000000E+00
  0.00000000E+00  0.00000000E+00  0.00000000E+00
  0.00000000E+00  0.00000000E+00  0.00000000E+00
  0.00000000E+00  0.00000000E+00  0.00000000E+00
  0.00000000E+00  0.00000000E+00  0.00000000E+00
  0.00000000E+00  0.00000000E+00  0.00000000E+00
  0.00000000E+00  0.00000000E+00  0.00000000E+00
  0.00000000E+00  0.00000000E+00  0.00000000E+00
  0.00000000E+00  0.00000000E+00  0.00000000E+00
  0.00000000E+00  0.00000000E+00  0.00000000E+00
  0.00000000E+00  0.00000000E+00  0.00000000E+00
  0.00000000E+00  0.00000000E+00  0.00000000E+00
  0.00000000E+00  0.00000000E+00  0.00000000E+00
  0.00000000E+00  0.00000000E+00  0.00000000E+00
  0.00000000E+00  0.00000000E+00  0.00000000E+00
  0.00000000E+00  0.00000000E+00  0.00000000E+00
  0.00000000E+00  0.00000000E+00  0.00000000E+00
  0.00000000E+00  0.00000000E+00  0.00000000E+00
  0.00000000E+00  0.00000000E+00  0.00000000E+00
  0.00000000E+00  0.00000000E+00  0.00000000E+00
  0.00000000E+00  0.00000000E+00  0.00000000E+00
  0.00000000E+00  0.00000000E+00  0.00000000E+00
  0.00000000E+00  0.00000000E+00  0.00000000E+00
  0.00000000E+00  0.00000000E+00  0.00000000E+00
  0.00000000E+00  0.00000000E+00  0.00000000E+00
  0.00000000E+00  0.00000000E+00  0.00000000E+00
  0.00000000E+00  0.00000000E+00  0.00000000E+00
