POSCAR                                  
   1.00000000000000     
     9.8197548497449407   -0.0109175315938149    0.0050669270459941
    -0.0108763587764049    9.8431149785038947    0.0116725026543794
     0.0034037840693094    0.0076785999203933    6.5910570335478758
   Hf   Zr   Y    Na   H 
     9     9     9     9   216
Direct
  0.1602305817176628  0.1608316200563848  0.2473536067711137
  0.1600802760917048  0.8373136261658871  0.2466119985326145
  0.3406641374933628  0.6691474833865954  0.4929844057272277
  0.3299853502238719  0.9976703640825377  0.4995817195122143
  0.8306132881420325  0.5025200325688104  0.2472615120611437
  0.9962097348123180  0.3250011569721210  0.4977334926470363
  0.8336586045504646  0.5059118515585155  0.7539517631975485
  0.6755812784116628  0.9944173099408147  0.4994245250460452
  0.9961701623945274  0.6758680451054033  0.5039289617010496
  0.1601646667409398  0.1608180138118982  0.7527454002989487
  0.1671040916402902  0.5016604152639701  0.2504659245113317
  0.5054112355132787  0.1569008283675899  0.7501068138837326
  0.3353487671660034  0.3329105814520616  0.0010888198775163
  0.3322905040828559  0.6717743876347555  0.0041016766905742
  0.8361339015873810  0.1541619957716946  0.7555387763238599
  0.3368939096003842  0.9949735647489391  0.9994122172524484
  0.6679075244525094  0.6769011962233122  0.9987522007884380
  0.9953364779818372  0.3312430856403950  0.0031459155044402
  0.5043451138587898  0.1638301124092294  0.2488931777165959
  0.3320041490666412  0.3327800298237023  0.4998510649464407
  0.1647853322080479  0.5009469688156329  0.7511949925784975
  0.1659978973027236  0.8340772165968247  0.7531682280477909
  0.6679152969580002  0.3333206489198091  0.4984608992938320
  0.5029160778803217  0.5058850677584985  0.7506358921065086
  0.6680660491388011  0.3275678689373009  0.0034740838684044
  0.6642063971477583  0.6731202644890999  0.4985047574180044
  0.8316396547715570  0.8395482972808779  0.2434050945714503
  0.4996545129278545  0.5034483160549073  0.2494089632866974
  0.8338834849964627  0.1645273858520113  0.2493328907715053
  0.5028861488936869  0.8323438194977157  0.2485474242309067
  0.5045355048501392  0.8347225049719995  0.7491897285169102
  0.8324718348177527  0.8372854599043791  0.7518368498606804
  0.6702953454811151  0.9988421035888919  0.0010415651382019
  0.0002238708656250  0.6700006176543312  0.9975125342844464
  0.9975973054389158  0.9984771608579663  0.4992988837359249
  0.9935659299059836  0.9946614904167319  0.0013179657887221
  0.1568857161084978  0.0790090388510549  0.0022170891380568
  0.1536543634666927  0.0794503141009315  0.4984519189925436
  0.1663964394061637  0.4145192609990147  0.0033566966069714
  0.5076955545211490  0.0759089298984321  0.9994962054886543
  0.3298386382713545  0.2479651898813131  0.2478629838550077
  0.1590407271617877  0.4176508420105165  0.4974066656887999
  0.5052869207945818  0.0777244391208853  0.4981171163761360
  0.3350656836411474  0.2455531546610104  0.7523860524518398
  0.1581937604610602  0.7473784952942637  0.0033225232071814
  0.5010690134176201  0.4214077056586873  0.0110492089032874
  0.3401559062795840  0.5824982153368623  0.2440982132439231
  0.1683143127849434  0.7515668687849910  0.4983479891571818
  0.8371772467032486  0.0795860054070943  0.0158951966422123
  0.6784946769919173  0.2449173765041266  0.2538030067596040
  0.4981419616064571  0.4196685432195792  0.4907495225252774
  0.3347865690969272  0.5857351032689522  0.7568612998975368
  0.8435083556968266  0.0815919446043409  0.4845812090455084
  0.6723193342563718  0.2467063859101728  0.7486079516958526
  0.5009105768327657  0.7589038430593078  0.0001184698162291
  0.3413279748587996  0.9124390832289535  0.2486443005017165
  0.8326568800515304  0.4174852151975870  0.0006274903772905
  0.6567556808543529  0.5857724787164358  0.2441788696274827
  0.5003462597074488  0.7617552749937317  0.4983517739249876
  0.3471831480980541  0.9116471095797465  0.7495812702573303
  0.9906106675411550  0.2456501979830463  0.2486775384644133
  0.8377012247130864  0.4180752920585178  0.5021248156650842
  0.6696831377587884  0.5908314213653512  0.7553773749811370
  0.9953596287625430  0.2469490648194039  0.7534893672823912
  0.8409223211505150  0.7537237883328842  0.9864988964903461
  0.6594769310094364  0.9170530322885355  0.2279409669742520
  0.0003341790187150  0.5853807009578986  0.2453633837103339
  0.8310518179282909  0.7579659983861475  0.5145209161435815
  0.6686482859096898  0.9154463456184132  0.7632059089928873
  0.9974904713903996  0.5872646553620484  0.7592405331452454
  0.9974418412990218  0.9236490116813201  0.2506405269306313
  0.9922627597293996  0.9158168461997320  0.7517888309435392
  0.0780868132952293  0.1555488907112021  0.9999355550348099
  0.0788524045493375  0.1523119826982224  0.5005153171174257
  0.0793896664465237  0.5058247236798863  0.0044927164984330
  0.4167853813102411  0.1636307231450402  0.9968837999984927
  0.2474906945067517  0.3327660924039364  0.2470423984487127
  0.0784278537172369  0.5065753030708819  0.4979023768998587
  0.4190770572754943  0.1607898464052653  0.5022624010367238
  0.2484133743522960  0.3278184202697005  0.7537225476799634
  0.0778646816468580  0.8338518569163043  0.9990273107406438
  0.4216474865172444  0.5056211257919045  0.0131342312937690
  0.2472122640792733  0.6711728999918023  0.2540997744282478
  0.0801072373565788  0.8433005666411901  0.5029595549697987
  0.7527557349790612  0.1561950142501161  0.0084206745749356
  0.5798019152402958  0.3462509312744331  0.2494513345580529
  0.4201079743956839  0.4999262188824645  0.4861110557760000
  0.2517909012114146  0.6677922515116421  0.7440937313004738
  0.7563223941002875  0.1642646211265699  0.4903905499798569
  0.5838625271952864  0.3320269224717265  0.7523246264603429
  0.4248410821841446  0.8318991838134266  0.0035121316065059
  0.2521725404580835  0.9967627612936667  0.2458441818028447
  0.7462779672151498  0.5018109780024460  0.0038645075500625
  0.5782875319748371  0.6650512872227168  0.2438437868793386
  0.4223316604959635  0.8393135401780754  0.4923303016236247
  0.2526923288938221  0.0006358772375137  0.7523732391097084
  0.9153100738202511  0.3245795559377740  0.2498286286829128
  0.7509038421826375  0.5033683520680157  0.4972816263333186
  0.5809128767825698  0.6799891422196538  0.7548204938088645
  0.9152393656202307  0.3261531875825554  0.7521248703504781
  0.7512416407601492  0.8442802704950125  0.9844255425119925
  0.5810608502134045  0.9906996136509676  0.2405049258746672
  0.9194164209556632  0.6708311764908714  0.2323649942080124
  0.7576733905384003  0.8328443927561651  0.5124039783205987
  0.5846702959153163  0.9888295938381830  0.7596959167807853
  0.9168852703816341  0.6809108832335014  0.7635810310371127
  0.9176633238898830  0.0063023098387376  0.2521867058330898
  0.9185908827718308  0.9909412432612967  0.7511892591556446
  0.1573596811475255  0.0010710072716265  0.1178916955588178
  0.1582091659702556  0.9988569406649503  0.6206874115132237
  0.1637726011000282  0.3298121778030136  0.1235018041765343
  0.5118120035086378  0.9900184414503883  0.1256981178879073
  0.3322873479918513  0.1628366423237040  0.3729298579525988
  0.1615554250774736  0.3297104746564301  0.6265143553959405
  0.5038316373285880  0.9902849498416231  0.6274779069074654
  0.3321977137523859  0.1618485550525079  0.8748063479698871
  0.1570352002519542  0.6680274828623993  0.1255675118953903
  0.4996364715551636  0.3405840732448908  0.1275310912743279
  0.3395628574109466  0.5016109643161215  0.3674062727577336
  0.1703600517470818  0.6682563403324266  0.6219284127596012
  0.8302917274337247  0.0106700255597971  0.1238170628108151
  0.6777187294502909  0.1607490299624530  0.3733430696419759
  0.4996307367450612  0.3308058956236977  0.6290925020468165
  0.3347378192858130  0.5033839730467591  0.8774532501543320
  0.8418573245767647  0.9912061797372971  0.6274682205744568
  0.6706889296754568  0.1520863067359599  0.8779649393756941
  0.5008819414480641  0.6712191289415017  0.1240371948745391
  0.3420870665260267  0.8351251337433325  0.3685246223052019
  0.8348822205204627  0.3242878470137924  0.1276494344023789
  0.6607490043611719  0.5044997840660344  0.3690477049327328
  0.4979142646715502  0.6788389174591956  0.6342924568538280
  0.3467383245931970  0.8336081539198261  0.8678485707716916
  0.9913093904913381  0.1578775104639263  0.3722660589124303
  0.8351092503983040  0.3311964385465558  0.6285635368957116
  0.6693597173641166  0.5017220924172392  0.8828302550069083
  0.9988172269438422  0.1549266368904867  0.8838422625490736
  0.8427836086088476  0.6684655365808112  0.1199932991489661
  0.6582427924046783  0.8365826372577772  0.3661237242058490
  0.9966938408583417  0.5018371594461613  0.3763464204052482
  0.8312431003273275  0.6767622254583756  0.6325600664931130
  0.6686463598456172  0.8452195763297112  0.8757991240352752
  0.9968328977562493  0.5087665920771158  0.8800542702912395
  0.9969183516679436  0.8410759590359334  0.3780345514045109
  0.9920082842085094  0.8343821005408643  0.8744436820802193
  0.0750882064479228  0.0005492017507720  0.2471560987873787
  0.0773406414766598  0.9981579256075364  0.7502319376980893
  0.0816835733532884  0.3347275782756753  0.2453031154877294
  0.4230020900697298  0.9882696038073604  0.2530159786718684
  0.2476775564007383  0.1637255473186841  0.5045358858343860
  0.0805172463194666  0.3305571521928954  0.7559038390207746
  0.4235981940192701  0.9904646022175925  0.7481301529133688
  0.2500315850003858  0.1633969772083006  0.9959992648153317
  0.0795004797871641  0.6650423152688916  0.2399505304268885
  0.4180976677482633  0.3417377448019465  0.2495140015379036
  0.2474124143381147  0.5050222910735798  0.4972809077163944
  0.0802103814270581  0.6671496626184563  0.7584172346050977
  0.7506961664785692  0.0090462512289662  0.2374824001815909
  0.5870739995775125  0.1584659822760273  0.5004087538100208
  0.4191278771901850  0.3291716033939593  0.7508322274181438
  0.2513997817768185  0.4994370665090671  0.0025450703414691
  0.7498685783852537  0.9921619123535663  0.7654821452107257
  0.5871089035018073  0.1534630693224699  0.9979006243107094
  0.4223513302668067  0.6694263278256827  0.2451417484126850
  0.2479129232543755  0.8309049723867830  0.4958941098545111
  0.7537660754275350  0.3283813459360445  0.2505479011900249
  0.5815636641252766  0.5034168278086071  0.4843103045191484
  0.4212409800256296  0.6773625044836251  0.7544204904442537
  0.2507268919012233  0.8351918254388409  0.0046337306909763
  0.9156877447777916  0.1524649719396010  0.4915283108142603
  0.7528812144293937  0.3268509534761534  0.7511301510086525
  0.5812077126531747  0.5037079868996912  0.0146665535523169
  0.9167077768227259  0.1534319892839591  0.0129372798539151
  0.7484567201622170  0.6687197013273405  0.2465894603532988
  0.5758064872815964  0.8390075384854541  0.5022160345375326
  0.9183501306745683  0.5010233832823587  0.4969501750117473
  0.7527084750252087  0.6815528253528811  0.7509792332511154
  0.5804260758979538  0.8409231040939744  0.9939445163657226
  0.9192593113162388  0.5123785575716866  0.0034006061716667
  0.9176181632433824  0.8454531365846805  0.5092593435621779
  0.9182893677908126  0.8325790643493178  0.9910534785081140
  0.9905323122081597  0.1568908948633592  0.1242383509147515
  0.9969734518120603  0.1555774285306200  0.6217952814353893
  0.9973224017619415  0.5090214005255973  0.1239279635125641
  0.3317200031492504  0.1612814503945472  0.1226245655125524
  0.1621095137851043  0.3309165366265745  0.3722220052015928
  0.9962738031892968  0.4998575714980973  0.6217468918418305
  0.3337684283129221  0.1625023016372964  0.6291717339615417
  0.1640333592656447  0.3288727425639522  0.8783021516591916
  0.9959655503228788  0.8318161006661171  0.1146365730284415
  0.3397298632534245  0.5026358792465757  0.1283279783112476
  0.1626652421227419  0.6693512275134879  0.3741839441326391
  0.9929261006716033  0.8438545289046289  0.6303037882177662
  0.6773773630503186  0.1522145406628610  0.1252217584988031
  0.4985580585280616  0.3393051195313035  0.3701731614959911
  0.3339586518685778  0.5042241581791131  0.6257885394320439
  0.1597453308702299  0.6677509760226243  0.8805265076996633
  0.6723764741943228  0.1610286893920829  0.6234586298962839
  0.5012803124978333  0.3327658241977005  0.8730516355803033
  0.3460583528210108  0.8348765167734271  0.1314836465346545
  0.1588873014520473  0.9998891805355825  0.3779711807470534
  0.6597385880928357  0.5054884590612332  0.1242745559841225
  0.5004000355620732  0.6687253320320536  0.3611452951720651
  0.3433444920581650  0.8329589671258972  0.6301495530367731
  0.1559963871693029  0.9985811976096386  0.8829388912027127
  0.8351808946668982  0.3287316471905726  0.3705887040838007
  0.6715441833166409  0.5034034355663408  0.6230667642236298
  0.4987521552169767  0.6792862036622651  0.8740541720586350
  0.8343880106201595  0.3314674423939223  0.8731248840450974
  0.6581409820669251  0.8481981029758785  0.1230911891631479
  0.5037872687706368  0.9906726329574127  0.3704463691430817
  0.8349069626218864  0.6688931216213660  0.3735524715312408
  0.6667737312177593  0.8362588215150808  0.6355337290348189
  0.5125389851323376  0.9879941639196517  0.8744302919430922
  0.8394241768833623  0.6787921567061161  0.8780926473740465
  0.8418724523421943  0.0095877409998195  0.3706284012609018
  0.8318570958591920  0.9887760188562851  0.8788360205504020
  0.9923537998930527  0.0810313357270829  0.2489966781337927
  0.9988507296544000  0.0733721395712053  0.7514430586510414
  0.9986286813364629  0.4185959061970834  0.2515232259602413
  0.3325032696101786  0.0807897277076464  0.2439799081318270
  0.1647978752097217  0.2465233739797910  0.4967354771510912
  0.9957815031165893  0.4150415552721398  0.7485080752985169
  0.3346633743836875  0.0833180276660528  0.7547481194646224
  0.1658927625626347  0.2477888270659747  0.0032139021627202
  0.9965812390312081  0.7473718480663436  0.2359227759389526
  0.3393369318930510  0.4205451652979733  0.2477757376549263
  0.1609688287032967  0.5859081324311646  0.4967486693713283
  0.9871027614845644  0.7545455283041207  0.7650147847225242
  0.6759194004394828  0.0806030457404461  0.2420695778239192
  0.5004369169440395  0.2470488533824025  0.5030971267749962
  0.3358076792464644  0.4162970148819696  0.7528039397577260
  0.1622066843551551  0.5850369430677844  0.0048644475928441
  0.6706872779363664  0.0758703134617704  0.7644364696135000
  0.4976582430407532  0.2477665928571255  0.9955006812731995
  0.3388139293811960  0.7559883741873819  0.2491188791520926
  0.1541411794318748  0.9185374701209739  0.5006092400862983
  0.6580439050227653  0.4198816462657220  0.2465176668256603
  0.5006983179184346  0.5820645000481690  0.4861026790554348
  0.3441258203274344  0.7552500040251147  0.7487818150439907
  0.1551414630216073  0.9220342996825011  0.9987223757443005
  0.8311188703163737  0.2432736976758960  0.4903674721301385
  0.6695368922571845  0.4143998799141215  0.7543746419166055
  0.4983432731977047  0.5835728521034085  0.0125842716802964
  0.8350701760066954  0.2439165690929599  0.0104923494169213
  0.6587993732533235  0.7563479649983478  0.2475975654756297
  0.5012138974868279  0.9151275851710068  0.5038276584067418
  0.8362326777402629  0.5867275428058178  0.5030454674357827
  0.6692042010336010  0.7598628874585245  0.7505799186885866
  0.5100645054122452  0.9153862069701617  0.9954913877747487
  0.8388907461991622  0.5904465468271169  0.9982016718426863
  0.8443077859582289  0.9175849865708017  0.5148720030722629
  0.8298762214578304  0.9172279422319605  0.9839965015803713
 
  0.00000000E+00  0.00000000E+00  0.00000000E+00
  0.00000000E+00  0.00000000E+00  0.00000000E+00
  0.00000000E+00  0.00000000E+00  0.00000000E+00
  0.00000000E+00  0.00000000E+00  0.00000000E+00
  0.00000000E+00  0.00000000E+00  0.00000000E+00
  0.00000000E+00  0.00000000E+00  0.00000000E+00
  0.00000000E+00  0.00000000E+00  0.00000000E+00
  0.00000000E+00  0.00000000E+00  0.00000000E+00
  0.00000000E+00  0.00000000E+00  0.00000000E+00
  0.00000000E+00  0.00000000E+00  0.00000000E+00
  0.00000000E+00  0.00000000E+00  0.00000000E+00
  0.00000000E+00  0.00000000E+00  0.00000000E+00
  0.00000000E+00  0.00000000E+00  0.00000000E+00
  0.00000000E+00  0.00000000E+00  0.00000000E+00
  0.00000000E+00  0.00000000E+00  0.00000000E+00
  0.00000000E+00  0.00000000E+00  0.00000000E+00
  0.00000000E+00  0.00000000E+00  0.00000000E+00
  0.00000000E+00  0.00000000E+00  0.00000000E+00
  0.00000000E+00  0.00000000E+00  0.00000000E+00
  0.00000000E+00  0.00000000E+00  0.00000000E+00
  0.00000000E+00  0.00000000E+00  0.00000000E+00
  0.00000000E+00  0.00000000E+00  0.00000000E+00
  0.00000000E+00  0.00000000E+00  0.00000000E+00
  0.00000000E+00  0.00000000E+00  0.00000000E+00
  0.00000000E+00  0.00000000E+00  0.00000000E+00
  0.00000000E+00  0.00000000E+00  0.00000000E+00
  0.00000000E+00  0.00000000E+00  0.00000000E+00
  0.00000000E+00  0.00000000E+00  0.00000000E+00
  0.00000000E+00  0.00000000E+00  0.00000000E+00
  0.00000000E+00  0.00000000E+00  0.00000000E+00
  0.00000000E+00  0.00000000E+00  0.00000000E+00
  0.00000000E+00  0.00000000E+00  0.00000000E+00
  0.00000000E+00  0.00000000E+00  0.00000000E+00
  0.00000000E+00  0.00000000E+00  0.00000000E+00
  0.00000000E+00  0.00000000E+00  0.00000000E+00
  0.00000000E+00  0.00000000E+00  0.00000000E+00
  0.00000000E+00  0.00000000E+00  0.00000000E+00
  0.00000000E+00  0.00000000E+00  0.00000000E+00
  0.00000000E+00  0.00000000E+00  0.00000000E+00
  0.00000000E+00  0.00000000E+00  0.00000000E+00
  0.00000000E+00  0.00000000E+00  0.00000000E+00
  0.00000000E+00  0.00000000E+00  0.00000000E+00
  0.00000000E+00  0.00000000E+00  0.00000000E+00
  0.00000000E+00  0.00000000E+00  0.00000000E+00
  0.00000000E+00  0.00000000E+00  0.00000000E+00
  0.00000000E+00  0.00000000E+00  0.00000000E+00
  0.00000000E+00  0.00000000E+00  0.00000000E+00
  0.00000000E+00  0.00000000E+00  0.00000000E+00
  0.00000000E+00  0.00000000E+00  0.00000000E+00
  0.00000000E+00  0.00000000E+00  0.00000000E+00
  0.00000000E+00  0.00000000E+00  0.00000000E+00
  0.00000000E+00  0.00000000E+00  0.00000000E+00
  0.00000000E+00  0.00000000E+00  0.00000000E+00
  0.00000000E+00  0.00000000E+00  0.00000000E+00
  0.00000000E+00  0.00000000E+00  0.00000000E+00
  0.00000000E+00  0.00000000E+00  0.00000000E+00
  0.00000000E+00  0.00000000E+00  0.00000000E+00
  0.00000000E+00  0.00000000E+00  0.00000000E+00
  0.00000000E+00  0.00000000E+00  0.00000000E+00
  0.00000000E+00  0.00000000E+00  0.00000000E+00
  0.00000000E+00  0.00000000E+00  0.00000000E+00
  0.00000000E+00  0.00000000E+00  0.00000000E+00
  0.00000000E+00  0.00000000E+00  0.00000000E+00
  0.00000000E+00  0.00000000E+00  0.00000000E+00
  0.00000000E+00  0.00000000E+00  0.00000000E+00
  0.00000000E+00  0.00000000E+00  0.00000000E+00
  0.00000000E+00  0.00000000E+00  0.00000000E+00
  0.00000000E+00  0.00000000E+00  0.00000000E+00
  0.00000000E+00  0.00000000E+00  0.00000000E+00
  0.00000000E+00  0.00000000E+00  0.00000000E+00
  0.00000000E+00  0.00000000E+00  0.00000000E+00
  0.00000000E+00  0.00000000E+00  0.00000000E+00
  0.00000000E+00  0.00000000E+00  0.00000000E+00
  0.00000000E+00  0.00000000E+00  0.00000000E+00
  0.00000000E+00  0.00000000E+00  0.00000000E+00
  0.00000000E+00  0.00000000E+00  0.00000000E+00
  0.00000000E+00  0.00000000E+00  0.00000000E+00
  0.00000000E+00  0.00000000E+00  0.00000000E+00
  0.00000000E+00  0.00000000E+00  0.00000000E+00
  0.00000000E+00  0.00000000E+00  0.00000000E+00
  0.00000000E+00  0.00000000E+00  0.00000000E+00
  0.00000000E+00  0.00000000E+00  0.00000000E+00
  0.00000000E+00  0.00000000E+00  0.00000000E+00
  0.00000000E+00  0.00000000E+00  0.00000000E+00
  0.00000000E+00  0.00000000E+00  0.00000000E+00
  0.00000000E+00  0.00000000E+00  0.00000000E+00
  0.00000000E+00  0.00000000E+00  0.00000000E+00
  0.00000000E+00  0.00000000E+00  0.00000000E+00
  0.00000000E+00  0.00000000E+00  0.00000000E+00
  0.00000000E+00  0.00000000E+00  0.00000000E+00
  0.00000000E+00  0.00000000E+00  0.00000000E+00
  0.00000000E+00  0.00000000E+00  0.00000000E+00
  0.00000000E+00  0.00000000E+00  0.00000000E+00
  0.00000000E+00  0.00000000E+00  0.00000000E+00
  0.00000000E+00  0.00000000E+00  0.00000000E+00
  0.00000000E+00  0.00000000E+00  0.00000000E+00
  0.00000000E+00  0.00000000E+00  0.00000000E+00
  0.00000000E+00  0.00000000E+00  0.00000000E+00
  0.00000000E+00  0.00000000E+00  0.00000000E+00
  0.00000000E+00  0.00000000E+00  0.00000000E+00
  0.00000000E+00  0.00000000E+00  0.00000000E+00
  0.00000000E+00  0.00000000E+00  0.00000000E+00
  0.00000000E+00  0.00000000E+00  0.00000000E+00
  0.00000000E+00  0.00000000E+00  0.00000000E+00
  0.00000000E+00  0.00000000E+00  0.00000000E+00
  0.00000000E+00  0.00000000E+00  0.00000000E+00
  0.00000000E+00  0.00000000E+00  0.00000000E+00
  0.00000000E+00  0.00000000E+00  0.00000000E+00
  0.00000000E+00  0.00000000E+00  0.00000000E+00
  0.00000000E+00  0.00000000E+00  0.00000000E+00
  0.00000000E+00  0.00000000E+00  0.00000000E+00
  0.00000000E+00  0.00000000E+00  0.00000000E+00
  0.00000000E+00  0.00000000E+00  0.00000000E+00
  0.00000000E+00  0.00000000E+00  0.00000000E+00
  0.00000000E+00  0.00000000E+00  0.00000000E+00
  0.00000000E+00  0.00000000E+00  0.00000000E+00
  0.00000000E+00  0.00000000E+00  0.00000000E+00
  0.00000000E+00  0.00000000E+00  0.00000000E+00
  0.00000000E+00  0.00000000E+00  0.00000000E+00
  0.00000000E+00  0.00000000E+00  0.00000000E+00
  0.00000000E+00  0.00000000E+00  0.00000000E+00
  0.00000000E+00  0.00000000E+00  0.00000000E+00
  0.00000000E+00  0.00000000E+00  0.00000000E+00
  0.00000000E+00  0.00000000E+00  0.00000000E+00
  0.00000000E+00  0.00000000E+00  0.00000000E+00
  0.00000000E+00  0.00000000E+00  0.00000000E+00
  0.00000000E+00  0.00000000E+00  0.00000000E+00
  0.00000000E+00  0.00000000E+00  0.00000000E+00
  0.00000000E+00  0.00000000E+00  0.00000000E+00
  0.00000000E+00  0.00000000E+00  0.00000000E+00
  0.00000000E+00  0.00000000E+00  0.00000000E+00
  0.00000000E+00  0.00000000E+00  0.00000000E+00
  0.00000000E+00  0.00000000E+00  0.00000000E+00
  0.00000000E+00  0.00000000E+00  0.00000000E+00
  0.00000000E+00  0.00000000E+00  0.00000000E+00
  0.00000000E+00  0.00000000E+00  0.00000000E+00
  0.00000000E+00  0.00000000E+00  0.00000000E+00
  0.00000000E+00  0.00000000E+00  0.00000000E+00
  0.00000000E+00  0.00000000E+00  0.00000000E+00
  0.00000000E+00  0.00000000E+00  0.00000000E+00
  0.00000000E+00  0.00000000E+00  0.00000000E+00
  0.00000000E+00  0.00000000E+00  0.00000000E+00
  0.00000000E+00  0.00000000E+00  0.00000000E+00
  0.00000000E+00  0.00000000E+00  0.00000000E+00
  0.00000000E+00  0.00000000E+00  0.00000000E+00
  0.00000000E+00  0.00000000E+00  0.00000000E+00
  0.00000000E+00  0.00000000E+00  0.00000000E+00
  0.00000000E+00  0.00000000E+00  0.00000000E+00
  0.00000000E+00  0.00000000E+00  0.00000000E+00
  0.00000000E+00  0.00000000E+00  0.00000000E+00
  0.00000000E+00  0.00000000E+00  0.00000000E+00
  0.00000000E+00  0.00000000E+00  0.00000000E+00
  0.00000000E+00  0.00000000E+00  0.00000000E+00
  0.00000000E+00  0.00000000E+00  0.00000000E+00
  0.00000000E+00  0.00000000E+00  0.00000000E+00
  0.00000000E+00  0.00000000E+00  0.00000000E+00
  0.00000000E+00  0.00000000E+00  0.00000000E+00
  0.00000000E+00  0.00000000E+00  0.00000000E+00
  0.00000000E+00  0.00000000E+00  0.00000000E+00
  0.00000000E+00  0.00000000E+00  0.00000000E+00
  0.00000000E+00  0.00000000E+00  0.00000000E+00
  0.00000000E+00  0.00000000E+00  0.00000000E+00
  0.00000000E+00  0.00000000E+00  0.00000000E+00
  0.00000000E+00  0.00000000E+00  0.00000000E+00
  0.00000000E+00  0.00000000E+00  0.00000000E+00
  0.00000000E+00  0.00000000E+00  0.00000000E+00
  0.00000000E+00  0.00000000E+00  0.00000000E+00
  0.00000000E+00  0.00000000E+00  0.00000000E+00
  0.00000000E+00  0.00000000E+00  0.00000000E+00
  0.00000000E+00  0.00000000E+00  0.00000000E+00
  0.00000000E+00  0.00000000E+00  0.00000000E+00
  0.00000000E+00  0.00000000E+00  0.00000000E+00
  0.00000000E+00  0.00000000E+00  0.00000000E+00
  0.00000000E+00  0.00000000E+00  0.00000000E+00
  0.00000000E+00  0.00000000E+00  0.00000000E+00
  0.00000000E+00  0.00000000E+00  0.00000000E+00
  0.00000000E+00  0.00000000E+00  0.00000000E+00
  0.00000000E+00  0.00000000E+00  0.00000000E+00
  0.00000000E+00  0.00000000E+00  0.00000000E+00
  0.00000000E+00  0.00000000E+00  0.00000000E+00
  0.00000000E+00  0.00000000E+00  0.00000000E+00
  0.00000000E+00  0.00000000E+00  0.00000000E+00
  0.00000000E+00  0.00000000E+00  0.00000000E+00
  0.00000000E+00  0.00000000E+00  0.00000000E+00
  0.00000000E+00  0.00000000E+00  0.00000000E+00
  0.00000000E+00  0.00000000E+00  0.00000000E+00
  0.00000000E+00  0.00000000E+00  0.00000000E+00
  0.00000000E+00  0.00000000E+00  0.00000000E+00
  0.00000000E+00  0.00000000E+00  0.00000000E+00
  0.00000000E+00  0.00000000E+00  0.00000000E+00
  0.00000000E+00  0.00000000E+00  0.00000000E+00
  0.00000000E+00  0.00000000E+00  0.00000000E+00
  0.00000000E+00  0.00000000E+00  0.00000000E+00
  0.00000000E+00  0.00000000E+00  0.00000000E+00
  0.00000000E+00  0.00000000E+00  0.00000000E+00
  0.00000000E+00  0.00000000E+00  0.00000000E+00
  0.00000000E+00  0.00000000E+00  0.00000000E+00
  0.00000000E+00  0.00000000E+00  0.00000000E+00
  0.00000000E+00  0.00000000E+00  0.00000000E+00
  0.00000000E+00  0.00000000E+00  0.00000000E+00
  0.00000000E+00  0.00000000E+00  0.00000000E+00
  0.00000000E+00  0.00000000E+00  0.00000000E+00
  0.00000000E+00  0.00000000E+00  0.00000000E+00
  0.00000000E+00  0.00000000E+00  0.00000000E+00
  0.00000000E+00  0.00000000E+00  0.00000000E+00
  0.00000000E+00  0.00000000E+00  0.00000000E+00
  0.00000000E+00  0.00000000E+00  0.00000000E+00
  0.00000000E+00  0.00000000E+00  0.00000000E+00
  0.00000000E+00  0.00000000E+00  0.00000000E+00
  0.00000000E+00  0.00000000E+00  0.00000000E+00
  0.00000000E+00  0.00000000E+00  0.00000000E+00
  0.00000000E+00  0.00000000E+00  0.00000000E+00
  0.00000000E+00  0.00000000E+00  0.00000000E+00
  0.00000000E+00  0.00000000E+00  0.00000000E+00
  0.00000000E+00  0.00000000E+00  0.00000000E+00
  0.00000000E+00  0.00000000E+00  0.00000000E+00
  0.00000000E+00  0.00000000E+00  0.00000000E+00
  0.00000000E+00  0.00000000E+00  0.00000000E+00
  0.00000000E+00  0.00000000E+00  0.00000000E+00
  0.00000000E+00  0.00000000E+00  0.00000000E+00
  0.00000000E+00  0.00000000E+00  0.00000000E+00
  0.00000000E+00  0.00000000E+00  0.00000000E+00
  0.00000000E+00  0.00000000E+00  0.00000000E+00
  0.00000000E+00  0.00000000E+00  0.00000000E+00
  0.00000000E+00  0.00000000E+00  0.00000000E+00
  0.00000000E+00  0.00000000E+00  0.00000000E+00
  0.00000000E+00  0.00000000E+00  0.00000000E+00
  0.00000000E+00  0.00000000E+00  0.00000000E+00
  0.00000000E+00  0.00000000E+00  0.00000000E+00
  0.00000000E+00  0.00000000E+00  0.00000000E+00
  0.00000000E+00  0.00000000E+00  0.00000000E+00
  0.00000000E+00  0.00000000E+00  0.00000000E+00
  0.00000000E+00  0.00000000E+00  0.00000000E+00
  0.00000000E+00  0.00000000E+00  0.00000000E+00
  0.00000000E+00  0.00000000E+00  0.00000000E+00
  0.00000000E+00  0.00000000E+00  0.00000000E+00
  0.00000000E+00  0.00000000E+00  0.00000000E+00
  0.00000000E+00  0.00000000E+00  0.00000000E+00
  0.00000000E+00  0.00000000E+00  0.00000000E+00
  0.00000000E+00  0.00000000E+00  0.00000000E+00
  0.00000000E+00  0.00000000E+00  0.00000000E+00
  0.00000000E+00  0.00000000E+00  0.00000000E+00
  0.00000000E+00  0.00000000E+00  0.00000000E+00
  0.00000000E+00  0.00000000E+00  0.00000000E+00
  0.00000000E+00  0.00000000E+00  0.00000000E+00
  0.00000000E+00  0.00000000E+00  0.00000000E+00
  0.00000000E+00  0.00000000E+00  0.00000000E+00
  0.00000000E+00  0.00000000E+00  0.00000000E+00
  0.00000000E+00  0.00000000E+00  0.00000000E+00
  0.00000000E+00  0.00000000E+00  0.00000000E+00
  0.00000000E+00  0.00000000E+00  0.00000000E+00
  0.00000000E+00  0.00000000E+00  0.00000000E+00
