generated by phonopy                    
   1.00000000000000     
     0.0000000000000000    3.2322268631860425    3.2322268631861593
     3.2322268631860922    0.0000000000000000    3.2322268631861593
     3.2322268631860922    3.2322268631860425    0.0000000000000000
   Na   Zr   K    Ca   H 
     1     1     1     1    24
Direct
  0.2500000000000000  0.2500000000000000  0.2500000000000000
  0.7500000000000000  0.7500000000000000  0.7500000000000000
  0.0000000000000000  0.0000000000000000  0.0000000000000000
  0.5000000000000000  0.5000000000000000  0.5000000000000000
  0.1406492610170247  0.8869039774652663  0.6112749068349430
  0.8869039774652663  0.1406492610170247  0.3611718546827802
  0.6112749068349430  0.3611718546827802  0.1406492610170247
  0.3611718546827802  0.6112749068349430  0.8869039774652663
  0.6112749068349430  0.1406492610170247  0.8869039774652663
  0.3611718546827802  0.8869039774652663  0.1406492610170247
  0.1406492610170247  0.6112749068349430  0.3611718546827802
  0.8869039774652663  0.3611718546827802  0.6112749068349430
  0.8869039774652663  0.6112749068349430  0.1406492610170247
  0.1406492610170247  0.3611718546827802  0.8869039774652663
  0.3611718546827802  0.1406492610170247  0.6112749068349430
  0.6112749068349430  0.8869039774652663  0.3611718546827802
  0.1406492610170247  0.3611718546827802  0.6112749068349430
  0.3611718546827802  0.1406492610170247  0.8869039774652663
  0.6112749068349430  0.8869039774652663  0.1406492610170247
  0.8869039774652663  0.6112749068349430  0.3611718546827802
  0.6112749068349430  0.1406492610170247  0.3611718546827802
  0.8869039774652663  0.3611718546827802  0.1406492610170247
  0.1406492610170247  0.6112749068349430  0.8869039774652663
  0.3611718546827802  0.8869039774652663  0.6112749068349430
  0.3611718546827802  0.6112749068349430  0.1406492610170247
  0.1406492610170247  0.8869039774652663  0.3611718546827802
  0.8869039774652663  0.1406492610170247  0.6112749068349430
  0.6112749068349430  0.3611718546827802  0.8869039774652663
 
  0.00000000E+00  0.00000000E+00  0.00000000E+00
  0.00000000E+00  0.00000000E+00  0.00000000E+00
  0.00000000E+00  0.00000000E+00  0.00000000E+00
  0.00000000E+00  0.00000000E+00  0.00000000E+00
  0.00000000E+00  0.00000000E+00  0.00000000E+00
  0.00000000E+00  0.00000000E+00  0.00000000E+00
  0.00000000E+00  0.00000000E+00  0.00000000E+00
  0.00000000E+00  0.00000000E+00  0.00000000E+00
  0.00000000E+00  0.00000000E+00  0.00000000E+00
  0.00000000E+00  0.00000000E+00  0.00000000E+00
  0.00000000E+00  0.00000000E+00  0.00000000E+00
  0.00000000E+00  0.00000000E+00  0.00000000E+00
  0.00000000E+00  0.00000000E+00  0.00000000E+00
  0.00000000E+00  0.00000000E+00  0.00000000E+00
  0.00000000E+00  0.00000000E+00  0.00000000E+00
  0.00000000E+00  0.00000000E+00  0.00000000E+00
  0.00000000E+00  0.00000000E+00  0.00000000E+00
  0.00000000E+00  0.00000000E+00  0.00000000E+00
  0.00000000E+00  0.00000000E+00  0.00000000E+00
  0.00000000E+00  0.00000000E+00  0.00000000E+00
  0.00000000E+00  0.00000000E+00  0.00000000E+00
  0.00000000E+00  0.00000000E+00  0.00000000E+00
  0.00000000E+00  0.00000000E+00  0.00000000E+00
  0.00000000E+00  0.00000000E+00  0.00000000E+00
  0.00000000E+00  0.00000000E+00  0.00000000E+00
  0.00000000E+00  0.00000000E+00  0.00000000E+00
  0.00000000E+00  0.00000000E+00  0.00000000E+00
  0.00000000E+00  0.00000000E+00  0.00000000E+00
