generated by phonopy                    
   1.00000000000000     
     0.0000000000000000    3.4016047757824124    3.4016047757824821
     3.4016047757824439    0.0000000000000000    3.4016047757824821
     3.4016047757824439    3.4016047757824124    0.0000000000000000
   Sc   Ce   Y    Hf   H 
     1     1     1     1    24
Direct
  0.2500000000000000  0.2500000000000000  0.2500000000000000
  0.7500000000000000  0.7500000000000000  0.7500000000000000
  0.0000000000000000  0.0000000000000000  0.0000000000000000
  0.5000000000000000  0.5000000000000000  0.5000000000000000
  0.1286728075176526  0.8863942137026299  0.6136485534721174
  0.8863942137026299  0.1286728075176526  0.3712844253076000
  0.6136485534721174  0.3712844253076000  0.1286728075176526
  0.3712844253076000  0.6136485534721174  0.8863942137026299
  0.6136485534721174  0.1286728075176526  0.8863942137026299
  0.3712844253076000  0.8863942137026299  0.1286728075176526
  0.1286728075176526  0.6136485534721174  0.3712844253076000
  0.8863942137026299  0.3712844253076000  0.6136485534721174
  0.8863942137026299  0.6136485534721174  0.1286728075176526
  0.1286728075176526  0.3712844253076000  0.8863942137026299
  0.3712844253076000  0.1286728075176526  0.6136485534721174
  0.6136485534721174  0.8863942137026299  0.3712844253076000
  0.1286728075176526  0.3712844253076000  0.6136485534721174
  0.3712844253076000  0.1286728075176526  0.8863942137026299
  0.6136485534721174  0.8863942137026299  0.1286728075176526
  0.8863942137026299  0.6136485534721174  0.3712844253076000
  0.6136485534721174  0.1286728075176526  0.3712844253076000
  0.8863942137026299  0.3712844253076000  0.1286728075176526
  0.1286728075176526  0.6136485534721174  0.8863942137026299
  0.3712844253076000  0.8863942137026299  0.6136485534721174
  0.3712844253076000  0.6136485534721174  0.1286728075176526
  0.1286728075176526  0.8863942137026299  0.3712844253076000
  0.8863942137026299  0.1286728075176526  0.6136485534721174
  0.6136485534721174  0.3712844253076000  0.8863942137026299
 
  0.00000000E+00  0.00000000E+00  0.00000000E+00
  0.00000000E+00  0.00000000E+00  0.00000000E+00
  0.00000000E+00  0.00000000E+00  0.00000000E+00
  0.00000000E+00  0.00000000E+00  0.00000000E+00
  0.00000000E+00  0.00000000E+00  0.00000000E+00
  0.00000000E+00  0.00000000E+00  0.00000000E+00
  0.00000000E+00  0.00000000E+00  0.00000000E+00
  0.00000000E+00  0.00000000E+00  0.00000000E+00
  0.00000000E+00  0.00000000E+00  0.00000000E+00
  0.00000000E+00  0.00000000E+00  0.00000000E+00
  0.00000000E+00  0.00000000E+00  0.00000000E+00
  0.00000000E+00  0.00000000E+00  0.00000000E+00
  0.00000000E+00  0.00000000E+00  0.00000000E+00
  0.00000000E+00  0.00000000E+00  0.00000000E+00
  0.00000000E+00  0.00000000E+00  0.00000000E+00
  0.00000000E+00  0.00000000E+00  0.00000000E+00
  0.00000000E+00  0.00000000E+00  0.00000000E+00
  0.00000000E+00  0.00000000E+00  0.00000000E+00
  0.00000000E+00  0.00000000E+00  0.00000000E+00
  0.00000000E+00  0.00000000E+00  0.00000000E+00
  0.00000000E+00  0.00000000E+00  0.00000000E+00
  0.00000000E+00  0.00000000E+00  0.00000000E+00
  0.00000000E+00  0.00000000E+00  0.00000000E+00
  0.00000000E+00  0.00000000E+00  0.00000000E+00
  0.00000000E+00  0.00000000E+00  0.00000000E+00
  0.00000000E+00  0.00000000E+00  0.00000000E+00
  0.00000000E+00  0.00000000E+00  0.00000000E+00
  0.00000000E+00  0.00000000E+00  0.00000000E+00
