generated by phonopy                    
   1.00000000000000     
     0.0000000000000000    3.2439519088894069    3.2439519088894606
     3.2439519088894295    0.0000000000000000    3.2439519088894606
     3.2439519088894295    3.2439519088894069    0.0000000000000000
   Mg   Zr   Sc   Hf   H 
     1     1     1     1    24
Direct
  0.2500000000000000  0.2500000000000000  0.2500000000000000
  0.7500000000000000  0.7500000000000000  0.7500000000000000
  0.0000000000000000  0.0000000000000000  0.0000000000000000
  0.5000000000000000  0.5000000000000000  0.5000000000000000
  0.1265599068506589  0.8915282845513417  0.6191676820131846
  0.8915282845513417  0.1265599068506589  0.3627441265848077
  0.6191676820131846  0.3627441265848077  0.1265599068506589
  0.3627441265848077  0.6191676820131846  0.8915282845513417
  0.6191676820131846  0.1265599068506589  0.8915282845513417
  0.3627441265848077  0.8915282845513417  0.1265599068506589
  0.1265599068506589  0.6191676820131846  0.3627441265848077
  0.8915282845513417  0.3627441265848077  0.6191676820131846
  0.8915282845513417  0.6191676820131846  0.1265599068506589
  0.1265599068506589  0.3627441265848077  0.8915282845513417
  0.3627441265848077  0.1265599068506589  0.6191676820131846
  0.6191676820131846  0.8915282845513417  0.3627441265848077
  0.1265599068506589  0.3627441265848077  0.6191676820131846
  0.3627441265848077  0.1265599068506589  0.8915282845513417
  0.6191676820131846  0.8915282845513417  0.1265599068506589
  0.8915282845513417  0.6191676820131846  0.3627441265848077
  0.6191676820131846  0.1265599068506589  0.3627441265848077
  0.8915282845513417  0.3627441265848077  0.1265599068506589
  0.1265599068506589  0.6191676820131846  0.8915282845513417
  0.3627441265848077  0.8915282845513417  0.6191676820131846
  0.3627441265848077  0.6191676820131846  0.1265599068506589
  0.1265599068506589  0.8915282845513417  0.3627441265848077
  0.8915282845513417  0.1265599068506589  0.6191676820131846
  0.6191676820131846  0.3627441265848077  0.8915282845513417
 
  0.00000000E+00  0.00000000E+00  0.00000000E+00
  0.00000000E+00  0.00000000E+00  0.00000000E+00
  0.00000000E+00  0.00000000E+00  0.00000000E+00
  0.00000000E+00  0.00000000E+00  0.00000000E+00
  0.00000000E+00  0.00000000E+00  0.00000000E+00
  0.00000000E+00  0.00000000E+00  0.00000000E+00
  0.00000000E+00  0.00000000E+00  0.00000000E+00
  0.00000000E+00  0.00000000E+00  0.00000000E+00
  0.00000000E+00  0.00000000E+00  0.00000000E+00
  0.00000000E+00  0.00000000E+00  0.00000000E+00
  0.00000000E+00  0.00000000E+00  0.00000000E+00
  0.00000000E+00  0.00000000E+00  0.00000000E+00
  0.00000000E+00  0.00000000E+00  0.00000000E+00
  0.00000000E+00  0.00000000E+00  0.00000000E+00
  0.00000000E+00  0.00000000E+00  0.00000000E+00
  0.00000000E+00  0.00000000E+00  0.00000000E+00
  0.00000000E+00  0.00000000E+00  0.00000000E+00
  0.00000000E+00  0.00000000E+00  0.00000000E+00
  0.00000000E+00  0.00000000E+00  0.00000000E+00
  0.00000000E+00  0.00000000E+00  0.00000000E+00
  0.00000000E+00  0.00000000E+00  0.00000000E+00
  0.00000000E+00  0.00000000E+00  0.00000000E+00
  0.00000000E+00  0.00000000E+00  0.00000000E+00
  0.00000000E+00  0.00000000E+00  0.00000000E+00
  0.00000000E+00  0.00000000E+00  0.00000000E+00
  0.00000000E+00  0.00000000E+00  0.00000000E+00
  0.00000000E+00  0.00000000E+00  0.00000000E+00
  0.00000000E+00  0.00000000E+00  0.00000000E+00
