generated by phonopy                    
   1.00000000000000     
     0.0000000000000000    3.3761934568543137    3.3761934568543750
     3.3761934568543395    0.0000000000000000    3.3761934568543750
     3.3761934568543395    3.3761934568543137    0.0000000000000000
   Na   Y    Zr   Ce   H 
     1     1     1     1    24
Direct
  0.2500000000000000  0.2500000000000000  0.2500000000000000
  0.7500000000000000  0.7500000000000000  0.7500000000000000
  0.0000000000000000  0.0000000000000000  0.0000000000000000
  0.5000000000000000  0.5000000000000000  0.5000000000000000
  0.1319348289198174  0.8904001351715962  0.6144625956587149
  0.8904001351715962  0.1319348289198174  0.3632024402498644
  0.6144625956587149  0.3632024402498644  0.1319348289198174
  0.3632024402498644  0.6144625956587149  0.8904001351715962
  0.6144625956587149  0.1319348289198174  0.8904001351715962
  0.3632024402498644  0.8904001351715962  0.1319348289198174
  0.1319348289198174  0.6144625956587149  0.3632024402498644
  0.8904001351715962  0.3632024402498644  0.6144625956587149
  0.8904001351715962  0.6144625956587149  0.1319348289198174
  0.1319348289198174  0.3632024402498644  0.8904001351715962
  0.3632024402498644  0.1319348289198174  0.6144625956587149
  0.6144625956587149  0.8904001351715962  0.3632024402498644
  0.1319348289198174  0.3632024402498644  0.6144625956587149
  0.3632024402498644  0.1319348289198174  0.8904001351715962
  0.6144625956587149  0.8904001351715962  0.1319348289198174
  0.8904001351715962  0.6144625956587149  0.3632024402498644
  0.6144625956587149  0.1319348289198174  0.3632024402498644
  0.8904001351715962  0.3632024402498644  0.1319348289198174
  0.1319348289198174  0.6144625956587149  0.8904001351715962
  0.3632024402498644  0.8904001351715962  0.6144625956587149
  0.3632024402498644  0.6144625956587149  0.1319348289198174
  0.1319348289198174  0.8904001351715962  0.3632024402498644
  0.8904001351715962  0.1319348289198174  0.6144625956587149
  0.6144625956587149  0.3632024402498644  0.8904001351715962
 
  0.00000000E+00  0.00000000E+00  0.00000000E+00
  0.00000000E+00  0.00000000E+00  0.00000000E+00
  0.00000000E+00  0.00000000E+00  0.00000000E+00
  0.00000000E+00  0.00000000E+00  0.00000000E+00
  0.00000000E+00  0.00000000E+00  0.00000000E+00
  0.00000000E+00  0.00000000E+00  0.00000000E+00
  0.00000000E+00  0.00000000E+00  0.00000000E+00
  0.00000000E+00  0.00000000E+00  0.00000000E+00
  0.00000000E+00  0.00000000E+00  0.00000000E+00
  0.00000000E+00  0.00000000E+00  0.00000000E+00
  0.00000000E+00  0.00000000E+00  0.00000000E+00
  0.00000000E+00  0.00000000E+00  0.00000000E+00
  0.00000000E+00  0.00000000E+00  0.00000000E+00
  0.00000000E+00  0.00000000E+00  0.00000000E+00
  0.00000000E+00  0.00000000E+00  0.00000000E+00
  0.00000000E+00  0.00000000E+00  0.00000000E+00
  0.00000000E+00  0.00000000E+00  0.00000000E+00
  0.00000000E+00  0.00000000E+00  0.00000000E+00
  0.00000000E+00  0.00000000E+00  0.00000000E+00
  0.00000000E+00  0.00000000E+00  0.00000000E+00
  0.00000000E+00  0.00000000E+00  0.00000000E+00
  0.00000000E+00  0.00000000E+00  0.00000000E+00
  0.00000000E+00  0.00000000E+00  0.00000000E+00
  0.00000000E+00  0.00000000E+00  0.00000000E+00
  0.00000000E+00  0.00000000E+00  0.00000000E+00
  0.00000000E+00  0.00000000E+00  0.00000000E+00
  0.00000000E+00  0.00000000E+00  0.00000000E+00
  0.00000000E+00  0.00000000E+00  0.00000000E+00
