POSCAR                                  
   1.00000000000000     
    10.2851025131390568    0.0537081001769220   -0.0227455284294438
     0.0537710131103386   10.3426184766751526    0.0329931445016490
    -0.0151792049504502    0.0219421289052915    6.8862522380682929
   Y    Zr   Sc   K    H 
     9     9     9     9   216
Direct
  0.1726639978963291  0.1669454149621856  0.2502647785701200
  0.1643233754890616  0.5002375999479156  0.2459620134882030
  0.3368497089911529  0.3321937296078090  0.4996170862211926
  0.5027137544448834  0.4970646733598230  0.2472757877500200
  0.3368030107452142  0.9883996170366274  0.4974235823319049
  0.8297270662747209  0.5043689530234658  0.2428810090311018
  0.6658118235059192  0.6678658383618199  0.4981682079753895
  0.8387556057139065  0.8371948500269113  0.7531853960141959
  0.0030853384885106  0.0008934899245858  0.4982663835118828
  0.1687863979867501  0.1658549081755751  0.7489924250018163
  0.3391630922575217  0.6648083869768016  0.5119323431019112
  0.1738088228729637  0.8296527204452957  0.7609692681432634
  0.8330641996750359  0.1754951436969421  0.2440196804764057
  0.9977245443781086  0.3318074904729329  0.5013320602690214
  0.6693107215114154  0.0004172927465120  0.4995965832609173
  0.0030438490786437  0.6697932739824992  0.4958125822586794
  0.6698011535553974  0.0123991543957160  0.0018979641416266
  0.0028012669594375  0.0008264368152666  0.0023629996288790
  0.4974631575579593  0.1632419287591063  0.2530661473368809
  0.1650167684021326  0.4957101624739906  0.7458367630421634
  0.5007620422051389  0.1607643209695553  0.7496807469976545
  0.3342342129844909  0.3291645089739177  0.9974408674870716
  0.3209406647468640  0.6486368483291756  0.9936809283597938
  0.6506289952170050  0.3269082612512904  0.0013051934874397
  0.3339814033249979  0.0110303632815345  0.0019151264549535
  0.0085282440919201  0.3351751017128279  0.9919858340188199
  0.8374158145831032  0.8328513988113713  0.2419381736742920
  0.1698273550280831  0.8318681281402078  0.2498385755755734
  0.6728861834410793  0.3345414441478809  0.5101312206688817
  0.5007618361663262  0.4860151113284132  0.7498574591734126
  0.8283057260713775  0.1749753368846143  0.7428489639132039
  0.5062749799304669  0.8308403413081606  0.2466955896766763
  0.5058072440005361  0.8252713831262568  0.7679264708300977
  0.8360004194554449  0.5097417160625000  0.7560835399464310
  0.6362091049505594  0.6947968705719987  0.9988569358946719
  0.9884458013406459  0.6577660819121363  0.9953272415855778
  0.1656501384592701  0.0863563467123853  0.9934973530686051
  0.1698544555521835  0.0818788501893479  0.5075808123269780
  0.1732423563437564  0.4102938054411496  0.9889627766211149
  0.4972372388779931  0.0877875586000556  0.0001127943298940
  0.3411885050553494  0.2483853327590637  0.2427124887725967
  0.1647776315092813  0.4178036491108585  0.5059959342640070
  0.5005510173041472  0.0850249949242610  0.5014682038556941
  0.3357194201698448  0.2457680462314045  0.7544551699635491
  0.1668882410190022  0.7449034152333169  0.0044882786005331
  0.4925346884250672  0.4100385377663969  0.0016897287227309
  0.3303027070699329  0.5753063436137182  0.2259881814751239
  0.1725699572443631  0.7478132114231926  0.5035512716993722
  0.8405147863995595  0.0922306395686334  0.0023663848982878
  0.6580175727574726  0.2515631789891941  0.2518148541116076
  0.5012499828823636  0.4109314471713930  0.4947308716440233
  0.3248957057226605  0.5689361061840614  0.7647195396173245
  0.8365621824076186  0.0884421732394927  0.4866625162026068
  0.6527914929776983  0.2485464707913962  0.7636369995622942
  0.4532710281219323  0.7432987198223557  0.0123872321300382
  0.3381968357792786  0.9158409403106162  0.2304823562699880
  0.7986442467324295  0.4178736659449456  0.9930292656134299
  0.6662224551758342  0.5867777325661123  0.2153998002955433
  0.4953407325720605  0.7453457772934016  0.5074386295097781
  0.3374837946010274  0.9160723496450274  0.7760815034870063
  0.0000506939985172  0.2539962395131070  0.2397977543144307
  0.8341827709851231  0.4260933092305521  0.5068516962280754
  0.6643760839605619  0.5806591944841486  0.7837393842633986
  0.0016452830219578  0.2514470896956738  0.7559958237632571
  0.8217772656054478  0.7606942290206646  0.0122205969317619
  0.6740477626491668  0.9247164240774666  0.2565965786126299
  0.9969885317767506  0.5828614100617600  0.2545412612769127
  0.8292251713902914  0.7541936502660747  0.4856211970670472
  0.6635231632736094  0.9219043263724913  0.7386146838752268
  0.0087674797733754  0.5810508934860010  0.7378719733931192
  0.9972419369654872  0.9122545016076486  0.2513852085167869
  0.0121440583905041  0.9156816526621014  0.7475155761520469
  0.0816996302860105  0.1674059759005289  0.0028948291526021
  0.0818507000383946  0.1693169303012567  0.4942183044289408
  0.0813281045289003  0.4943770787415644  0.9923409490199049
  0.4184615650478776  0.1623204027853475  0.9923253675480410
  0.2527701323720066  0.3328693310302171  0.2402652789687991
  0.0834725675328940  0.5014072187807272  0.4981921750058476
  0.4206614195527294  0.1566695294980107  0.5111934304161920
  0.2480655452525724  0.3281211436999811  0.7505428282333000
  0.0904052364386416  0.8319227633634796  0.9992069299287678
  0.4090885215004292  0.4861007079900332  0.9981717119888955
  0.2499454856590262  0.6630735402972192  0.2670416921848826
  0.0853863309871343  0.8280866479870355  0.5013668083400304
  0.7483532281922862  0.1829718621741208  0.9957144065068704
  0.5827505948278500  0.3227243484407225  0.2508165049500519
  0.4185920601350261  0.5010040419310755  0.5016194490216321
  0.2452670747369154  0.6639096747651294  0.7406106663152627
  0.7471503735389149  0.1641575253096050  0.4885646474042176
  0.5774148949044431  0.3159956800486370  0.7549366188981708
  0.4135242455009802  0.8616792460512244  0.0066243646188937
  0.2552394137625100  0.9979915067669438  0.2367470498372342
  0.7421309658518780  0.4766845592532079  0.9910268154503257
  0.5773030270131372  0.6604925631169181  0.2610073545056792
  0.4335111400650433  0.8302585634625288  0.5085833529112591
  0.2562228276734686  0.0015929835038619  0.7634622798973680
  0.9151454426989218  0.3398263564507928  0.2152055767361531
  0.7609028839367298  0.4993021474803712  0.5014903306380418
  0.5778878651390897  0.6518640541228180  0.7333493929605908
  0.9123871714573113  0.3384364656562298  0.7751447852209807
  0.7487208037593120  0.8398043310568468  0.0014413128198925
  0.5836077945867402  0.0012218940320423  0.2479554601303491
  0.9127960374311286  0.6721505697670338  0.2477550905281305
  0.7566902950486352  0.8356267717204702  0.4997393877330438
  0.5790049786635123  0.9965629542317771  0.7590585747467387
  0.9260876347145981  0.6712476563067113  0.7338022982984711
  0.9120182882977161  0.0015192968444211  0.2456519072126682
  0.9188643543018173  0.0052463548505557  0.7552647908579360
  0.1718997399178406  0.9976892075557657  0.1211854369248115
  0.1697386297482311  0.9990204142331223  0.6345766186416171
  0.1647546352040479  0.3344631008605106  0.1189576891625137
  0.5047280197558095  0.0051499058574009  0.1303846138237361
  0.3420071450979378  0.1635635907561905  0.3761636706014073
  0.1652244384183490  0.3380687387165509  0.6275320877681523
  0.5051649193507330  0.9997926698055011  0.6328429515643990
  0.3379190225558943  0.1686708249052629  0.8735049542796460
  0.1670753737333115  0.6686694492437510  0.1162954943357022
  0.4919616897581349  0.3244654038847017  0.1235900410584634
  0.3341234354817004  0.5049598714952381  0.3779580734351455
  0.1643696777472314  0.6549325718283185  0.6242048418850317
  0.8321194455965539  0.0022606734296815  0.1377289283078937
  0.6582645844410209  0.1692309978592093  0.3744054549798648
  0.5033935470993640  0.3148472283989108  0.6300728490927838
  0.3282269506774114  0.4958255116746102  0.8645868504564689
  0.8325052320053317  0.0054058277057010  0.6238177788139581
  0.6633861291421539  0.1731451027371236  0.8763759524671784
  0.4660985474403390  0.6679715717338439  0.1204623089166077
  0.3380647395940741  0.8204596557485431  0.3776508721510012
  0.8499662745606500  0.3385516521626570  0.1162020749069299
  0.6664618858464664  0.5008868305658112  0.3751280087013029
  0.5115639337745179  0.6580037982426603  0.6543172538240469
  0.3365916930981498  0.8065830163473180  0.8810668242949617
  0.0015924337554551  0.1696764201436238  0.3686682214558559
  0.8429691267010995  0.3432985004007421  0.6210748243821484
  0.6646017120325780  0.5263584347640986  0.8726536062712498
  0.9951865432519185  0.1736553903303317  0.8770115611058529
  0.8137030850831977  0.6705060044315445  0.1140777296821724
  0.6755325925894127  0.8347747501807419  0.3646354186935028
  0.9985305490689171  0.4981837236763411  0.3739937914787461
  0.8346372236651973  0.6734945515065860  0.6202098411703787
  0.6809346095104445  0.8567475781989629  0.8849513879564697
  0.0094320790086115  0.4900259627461097  0.8651614627633464
  0.9996929023541341  0.8349092255962489  0.3659477292914630
  0.0028095533638535  0.8306755754150856  0.8834691626291971
  0.0853723111260294  0.9996474924001930  0.2442585232964589
  0.0894767746572569  0.9968126367472294  0.7587594729218097
  0.0826114158080031  0.3314545405984930  0.2398486835371685
  0.4213200918127598  0.0005263638673227  0.2341808400350232
  0.2548387361366125  0.1628788526862905  0.5057562578495975
  0.0871404114982823  0.3366188195019788  0.7530040047404682
  0.4192680644565172  0.9989346396798027  0.7626461547789418
  0.2537089850891263  0.1685131978730041  0.9970092299479560
  0.0795734572746056  0.6707728154784149  0.2478129806532365
  0.4192867691501974  0.3261119448111245  0.2412868095856098
  0.2446800198776984  0.5025480949501997  0.5025090791453977
  0.0873984605353897  0.6668652085836300  0.7519170682849534
  0.7552593036088808  0.0099729160705664  0.2475997114042698
  0.5835490701946426  0.1683954920943052  0.4954607433398621
  0.4135340174195292  0.3207489399473218  0.7608432178810531
  0.2471443394780124  0.4831743820181273  0.9965140309028939
  0.7544171842577896  0.0084130199623260  0.7591083444443214
  0.5743935315429667  0.1677574973175311  0.0045262378797233
  0.4147749752168295  0.6664947172128564  0.2733182642093155
  0.2471321911160800  0.8217583770371135  0.5032346028579795
  0.7443146622057881  0.3352943623480158  0.2322513312748953
  0.5960999210772826  0.5023168104250573  0.5167990733632095
  0.4105185768785375  0.6600158998818628  0.7528143615293743
  0.2560683026928174  0.8507199172142066  0.0040428738469416
  0.9131725667583908  0.1676339201143406  0.4957533271493872
  0.7438409645313442  0.3495046242625861  0.7834014420895201
  0.5812589314239389  0.4965157164096752  0.9977689889801695
  0.9150695454781825  0.1840482858844510  0.9917823814508608
  0.7474086384621899  0.6756009845955901  0.2353216153805064
  0.5922735249920592  0.8406716037122450  0.5041778256398572
  0.9202840497984752  0.4973631076278409  0.5003031471173784
  0.7539367436804980  0.6767354309889342  0.7754893887360197
  0.5822722050513249  0.8725659446941734  0.0082037556021177
  0.9153644807717072  0.4797374784092625  0.9994365824576974
  0.9192100003817032  0.8349667166267878  0.5027222298456806
  0.9268164527535276  0.8354763916446686  0.0028223719883158
  0.0025243031936029  0.1746352381525540  0.1180887000723416
  0.9995139914549256  0.1683406264751852  0.6304551598570995
  0.9994883757630362  0.4882455220818329  0.1137037901370164
  0.3399530661538535  0.1691019190600400  0.1223755373700897
  0.1638176423379392  0.3345426423433224  0.3758978755963085
  0.0024313124364497  0.4991907166553986  0.6247621168037938
  0.3419738452817072  0.1634351540722818  0.6245663006338660
  0.1658507772716646  0.3364506807098024  0.8702926350997373
  0.9970114826137788  0.8307658549112986  0.1256264184998841
  0.3327092608530009  0.5000033112806435  0.1258862622529904
  0.1759682778053531  0.6656579299815277  0.3679365263800989
  0.0101009314867611  0.8337496923237921  0.6296509668171808
  0.6600670522169239  0.1685246978391959  0.1286418470725508
  0.5054813862379888  0.3185454944803539  0.3773036804570538
  0.3310868526887418  0.4981293011242016  0.6275717323943653
  0.1595223667505792  0.6564907714824457  0.8736140484435424
  0.6551858096547107  0.1635790604505516  0.6250708361586206
  0.4925463504603584  0.3208576657120972  0.8780613795582966
  0.3346277605596555  0.8038072632995750  0.1248409016692165
  0.1689257386333267  0.9997471004589258  0.3707394752929929
  0.6643568335653782  0.5272987979244874  0.1200221076061112
  0.4880025131838153  0.6664301996819901  0.3627223370602337
  0.3394321071820769  0.8254006653945183  0.6342966739514964
  0.1737123978761730  0.9999533479696865  0.8786533347109611
  0.8371019787283558  0.3377832132402148  0.3666183287295794
  0.6640532329204945  0.5024926710144513  0.6180518433311377
  0.4745203765115349  0.6445234924402428  0.8857979988026088
  0.8474038284375638  0.3383103713279283  0.8701125311099744
  0.6811726669016380  0.8539091014729792  0.1304796672834883
  0.5069923947864368  0.0029492283622474  0.3748095483973586
  0.8359474948801449  0.6792116372048511  0.3755919095730675
  0.6669570706595991  0.8349125204321055  0.6357958187944206
  0.5023851531967196  0.0018034371151359  0.8730807924149815
  0.8059613545360378  0.6699309839790502  0.8791185581728058
  0.8341539258500390  0.9912455111260172  0.3749475089451479
  0.8314339137771469  0.0072290447675769  0.8686526544945252
  0.9953876114703846  0.0899875850528389  0.2461096079703466
  0.0023341980218348  0.0874189601135811  0.7554237978812637
  0.9959799677415617  0.4158342740262526  0.2514503929369525
  0.3430512028168522  0.0805200955289607  0.2456598136029342
  0.1664358498269394  0.2510274866584083  0.5052111389737775
  0.0030779678961963  0.4179667371528168  0.7455456959227718
  0.3360587405073048  0.0776564894264951  0.7517459122826793
  0.1692791924041188  0.2498537007605890  0.9933636378737702
  0.0006346296493192  0.7491854283326447  0.2414437882196196
  0.3355740100523121  0.4140727053230009  0.2432495055312600
  0.1660580307226596  0.5842421324349800  0.5115862021597053
  0.0080613716109070  0.7500977018882082  0.7536265675240656
  0.6642547189479089  0.0881986874581813  0.2551740270828446
  0.5081510268162717  0.2473678340427767  0.4865249583830646
  0.3281045774534306  0.4113817239134079  0.7586470905150762
  0.1596852933323589  0.5788893791351910  0.9797714708058649
  0.6631893980166552  0.0869365814090983  0.7515289708644062
  0.4948062644783775  0.2447778169464030  0.0135185708223275
  0.3353040440643724  0.7492778385660870  0.2132076651567232
  0.1694960111659398  0.9084538746065505  0.5088634489899277
  0.6685721388150867  0.4102857306648673  0.2306415521954079
  0.5006560292115125  0.5766970227648756  0.5025363715887465
  0.3402885936468039  0.7483629234488873  0.7799246399035269
  0.1877552894512320  0.9149100404519359  0.0056052210316508
  0.8381014340496407  0.2520535954337575  0.4900749780204237
  0.6779896816344149  0.4109808811266902  0.7734051194112297
  0.4895922738869700  0.5815291336243504  0.9811119087393223
  0.8256936106876225  0.2560615234674657  0.9961815045935083
  0.6813578446456248  0.7641918705817830  0.2617830443014100
  0.5016610627165363  0.9051280298937669  0.5095335195578841
  0.8371593900105623  0.5875759857809868  0.4945010053215881
  0.6778076866036287  0.7577017781093573  0.7331541256134102
  0.4767348477535975  0.9124424788228538  0.0030764995941297
  0.8035031306495597  0.5939908881329430  0.0044740592678778
  0.8370369291008046  0.9167843077650275  0.4810273957702549
  0.8366566519596645  0.9262478602565096  0.0162143320701702
 
  0.00000000E+00  0.00000000E+00  0.00000000E+00
  0.00000000E+00  0.00000000E+00  0.00000000E+00
  0.00000000E+00  0.00000000E+00  0.00000000E+00
  0.00000000E+00  0.00000000E+00  0.00000000E+00
  0.00000000E+00  0.00000000E+00  0.00000000E+00
  0.00000000E+00  0.00000000E+00  0.00000000E+00
  0.00000000E+00  0.00000000E+00  0.00000000E+00
  0.00000000E+00  0.00000000E+00  0.00000000E+00
  0.00000000E+00  0.00000000E+00  0.00000000E+00
  0.00000000E+00  0.00000000E+00  0.00000000E+00
  0.00000000E+00  0.00000000E+00  0.00000000E+00
  0.00000000E+00  0.00000000E+00  0.00000000E+00
  0.00000000E+00  0.00000000E+00  0.00000000E+00
  0.00000000E+00  0.00000000E+00  0.00000000E+00
  0.00000000E+00  0.00000000E+00  0.00000000E+00
  0.00000000E+00  0.00000000E+00  0.00000000E+00
  0.00000000E+00  0.00000000E+00  0.00000000E+00
  0.00000000E+00  0.00000000E+00  0.00000000E+00
  0.00000000E+00  0.00000000E+00  0.00000000E+00
  0.00000000E+00  0.00000000E+00  0.00000000E+00
  0.00000000E+00  0.00000000E+00  0.00000000E+00
  0.00000000E+00  0.00000000E+00  0.00000000E+00
  0.00000000E+00  0.00000000E+00  0.00000000E+00
  0.00000000E+00  0.00000000E+00  0.00000000E+00
  0.00000000E+00  0.00000000E+00  0.00000000E+00
  0.00000000E+00  0.00000000E+00  0.00000000E+00
  0.00000000E+00  0.00000000E+00  0.00000000E+00
  0.00000000E+00  0.00000000E+00  0.00000000E+00
  0.00000000E+00  0.00000000E+00  0.00000000E+00
  0.00000000E+00  0.00000000E+00  0.00000000E+00
  0.00000000E+00  0.00000000E+00  0.00000000E+00
  0.00000000E+00  0.00000000E+00  0.00000000E+00
  0.00000000E+00  0.00000000E+00  0.00000000E+00
  0.00000000E+00  0.00000000E+00  0.00000000E+00
  0.00000000E+00  0.00000000E+00  0.00000000E+00
  0.00000000E+00  0.00000000E+00  0.00000000E+00
  0.00000000E+00  0.00000000E+00  0.00000000E+00
  0.00000000E+00  0.00000000E+00  0.00000000E+00
  0.00000000E+00  0.00000000E+00  0.00000000E+00
  0.00000000E+00  0.00000000E+00  0.00000000E+00
  0.00000000E+00  0.00000000E+00  0.00000000E+00
  0.00000000E+00  0.00000000E+00  0.00000000E+00
  0.00000000E+00  0.00000000E+00  0.00000000E+00
  0.00000000E+00  0.00000000E+00  0.00000000E+00
  0.00000000E+00  0.00000000E+00  0.00000000E+00
  0.00000000E+00  0.00000000E+00  0.00000000E+00
  0.00000000E+00  0.00000000E+00  0.00000000E+00
  0.00000000E+00  0.00000000E+00  0.00000000E+00
  0.00000000E+00  0.00000000E+00  0.00000000E+00
  0.00000000E+00  0.00000000E+00  0.00000000E+00
  0.00000000E+00  0.00000000E+00  0.00000000E+00
  0.00000000E+00  0.00000000E+00  0.00000000E+00
  0.00000000E+00  0.00000000E+00  0.00000000E+00
  0.00000000E+00  0.00000000E+00  0.00000000E+00
  0.00000000E+00  0.00000000E+00  0.00000000E+00
  0.00000000E+00  0.00000000E+00  0.00000000E+00
  0.00000000E+00  0.00000000E+00  0.00000000E+00
  0.00000000E+00  0.00000000E+00  0.00000000E+00
  0.00000000E+00  0.00000000E+00  0.00000000E+00
  0.00000000E+00  0.00000000E+00  0.00000000E+00
  0.00000000E+00  0.00000000E+00  0.00000000E+00
  0.00000000E+00  0.00000000E+00  0.00000000E+00
  0.00000000E+00  0.00000000E+00  0.00000000E+00
  0.00000000E+00  0.00000000E+00  0.00000000E+00
  0.00000000E+00  0.00000000E+00  0.00000000E+00
  0.00000000E+00  0.00000000E+00  0.00000000E+00
  0.00000000E+00  0.00000000E+00  0.00000000E+00
  0.00000000E+00  0.00000000E+00  0.00000000E+00
  0.00000000E+00  0.00000000E+00  0.00000000E+00
  0.00000000E+00  0.00000000E+00  0.00000000E+00
  0.00000000E+00  0.00000000E+00  0.00000000E+00
  0.00000000E+00  0.00000000E+00  0.00000000E+00
  0.00000000E+00  0.00000000E+00  0.00000000E+00
  0.00000000E+00  0.00000000E+00  0.00000000E+00
  0.00000000E+00  0.00000000E+00  0.00000000E+00
  0.00000000E+00  0.00000000E+00  0.00000000E+00
  0.00000000E+00  0.00000000E+00  0.00000000E+00
  0.00000000E+00  0.00000000E+00  0.00000000E+00
  0.00000000E+00  0.00000000E+00  0.00000000E+00
  0.00000000E+00  0.00000000E+00  0.00000000E+00
  0.00000000E+00  0.00000000E+00  0.00000000E+00
  0.00000000E+00  0.00000000E+00  0.00000000E+00
  0.00000000E+00  0.00000000E+00  0.00000000E+00
  0.00000000E+00  0.00000000E+00  0.00000000E+00
  0.00000000E+00  0.00000000E+00  0.00000000E+00
  0.00000000E+00  0.00000000E+00  0.00000000E+00
  0.00000000E+00  0.00000000E+00  0.00000000E+00
  0.00000000E+00  0.00000000E+00  0.00000000E+00
  0.00000000E+00  0.00000000E+00  0.00000000E+00
  0.00000000E+00  0.00000000E+00  0.00000000E+00
  0.00000000E+00  0.00000000E+00  0.00000000E+00
  0.00000000E+00  0.00000000E+00  0.00000000E+00
  0.00000000E+00  0.00000000E+00  0.00000000E+00
  0.00000000E+00  0.00000000E+00  0.00000000E+00
  0.00000000E+00  0.00000000E+00  0.00000000E+00
  0.00000000E+00  0.00000000E+00  0.00000000E+00
  0.00000000E+00  0.00000000E+00  0.00000000E+00
  0.00000000E+00  0.00000000E+00  0.00000000E+00
  0.00000000E+00  0.00000000E+00  0.00000000E+00
  0.00000000E+00  0.00000000E+00  0.00000000E+00
  0.00000000E+00  0.00000000E+00  0.00000000E+00
  0.00000000E+00  0.00000000E+00  0.00000000E+00
  0.00000000E+00  0.00000000E+00  0.00000000E+00
  0.00000000E+00  0.00000000E+00  0.00000000E+00
  0.00000000E+00  0.00000000E+00  0.00000000E+00
  0.00000000E+00  0.00000000E+00  0.00000000E+00
  0.00000000E+00  0.00000000E+00  0.00000000E+00
  0.00000000E+00  0.00000000E+00  0.00000000E+00
  0.00000000E+00  0.00000000E+00  0.00000000E+00
  0.00000000E+00  0.00000000E+00  0.00000000E+00
  0.00000000E+00  0.00000000E+00  0.00000000E+00
  0.00000000E+00  0.00000000E+00  0.00000000E+00
  0.00000000E+00  0.00000000E+00  0.00000000E+00
  0.00000000E+00  0.00000000E+00  0.00000000E+00
  0.00000000E+00  0.00000000E+00  0.00000000E+00
  0.00000000E+00  0.00000000E+00  0.00000000E+00
  0.00000000E+00  0.00000000E+00  0.00000000E+00
  0.00000000E+00  0.00000000E+00  0.00000000E+00
  0.00000000E+00  0.00000000E+00  0.00000000E+00
  0.00000000E+00  0.00000000E+00  0.00000000E+00
  0.00000000E+00  0.00000000E+00  0.00000000E+00
  0.00000000E+00  0.00000000E+00  0.00000000E+00
  0.00000000E+00  0.00000000E+00  0.00000000E+00
  0.00000000E+00  0.00000000E+00  0.00000000E+00
  0.00000000E+00  0.00000000E+00  0.00000000E+00
  0.00000000E+00  0.00000000E+00  0.00000000E+00
  0.00000000E+00  0.00000000E+00  0.00000000E+00
  0.00000000E+00  0.00000000E+00  0.00000000E+00
  0.00000000E+00  0.00000000E+00  0.00000000E+00
  0.00000000E+00  0.00000000E+00  0.00000000E+00
  0.00000000E+00  0.00000000E+00  0.00000000E+00
  0.00000000E+00  0.00000000E+00  0.00000000E+00
  0.00000000E+00  0.00000000E+00  0.00000000E+00
  0.00000000E+00  0.00000000E+00  0.00000000E+00
  0.00000000E+00  0.00000000E+00  0.00000000E+00
  0.00000000E+00  0.00000000E+00  0.00000000E+00
  0.00000000E+00  0.00000000E+00  0.00000000E+00
  0.00000000E+00  0.00000000E+00  0.00000000E+00
  0.00000000E+00  0.00000000E+00  0.00000000E+00
  0.00000000E+00  0.00000000E+00  0.00000000E+00
  0.00000000E+00  0.00000000E+00  0.00000000E+00
  0.00000000E+00  0.00000000E+00  0.00000000E+00
  0.00000000E+00  0.00000000E+00  0.00000000E+00
  0.00000000E+00  0.00000000E+00  0.00000000E+00
  0.00000000E+00  0.00000000E+00  0.00000000E+00
  0.00000000E+00  0.00000000E+00  0.00000000E+00
  0.00000000E+00  0.00000000E+00  0.00000000E+00
  0.00000000E+00  0.00000000E+00  0.00000000E+00
  0.00000000E+00  0.00000000E+00  0.00000000E+00
  0.00000000E+00  0.00000000E+00  0.00000000E+00
  0.00000000E+00  0.00000000E+00  0.00000000E+00
  0.00000000E+00  0.00000000E+00  0.00000000E+00
  0.00000000E+00  0.00000000E+00  0.00000000E+00
  0.00000000E+00  0.00000000E+00  0.00000000E+00
  0.00000000E+00  0.00000000E+00  0.00000000E+00
  0.00000000E+00  0.00000000E+00  0.00000000E+00
  0.00000000E+00  0.00000000E+00  0.00000000E+00
  0.00000000E+00  0.00000000E+00  0.00000000E+00
  0.00000000E+00  0.00000000E+00  0.00000000E+00
  0.00000000E+00  0.00000000E+00  0.00000000E+00
  0.00000000E+00  0.00000000E+00  0.00000000E+00
  0.00000000E+00  0.00000000E+00  0.00000000E+00
  0.00000000E+00  0.00000000E+00  0.00000000E+00
  0.00000000E+00  0.00000000E+00  0.00000000E+00
  0.00000000E+00  0.00000000E+00  0.00000000E+00
  0.00000000E+00  0.00000000E+00  0.00000000E+00
  0.00000000E+00  0.00000000E+00  0.00000000E+00
  0.00000000E+00  0.00000000E+00  0.00000000E+00
  0.00000000E+00  0.00000000E+00  0.00000000E+00
  0.00000000E+00  0.00000000E+00  0.00000000E+00
  0.00000000E+00  0.00000000E+00  0.00000000E+00
  0.00000000E+00  0.00000000E+00  0.00000000E+00
  0.00000000E+00  0.00000000E+00  0.00000000E+00
  0.00000000E+00  0.00000000E+00  0.00000000E+00
  0.00000000E+00  0.00000000E+00  0.00000000E+00
  0.00000000E+00  0.00000000E+00  0.00000000E+00
  0.00000000E+00  0.00000000E+00  0.00000000E+00
  0.00000000E+00  0.00000000E+00  0.00000000E+00
  0.00000000E+00  0.00000000E+00  0.00000000E+00
  0.00000000E+00  0.00000000E+00  0.00000000E+00
  0.00000000E+00  0.00000000E+00  0.00000000E+00
  0.00000000E+00  0.00000000E+00  0.00000000E+00
  0.00000000E+00  0.00000000E+00  0.00000000E+00
  0.00000000E+00  0.00000000E+00  0.00000000E+00
  0.00000000E+00  0.00000000E+00  0.00000000E+00
  0.00000000E+00  0.00000000E+00  0.00000000E+00
  0.00000000E+00  0.00000000E+00  0.00000000E+00
  0.00000000E+00  0.00000000E+00  0.00000000E+00
  0.00000000E+00  0.00000000E+00  0.00000000E+00
  0.00000000E+00  0.00000000E+00  0.00000000E+00
  0.00000000E+00  0.00000000E+00  0.00000000E+00
  0.00000000E+00  0.00000000E+00  0.00000000E+00
  0.00000000E+00  0.00000000E+00  0.00000000E+00
  0.00000000E+00  0.00000000E+00  0.00000000E+00
  0.00000000E+00  0.00000000E+00  0.00000000E+00
  0.00000000E+00  0.00000000E+00  0.00000000E+00
  0.00000000E+00  0.00000000E+00  0.00000000E+00
  0.00000000E+00  0.00000000E+00  0.00000000E+00
  0.00000000E+00  0.00000000E+00  0.00000000E+00
  0.00000000E+00  0.00000000E+00  0.00000000E+00
  0.00000000E+00  0.00000000E+00  0.00000000E+00
  0.00000000E+00  0.00000000E+00  0.00000000E+00
  0.00000000E+00  0.00000000E+00  0.00000000E+00
  0.00000000E+00  0.00000000E+00  0.00000000E+00
  0.00000000E+00  0.00000000E+00  0.00000000E+00
  0.00000000E+00  0.00000000E+00  0.00000000E+00
  0.00000000E+00  0.00000000E+00  0.00000000E+00
  0.00000000E+00  0.00000000E+00  0.00000000E+00
  0.00000000E+00  0.00000000E+00  0.00000000E+00
  0.00000000E+00  0.00000000E+00  0.00000000E+00
  0.00000000E+00  0.00000000E+00  0.00000000E+00
  0.00000000E+00  0.00000000E+00  0.00000000E+00
  0.00000000E+00  0.00000000E+00  0.00000000E+00
  0.00000000E+00  0.00000000E+00  0.00000000E+00
  0.00000000E+00  0.00000000E+00  0.00000000E+00
  0.00000000E+00  0.00000000E+00  0.00000000E+00
  0.00000000E+00  0.00000000E+00  0.00000000E+00
  0.00000000E+00  0.00000000E+00  0.00000000E+00
  0.00000000E+00  0.00000000E+00  0.00000000E+00
  0.00000000E+00  0.00000000E+00  0.00000000E+00
  0.00000000E+00  0.00000000E+00  0.00000000E+00
  0.00000000E+00  0.00000000E+00  0.00000000E+00
  0.00000000E+00  0.00000000E+00  0.00000000E+00
  0.00000000E+00  0.00000000E+00  0.00000000E+00
  0.00000000E+00  0.00000000E+00  0.00000000E+00
  0.00000000E+00  0.00000000E+00  0.00000000E+00
  0.00000000E+00  0.00000000E+00  0.00000000E+00
  0.00000000E+00  0.00000000E+00  0.00000000E+00
  0.00000000E+00  0.00000000E+00  0.00000000E+00
  0.00000000E+00  0.00000000E+00  0.00000000E+00
  0.00000000E+00  0.00000000E+00  0.00000000E+00
  0.00000000E+00  0.00000000E+00  0.00000000E+00
  0.00000000E+00  0.00000000E+00  0.00000000E+00
  0.00000000E+00  0.00000000E+00  0.00000000E+00
  0.00000000E+00  0.00000000E+00  0.00000000E+00
  0.00000000E+00  0.00000000E+00  0.00000000E+00
  0.00000000E+00  0.00000000E+00  0.00000000E+00
  0.00000000E+00  0.00000000E+00  0.00000000E+00
  0.00000000E+00  0.00000000E+00  0.00000000E+00
  0.00000000E+00  0.00000000E+00  0.00000000E+00
  0.00000000E+00  0.00000000E+00  0.00000000E+00
  0.00000000E+00  0.00000000E+00  0.00000000E+00
  0.00000000E+00  0.00000000E+00  0.00000000E+00
  0.00000000E+00  0.00000000E+00  0.00000000E+00
  0.00000000E+00  0.00000000E+00  0.00000000E+00
  0.00000000E+00  0.00000000E+00  0.00000000E+00
  0.00000000E+00  0.00000000E+00  0.00000000E+00
  0.00000000E+00  0.00000000E+00  0.00000000E+00
  0.00000000E+00  0.00000000E+00  0.00000000E+00
  0.00000000E+00  0.00000000E+00  0.00000000E+00
  0.00000000E+00  0.00000000E+00  0.00000000E+00
  0.00000000E+00  0.00000000E+00  0.00000000E+00
