POSCAR                                  
   1.00000000000000     
    10.2870858629109438    0.0565027266131884   -0.0239748360041806
     0.0565969056013488   10.3413737546421451    0.0342435091269610
    -0.0160029757199368    0.0227712777875480    6.8864630017745236
   Y    Zr   Sc   K    H 
     9     9     9     9   216
Direct
  0.1725703242619331  0.1668639587414747  0.2500336359555458
  0.1643892357351806  0.5002998565057977  0.2457059073165853
  0.3368617545767348  0.3322493328894450  0.4994120679185298
  0.5027257158369076  0.4970472288083307  0.2471761380554810
  0.3366969148690024  0.9883880223001320  0.4972927057447402
  0.8295686380505284  0.5043315542770737  0.2423612582346722
  0.6657406887756866  0.6682201908863384  0.4981269909600266
  0.8388094550929514  0.8368161487372674  0.7537776820993732
  0.0030215620732244  0.0009100986872438  0.4984389744158744
  0.1688532704225761  0.1659525268022891  0.7487439419198407
  0.3388846873831840  0.6648725038027489  0.5119482057860679
  0.1737212335300543  0.8297683154710330  0.7609854343034071
  0.8331467100426261  0.1755685410972004  0.2438403521790760
  0.9977888589049374  0.3318739113558308  0.5009093625832739
  0.6695420695449215  0.0004426617114596  0.5000429111638757
  0.0029695299730299  0.6695008498288867  0.4957079650417408
  0.6696554614213820  0.0124697149619398  0.0023036842841117
  0.0026119170192838  0.0008785091576004  0.0025772773856945
  0.4974829588345041  0.1632413460571311  0.2536511007120100
  0.1650455973691408  0.4957824444239639  0.7457755396273684
  0.5007467027068487  0.1607062979118592  0.7490292638538281
  0.3342839806203056  0.3291315449256283  0.9971768862157963
  0.3209536365134578  0.6488923701594091  0.9938332659963952
  0.6501164796363244  0.3266134015080830  0.0013546821933319
  0.3342877591054867  0.0110458346216749  0.0018209571764497
  0.0089603785180037  0.3351473269104960  0.9917344278562696
  0.8375533362403886  0.8327882295550245  0.2424359196018689
  0.1699477888164646  0.8319523347729727  0.2499239918901250
  0.6731034792056099  0.3348549974850059  0.5102223874561448
  0.5008215446744494  0.4859830287216236  0.7498981085839175
  0.8283302781506664  0.1747942274309819  0.7428136514353575
  0.5065138293406075  0.8307765012290601  0.2470820548645510
  0.5056490713147432  0.8252871271804049  0.7680137928436731
  0.8358241450791541  0.5092430677190206  0.7557189768967044
  0.6362168131709300  0.6947371039924433  0.9988904390846139
  0.9883360671935122  0.6578157889461311  0.9951221485150546
  0.1658998842447966  0.0861272986872209  0.9930855508901709
  0.1697253894300610  0.0816880138045201  0.5077414163700219
  0.1736243834212022  0.4105108181193491  0.9887972398245051
  0.4971180085068352  0.0880470783335323  0.0001302365143654
  0.3410040176735040  0.2481807746661435  0.2427822936995558
  0.1646364005292077  0.4179920007756868  0.5057924244928800
  0.5008534930117599  0.0847539399483594  0.5014580111062976
  0.3359615773617161  0.2455512802342966  0.7540765603535625
  0.1663265548588728  0.7450589565458557  0.0046693448106701
  0.4923021955844361  0.4096834002352822  0.0017067466519680
  0.3302338285998452  0.5755762113385312  0.2260454481788846
  0.1723563257350459  0.7477066022813882  0.5034693414481481
  0.8404071575811828  0.0924863852647777  0.0021094450570425
  0.6581521873359443  0.2516151410640110  0.2522102270618658
  0.5012580422625679  0.4108697378326793  0.4946873523276467
  0.3248701554604161  0.5690309538769399  0.7647895448019695
  0.8363805829464952  0.0883603224378466  0.4866797209455905
  0.6527218226260696  0.2484979818753192  0.7635077322654505
  0.4533927558781802  0.7432803219115949  0.0127073614530858
  0.3383788591824084  0.9158059238883568  0.2303882354091232
  0.7982892689918651  0.4171331644184119  0.9927772690684895
  0.6660742090303902  0.5867962513156392  0.2154807176525317
  0.4950000331771753  0.7450092747845948  0.5079400112787474
  0.3373617155628714  0.9159789345744044  0.7764546943779534
  0.0001174113452239  0.2540963871770343  0.2406068463993435
  0.8346448194588305  0.4260334600175775  0.5061537173720766
  0.6644225111430617  0.5806157059801275  0.7837686212553812
  0.0016114228375378  0.2512186621951171  0.7556946755445317
  0.8214170971088277  0.7606177300907522  0.0126499157013010
  0.6743419619498290  0.9247879340232485  0.2567922840397923
  0.9968846964231042  0.5830251794917838  0.2541712081013183
  0.8294044346878533  0.7540299749675747  0.4866467140863092
  0.6635124644480831  0.9217182475177016  0.7390618199580933
  0.0084655733465070  0.5810000212859479  0.7378816963147167
  0.9974443057528957  0.9120723823228695  0.2514296983849286
  0.0119526161213629  0.9155077594765934  0.7473484384515385
  0.0814960968014436  0.1673892292251226  0.0030209232318486
  0.0816218756968026  0.1692532509264291  0.4939281539568145
  0.0813707360637932  0.4944500829240146  0.9919826340719382
  0.4182598200452985  0.1623511905996777  0.9921464071106373
  0.2529146495732865  0.3328369054946532  0.2402470595668656
  0.0832872994236355  0.5016073916561926  0.4978771745196490
  0.4205933544845717  0.1565911971095072  0.5105963712078243
  0.2480038274018415  0.3282614633703433  0.7500775888706278
  0.0904753629169317  0.8321148051808402 -0.0006337559874634
  0.4089595253083775  0.4863793379796037  0.9981469387213934
  0.2498115354449151  0.6631616298907367  0.2666695940889358
  0.0850890426693008  0.8278304655177241  0.5014682705856707
  0.7481704746688755  0.1829321665807975  0.9955862398158469
  0.5828779108515348  0.3225496090341913  0.2508653130900015
  0.4186138116831070  0.5010199357472251  0.5015443268368209
  0.2454753863130648  0.6640125278125680  0.7408199140053470
  0.7470906672821086  0.1643774917879946  0.4884481549343219
  0.5772621289055551  0.3157741092096620  0.7545429803112843
  0.4139978037221068  0.8619758884946171  0.0069468049575962
  0.2552341515412251  0.9980487630633585  0.2364109853950697
  0.7421342101103500  0.4762520184420748  0.9909179607901349
  0.5771979932165898  0.6603988234422991  0.2609881407309405
  0.4336996436159509  0.8303514776800118  0.5084072287238407
  0.2560091011146031  0.0016405964414871  0.7638724323387029
  0.9153488787471480  0.3399664990854417  0.2142863941375723
  0.7606536165918220  0.4997610843989489  0.5011490149316390
  0.5778037815548115  0.6517771867256810  0.7335045774147223
  0.9123814971895569  0.3380737509464853  0.7751244726835209
  0.7488930278431414  0.8396856553449698  0.0020202758431241
  0.5838113353261651  0.0011752096396662  0.2483116633569176
  0.9129092268171770  0.6718327292525247  0.2480669269613543
  0.7570878370545399  0.8353705447423871  0.5001856082440993
  0.5791795225425650  0.9963221477844748  0.7592022939330110
  0.9258203897291615  0.6707501303714876  0.7334922269652204
  0.9119037423473935  0.0013701516126580  0.2462944934911474
  0.9187150470702595  0.0047712545265547  0.7551702891060981
  0.1718872761065237  0.9976909507160423  0.1210251700002633
  0.1697354486255503 -0.0008948755507813  0.6344845321631999
  0.1650266675165490  0.3345128199418778  0.1188694728995046
  0.5045667433282568  0.0052625784226158  0.1307532045286308
  0.3417264615401432  0.1635643580465226  0.3761686421858473
  0.1652198936874751  0.3379288391556909  0.6273338382972724
  0.5050991947248659  0.9994966731228834  0.6328401384261112
  0.3378726248608916  0.1686521089991642  0.8733882782339414
  0.1669598281275724  0.6688138018499306  0.1159884467363650
  0.4915800206571389  0.3239590732100135  0.1240519291585646
  0.3341634877710397  0.5049733588389341  0.3778061639507547
  0.1645026812154722  0.6551785919568925  0.6243331042887027
  0.8320136486420407  0.0023005061840299  0.1375253553128542
  0.6585295662045533  0.1693374763167682  0.3744280858099255
  0.5035965591801053  0.3150292469240195  0.6299186983767134
  0.3283592730234669  0.4960999145036173  0.8643286173300836
  0.8326868083408270  0.0051253488000090  0.6243491953913742
  0.6632718349714590  0.1728145623957114  0.8763477142815982
  0.4661452722521567  0.6679936859925889  0.1204711936691708
  0.3381735017017241  0.8205143849496990  0.3774995721437461
  0.8505925488703640  0.3383029678035951  0.1158720500266889
  0.6664657925373972  0.5012443313758138  0.3748612631757552
  0.5115800588390200  0.6579262762310929  0.6543657496907556
  0.3366850959558458  0.8070201213085476  0.8813212866973575
  0.0016836864257615  0.1695801786912760  0.3688943638762890
  0.8432221207960340  0.3429459895505685  0.6207355128564097
  0.6646465148252250  0.5262674635023915  0.8725773656546599
  0.9951883509334792  0.1740903607915897  0.8764926765160150
  0.8140387033763044  0.6715065235568329  0.1156642614688121
  0.6759309311635763  0.8355198083929648  0.3652029258814988
  0.9985606688231439  0.4979420498182469  0.3731869564562496
  0.8345542208690744  0.6731814423115172  0.6204147597934996
  0.6809199220206738  0.8569211556127488  0.8853659114455572
  0.0093453998124209  0.4901885056031074  0.8647049072249453
 -0.0002964872103877  0.8346948796934216  0.3661807215500717
  0.0032183003438407  0.8307538832263052  0.8834569938635175
  0.0854648576209296  0.9995444091574744  0.2442829754733056
  0.0896495200794620  0.9963452019683520  0.7594551968666380
  0.0827730052089418  0.3316367976715429  0.2392213554272581
  0.4213812696633428  0.0005295329849369  0.2343209651045449
  0.2548353129187455  0.1630405412660256  0.5050288660810729
  0.0870716037456896  0.3367626728695450  0.7527776226384097
  0.4191673150771991  0.9992343744440121  0.7620710131351306
  0.2536656109418824  0.1684010827259259  0.9970895847948288
  0.0795359793425317  0.6708444126062368  0.2478590347679872
  0.4192522648220059  0.3261485614372535  0.2413147456476139
  0.2447746414416510  0.5024652575799228  0.5027130815596925
  0.0872337311845899  0.6664137220223282  0.7508869301340112
  0.7552288826476952  0.0104901166724350  0.2479717258813875
  0.5834965992493383  0.1686715281782490  0.4966652964263146
  0.4134097092256541  0.3206821987049685  0.7606931083981876
  0.2471550329420678  0.4834121063634614  0.9960791123991583
  0.7542831407554318  0.0082255366342927  0.7593523113041708
  0.5739444919682132  0.1675853191854522  0.0040746499404901
  0.4147559549554108  0.6665452100614114  0.2734523178253763
  0.2468240059389256  0.8217821643489698  0.5033363675974384
  0.7443615109875802  0.3353279577606967  0.2321577393191847
  0.5958739796915088  0.5027616566495002  0.5164697374096401
  0.4106061980387383  0.6600856977679278  0.7525573975883549
  0.2560036711020401  0.8507415767528347  0.0041436362786224
  0.9131110976017441  0.1678529276596155  0.4955434316223065
  0.7435690540936112  0.3490508324643052  0.7837792554882410
  0.5811324735808892  0.4967770059310653  0.9976287584083317
  0.9151670971862746  0.1840181590338010  0.9917108335616308
  0.7473300993199730  0.6757192211896270  0.2349337011662435
  0.5925113002922988  0.8410891646719328  0.5047719770930852
  0.9200775547424328  0.4976640576294021  0.4998567465153642
  0.7540709647869399  0.6764189261632119  0.7757886226181900
  0.5826139368832858  0.8723117952759283  0.0083726253502854
  0.9153831223113160  0.4794353114528884  0.9990200410029882
  0.9193963808111988  0.8348079694821077  0.5036379453306672
  0.9269136196300707  0.8359146612853670  0.0032360704674405
  0.0024260106839184  0.1750081832245871  0.1179287138629590
  0.9995162290450900  0.1685167837428788  0.6302441912125974
  0.9993446821335948  0.4882669583016286  0.1130907794633407
  0.3398976447309753  0.1691062826869656  0.1222912429635213
  0.1638567211129105  0.3344936420237183  0.3756797325484126
  0.0021775637239312  0.4988825937827196  0.6244112534408560
  0.3412650679241004  0.1634143380908882  0.6244901133145400
  0.1660044582569026  0.3363192287399729  0.8701316114541033
  0.9969875988318406  0.8304541412432219  0.1258873759271554
  0.3328417967317445  0.4999191339858096  0.1259023043124806
  0.1758033426059265  0.6656962235852142  0.3677742932159431
  0.0101879083762180  0.8338089467647924  0.6298052147954634
  0.6597882367239102  0.1684728582033897  0.1285959732035230
  0.5056891522598470  0.3187556033493241  0.3774566572547586
  0.3311679608832601  0.4979899252053107  0.6274890938808628
  0.1596743220976429  0.6568890100788097  0.8737169989225606
  0.6555241935162230  0.1638207720034596  0.6248459850660349
  0.4922880773300696  0.3203952732589501  0.8779668921290065
  0.3348940138351403  0.8042445529336819  0.1248696310248657
  0.1687338150336999 -0.0002850158197294  0.3709890813865607
  0.6643062766949250  0.5273622200910939  0.1196915402429622
  0.4877066446681820  0.6662537496354995  0.3629856915185530
  0.3392135680557711  0.8255679288307279  0.6343759026353635
  0.1736112806094703  0.0001372166127244  0.8788364163541881
  0.8371425118512833  0.3377706802985173  0.3663979713282177
  0.6638255328782566  0.5029086348087485  0.6176035773581788
  0.4744350190649941  0.6448564985370479  0.8857244563750600
  0.8484290633666691  0.3378877996950351  0.8700318286218000
  0.6811552291683686  0.8539595021775107  0.1307258081406009
  0.5071383833525502  0.0029040986970582  0.3751919151046115
  0.8359509129364259  0.6788070930124777  0.3757879685653724
  0.6668920630087996  0.8349677720578683  0.6364378135799489
  0.5023943827815163  0.0019245957020612  0.8729611378986539
  0.8056646871734339  0.6688314090034710  0.8802945414087560
  0.8344339661582957  0.9911735016676337  0.3747738130857760
  0.8312373629346927  0.0071064564547669  0.8691536764227861
  0.9952763579585653  0.0900798463347302  0.2462341826937610
  0.0027182060561901  0.0871447019444206  0.7556972631464987
  0.9959513387294804  0.4161069200465485  0.2511592546201655
  0.3430598888902695  0.0806446578893360  0.2455271479543173
  0.1662724479892580  0.2512920256498581  0.5049447300129907
  0.0031687758270461  0.4180125055243423  0.7449845165927759
  0.3360037274822826  0.0775994318368402  0.7515959855170845
  0.1696116963271033  0.2499902129754927  0.9931236124990218
  0.0010838752009131  0.7491887535215618  0.2413512754135755
  0.3356815135428706  0.4141985674966522  0.2427912483910412
  0.1665166523210515  0.5839000883373962  0.5113181175874312
  0.0083397637198162  0.7503447637408619  0.7538094969283216
  0.6639790496443068  0.0884686918938608  0.2557261396320505
  0.5084922391830087  0.2474997190238598  0.4863060227525806
  0.3283173716193772  0.4114379322444489  0.7586085905169432
  0.1598341693113866  0.5789923206112116  0.9795902275057267
  0.6631494262542252  0.0867473158839385  0.7517353801662474
  0.4945648934869775  0.2447164146268609  0.0143395770015225
  0.3355143596099551  0.7495338243226215  0.2131956109627176
  0.1695012195303063  0.9084964558038431  0.5086357282088717
  0.6685560686171017  0.4103971982878635  0.2300820911090919
  0.5005873724658548  0.5767561507369824  0.5025117859568330
  0.3401788545305781  0.7485432023929737  0.7800725413884977
  0.1882316351297463  0.9150120305962913  0.0057395629175852
  0.8382258604406880  0.2520899013308903  0.4900742125237445
  0.6780101651419319  0.4108291271135310  0.7741597574670055
  0.4896191656380068  0.5815868355416207  0.9809767671257643
  0.8240417709742287  0.2565618473585919  0.9959314666052810
  0.6815467853618165  0.7644506658862045  0.2617509750190863
  0.5013488367556812  0.9049582754398773  0.5094904479061428
  0.8365965199993390  0.5873015622330873  0.4944451086431250
  0.6778141757455959  0.7576122320494547  0.7335083796402957
  0.4776020637824666  0.9125479540998994  0.0034003059280893
  0.8034793752001876  0.5935745196245537  0.0035698388889320
  0.8369989125005811  0.9170771983480765  0.4814815289447358
  0.8366078235524158  0.9264127319078294  0.0168653530811576
 
  0.00000000E+00  0.00000000E+00  0.00000000E+00
  0.00000000E+00  0.00000000E+00  0.00000000E+00
  0.00000000E+00  0.00000000E+00  0.00000000E+00
  0.00000000E+00  0.00000000E+00  0.00000000E+00
  0.00000000E+00  0.00000000E+00  0.00000000E+00
  0.00000000E+00  0.00000000E+00  0.00000000E+00
  0.00000000E+00  0.00000000E+00  0.00000000E+00
  0.00000000E+00  0.00000000E+00  0.00000000E+00
  0.00000000E+00  0.00000000E+00  0.00000000E+00
  0.00000000E+00  0.00000000E+00  0.00000000E+00
  0.00000000E+00  0.00000000E+00  0.00000000E+00
  0.00000000E+00  0.00000000E+00  0.00000000E+00
  0.00000000E+00  0.00000000E+00  0.00000000E+00
  0.00000000E+00  0.00000000E+00  0.00000000E+00
  0.00000000E+00  0.00000000E+00  0.00000000E+00
  0.00000000E+00  0.00000000E+00  0.00000000E+00
  0.00000000E+00  0.00000000E+00  0.00000000E+00
  0.00000000E+00  0.00000000E+00  0.00000000E+00
  0.00000000E+00  0.00000000E+00  0.00000000E+00
  0.00000000E+00  0.00000000E+00  0.00000000E+00
  0.00000000E+00  0.00000000E+00  0.00000000E+00
  0.00000000E+00  0.00000000E+00  0.00000000E+00
  0.00000000E+00  0.00000000E+00  0.00000000E+00
  0.00000000E+00  0.00000000E+00  0.00000000E+00
  0.00000000E+00  0.00000000E+00  0.00000000E+00
  0.00000000E+00  0.00000000E+00  0.00000000E+00
  0.00000000E+00  0.00000000E+00  0.00000000E+00
  0.00000000E+00  0.00000000E+00  0.00000000E+00
  0.00000000E+00  0.00000000E+00  0.00000000E+00
  0.00000000E+00  0.00000000E+00  0.00000000E+00
  0.00000000E+00  0.00000000E+00  0.00000000E+00
  0.00000000E+00  0.00000000E+00  0.00000000E+00
  0.00000000E+00  0.00000000E+00  0.00000000E+00
  0.00000000E+00  0.00000000E+00  0.00000000E+00
  0.00000000E+00  0.00000000E+00  0.00000000E+00
  0.00000000E+00  0.00000000E+00  0.00000000E+00
  0.00000000E+00  0.00000000E+00  0.00000000E+00
  0.00000000E+00  0.00000000E+00  0.00000000E+00
  0.00000000E+00  0.00000000E+00  0.00000000E+00
  0.00000000E+00  0.00000000E+00  0.00000000E+00
  0.00000000E+00  0.00000000E+00  0.00000000E+00
  0.00000000E+00  0.00000000E+00  0.00000000E+00
  0.00000000E+00  0.00000000E+00  0.00000000E+00
  0.00000000E+00  0.00000000E+00  0.00000000E+00
  0.00000000E+00  0.00000000E+00  0.00000000E+00
  0.00000000E+00  0.00000000E+00  0.00000000E+00
  0.00000000E+00  0.00000000E+00  0.00000000E+00
  0.00000000E+00  0.00000000E+00  0.00000000E+00
  0.00000000E+00  0.00000000E+00  0.00000000E+00
  0.00000000E+00  0.00000000E+00  0.00000000E+00
  0.00000000E+00  0.00000000E+00  0.00000000E+00
  0.00000000E+00  0.00000000E+00  0.00000000E+00
  0.00000000E+00  0.00000000E+00  0.00000000E+00
  0.00000000E+00  0.00000000E+00  0.00000000E+00
  0.00000000E+00  0.00000000E+00  0.00000000E+00
  0.00000000E+00  0.00000000E+00  0.00000000E+00
  0.00000000E+00  0.00000000E+00  0.00000000E+00
  0.00000000E+00  0.00000000E+00  0.00000000E+00
  0.00000000E+00  0.00000000E+00  0.00000000E+00
  0.00000000E+00  0.00000000E+00  0.00000000E+00
  0.00000000E+00  0.00000000E+00  0.00000000E+00
  0.00000000E+00  0.00000000E+00  0.00000000E+00
  0.00000000E+00  0.00000000E+00  0.00000000E+00
  0.00000000E+00  0.00000000E+00  0.00000000E+00
  0.00000000E+00  0.00000000E+00  0.00000000E+00
  0.00000000E+00  0.00000000E+00  0.00000000E+00
  0.00000000E+00  0.00000000E+00  0.00000000E+00
  0.00000000E+00  0.00000000E+00  0.00000000E+00
  0.00000000E+00  0.00000000E+00  0.00000000E+00
  0.00000000E+00  0.00000000E+00  0.00000000E+00
  0.00000000E+00  0.00000000E+00  0.00000000E+00
  0.00000000E+00  0.00000000E+00  0.00000000E+00
  0.00000000E+00  0.00000000E+00  0.00000000E+00
  0.00000000E+00  0.00000000E+00  0.00000000E+00
  0.00000000E+00  0.00000000E+00  0.00000000E+00
  0.00000000E+00  0.00000000E+00  0.00000000E+00
  0.00000000E+00  0.00000000E+00  0.00000000E+00
  0.00000000E+00  0.00000000E+00  0.00000000E+00
  0.00000000E+00  0.00000000E+00  0.00000000E+00
  0.00000000E+00  0.00000000E+00  0.00000000E+00
  0.00000000E+00  0.00000000E+00  0.00000000E+00
  0.00000000E+00  0.00000000E+00  0.00000000E+00
  0.00000000E+00  0.00000000E+00  0.00000000E+00
  0.00000000E+00  0.00000000E+00  0.00000000E+00
  0.00000000E+00  0.00000000E+00  0.00000000E+00
  0.00000000E+00  0.00000000E+00  0.00000000E+00
  0.00000000E+00  0.00000000E+00  0.00000000E+00
  0.00000000E+00  0.00000000E+00  0.00000000E+00
  0.00000000E+00  0.00000000E+00  0.00000000E+00
  0.00000000E+00  0.00000000E+00  0.00000000E+00
  0.00000000E+00  0.00000000E+00  0.00000000E+00
  0.00000000E+00  0.00000000E+00  0.00000000E+00
  0.00000000E+00  0.00000000E+00  0.00000000E+00
  0.00000000E+00  0.00000000E+00  0.00000000E+00
  0.00000000E+00  0.00000000E+00  0.00000000E+00
  0.00000000E+00  0.00000000E+00  0.00000000E+00
  0.00000000E+00  0.00000000E+00  0.00000000E+00
  0.00000000E+00  0.00000000E+00  0.00000000E+00
  0.00000000E+00  0.00000000E+00  0.00000000E+00
  0.00000000E+00  0.00000000E+00  0.00000000E+00
  0.00000000E+00  0.00000000E+00  0.00000000E+00
  0.00000000E+00  0.00000000E+00  0.00000000E+00
  0.00000000E+00  0.00000000E+00  0.00000000E+00
  0.00000000E+00  0.00000000E+00  0.00000000E+00
  0.00000000E+00  0.00000000E+00  0.00000000E+00
  0.00000000E+00  0.00000000E+00  0.00000000E+00
  0.00000000E+00  0.00000000E+00  0.00000000E+00
  0.00000000E+00  0.00000000E+00  0.00000000E+00
  0.00000000E+00  0.00000000E+00  0.00000000E+00
  0.00000000E+00  0.00000000E+00  0.00000000E+00
  0.00000000E+00  0.00000000E+00  0.00000000E+00
  0.00000000E+00  0.00000000E+00  0.00000000E+00
  0.00000000E+00  0.00000000E+00  0.00000000E+00
  0.00000000E+00  0.00000000E+00  0.00000000E+00
  0.00000000E+00  0.00000000E+00  0.00000000E+00
  0.00000000E+00  0.00000000E+00  0.00000000E+00
  0.00000000E+00  0.00000000E+00  0.00000000E+00
  0.00000000E+00  0.00000000E+00  0.00000000E+00
  0.00000000E+00  0.00000000E+00  0.00000000E+00
  0.00000000E+00  0.00000000E+00  0.00000000E+00
  0.00000000E+00  0.00000000E+00  0.00000000E+00
  0.00000000E+00  0.00000000E+00  0.00000000E+00
  0.00000000E+00  0.00000000E+00  0.00000000E+00
  0.00000000E+00  0.00000000E+00  0.00000000E+00
  0.00000000E+00  0.00000000E+00  0.00000000E+00
  0.00000000E+00  0.00000000E+00  0.00000000E+00
  0.00000000E+00  0.00000000E+00  0.00000000E+00
  0.00000000E+00  0.00000000E+00  0.00000000E+00
  0.00000000E+00  0.00000000E+00  0.00000000E+00
  0.00000000E+00  0.00000000E+00  0.00000000E+00
  0.00000000E+00  0.00000000E+00  0.00000000E+00
  0.00000000E+00  0.00000000E+00  0.00000000E+00
  0.00000000E+00  0.00000000E+00  0.00000000E+00
  0.00000000E+00  0.00000000E+00  0.00000000E+00
  0.00000000E+00  0.00000000E+00  0.00000000E+00
  0.00000000E+00  0.00000000E+00  0.00000000E+00
  0.00000000E+00  0.00000000E+00  0.00000000E+00
  0.00000000E+00  0.00000000E+00  0.00000000E+00
  0.00000000E+00  0.00000000E+00  0.00000000E+00
  0.00000000E+00  0.00000000E+00  0.00000000E+00
  0.00000000E+00  0.00000000E+00  0.00000000E+00
  0.00000000E+00  0.00000000E+00  0.00000000E+00
  0.00000000E+00  0.00000000E+00  0.00000000E+00
  0.00000000E+00  0.00000000E+00  0.00000000E+00
  0.00000000E+00  0.00000000E+00  0.00000000E+00
  0.00000000E+00  0.00000000E+00  0.00000000E+00
  0.00000000E+00  0.00000000E+00  0.00000000E+00
  0.00000000E+00  0.00000000E+00  0.00000000E+00
  0.00000000E+00  0.00000000E+00  0.00000000E+00
  0.00000000E+00  0.00000000E+00  0.00000000E+00
  0.00000000E+00  0.00000000E+00  0.00000000E+00
  0.00000000E+00  0.00000000E+00  0.00000000E+00
  0.00000000E+00  0.00000000E+00  0.00000000E+00
  0.00000000E+00  0.00000000E+00  0.00000000E+00
  0.00000000E+00  0.00000000E+00  0.00000000E+00
  0.00000000E+00  0.00000000E+00  0.00000000E+00
  0.00000000E+00  0.00000000E+00  0.00000000E+00
  0.00000000E+00  0.00000000E+00  0.00000000E+00
  0.00000000E+00  0.00000000E+00  0.00000000E+00
  0.00000000E+00  0.00000000E+00  0.00000000E+00
  0.00000000E+00  0.00000000E+00  0.00000000E+00
  0.00000000E+00  0.00000000E+00  0.00000000E+00
  0.00000000E+00  0.00000000E+00  0.00000000E+00
  0.00000000E+00  0.00000000E+00  0.00000000E+00
  0.00000000E+00  0.00000000E+00  0.00000000E+00
  0.00000000E+00  0.00000000E+00  0.00000000E+00
  0.00000000E+00  0.00000000E+00  0.00000000E+00
  0.00000000E+00  0.00000000E+00  0.00000000E+00
  0.00000000E+00  0.00000000E+00  0.00000000E+00
  0.00000000E+00  0.00000000E+00  0.00000000E+00
  0.00000000E+00  0.00000000E+00  0.00000000E+00
  0.00000000E+00  0.00000000E+00  0.00000000E+00
  0.00000000E+00  0.00000000E+00  0.00000000E+00
  0.00000000E+00  0.00000000E+00  0.00000000E+00
  0.00000000E+00  0.00000000E+00  0.00000000E+00
  0.00000000E+00  0.00000000E+00  0.00000000E+00
  0.00000000E+00  0.00000000E+00  0.00000000E+00
  0.00000000E+00  0.00000000E+00  0.00000000E+00
  0.00000000E+00  0.00000000E+00  0.00000000E+00
  0.00000000E+00  0.00000000E+00  0.00000000E+00
  0.00000000E+00  0.00000000E+00  0.00000000E+00
  0.00000000E+00  0.00000000E+00  0.00000000E+00
  0.00000000E+00  0.00000000E+00  0.00000000E+00
  0.00000000E+00  0.00000000E+00  0.00000000E+00
  0.00000000E+00  0.00000000E+00  0.00000000E+00
  0.00000000E+00  0.00000000E+00  0.00000000E+00
  0.00000000E+00  0.00000000E+00  0.00000000E+00
  0.00000000E+00  0.00000000E+00  0.00000000E+00
  0.00000000E+00  0.00000000E+00  0.00000000E+00
  0.00000000E+00  0.00000000E+00  0.00000000E+00
  0.00000000E+00  0.00000000E+00  0.00000000E+00
  0.00000000E+00  0.00000000E+00  0.00000000E+00
  0.00000000E+00  0.00000000E+00  0.00000000E+00
  0.00000000E+00  0.00000000E+00  0.00000000E+00
  0.00000000E+00  0.00000000E+00  0.00000000E+00
  0.00000000E+00  0.00000000E+00  0.00000000E+00
  0.00000000E+00  0.00000000E+00  0.00000000E+00
  0.00000000E+00  0.00000000E+00  0.00000000E+00
  0.00000000E+00  0.00000000E+00  0.00000000E+00
  0.00000000E+00  0.00000000E+00  0.00000000E+00
  0.00000000E+00  0.00000000E+00  0.00000000E+00
  0.00000000E+00  0.00000000E+00  0.00000000E+00
  0.00000000E+00  0.00000000E+00  0.00000000E+00
  0.00000000E+00  0.00000000E+00  0.00000000E+00
  0.00000000E+00  0.00000000E+00  0.00000000E+00
  0.00000000E+00  0.00000000E+00  0.00000000E+00
  0.00000000E+00  0.00000000E+00  0.00000000E+00
  0.00000000E+00  0.00000000E+00  0.00000000E+00
  0.00000000E+00  0.00000000E+00  0.00000000E+00
  0.00000000E+00  0.00000000E+00  0.00000000E+00
  0.00000000E+00  0.00000000E+00  0.00000000E+00
  0.00000000E+00  0.00000000E+00  0.00000000E+00
  0.00000000E+00  0.00000000E+00  0.00000000E+00
  0.00000000E+00  0.00000000E+00  0.00000000E+00
  0.00000000E+00  0.00000000E+00  0.00000000E+00
  0.00000000E+00  0.00000000E+00  0.00000000E+00
  0.00000000E+00  0.00000000E+00  0.00000000E+00
  0.00000000E+00  0.00000000E+00  0.00000000E+00
  0.00000000E+00  0.00000000E+00  0.00000000E+00
  0.00000000E+00  0.00000000E+00  0.00000000E+00
  0.00000000E+00  0.00000000E+00  0.00000000E+00
  0.00000000E+00  0.00000000E+00  0.00000000E+00
  0.00000000E+00  0.00000000E+00  0.00000000E+00
  0.00000000E+00  0.00000000E+00  0.00000000E+00
  0.00000000E+00  0.00000000E+00  0.00000000E+00
  0.00000000E+00  0.00000000E+00  0.00000000E+00
  0.00000000E+00  0.00000000E+00  0.00000000E+00
  0.00000000E+00  0.00000000E+00  0.00000000E+00
  0.00000000E+00  0.00000000E+00  0.00000000E+00
  0.00000000E+00  0.00000000E+00  0.00000000E+00
  0.00000000E+00  0.00000000E+00  0.00000000E+00
  0.00000000E+00  0.00000000E+00  0.00000000E+00
  0.00000000E+00  0.00000000E+00  0.00000000E+00
  0.00000000E+00  0.00000000E+00  0.00000000E+00
  0.00000000E+00  0.00000000E+00  0.00000000E+00
  0.00000000E+00  0.00000000E+00  0.00000000E+00
  0.00000000E+00  0.00000000E+00  0.00000000E+00
  0.00000000E+00  0.00000000E+00  0.00000000E+00
  0.00000000E+00  0.00000000E+00  0.00000000E+00
  0.00000000E+00  0.00000000E+00  0.00000000E+00
  0.00000000E+00  0.00000000E+00  0.00000000E+00
  0.00000000E+00  0.00000000E+00  0.00000000E+00
  0.00000000E+00  0.00000000E+00  0.00000000E+00
  0.00000000E+00  0.00000000E+00  0.00000000E+00
  0.00000000E+00  0.00000000E+00  0.00000000E+00
  0.00000000E+00  0.00000000E+00  0.00000000E+00
  0.00000000E+00  0.00000000E+00  0.00000000E+00
  0.00000000E+00  0.00000000E+00  0.00000000E+00
  0.00000000E+00  0.00000000E+00  0.00000000E+00
  0.00000000E+00  0.00000000E+00  0.00000000E+00
  0.00000000E+00  0.00000000E+00  0.00000000E+00
  0.00000000E+00  0.00000000E+00  0.00000000E+00
