POSCAR                                  
   1.00000000000000     
    10.2851025131390568    0.0537081001769220   -0.0227455284294438
     0.0537710131103386   10.3426184766751526    0.0329931445016490
    -0.0151792049504502    0.0219421289052915    6.8862522380682929
   Y    Zr   Sc   K    H 
     9     9     9     9   216
Direct
  0.1726639978963316  0.1669454149621863  0.2502647785701214
  0.1643233754890633  0.5002375999479158  0.2459620134882065
  0.3368497089911526  0.3321937296078102  0.4996170862211914
  0.5027137544448832  0.4970646733598263  0.2472757877500234
  0.3368030107452129  0.9883996170366308  0.4974235823319084
  0.8297270662747196  0.5043689530234687  0.2428810090311029
  0.6658118235059176  0.6678658383618165  0.4981682079753906
  0.8387556057139044  0.8371948500269125  0.7531853960141955
  0.0030853384885120  0.0008934899245887  0.4982663835118857
  0.1687863979867470  0.1658549081755719  0.7489924250018155
  0.3391630922575211  0.6648083869768029  0.5119323431019128
  0.1738088228729646  0.8296527204452988  0.7609692681432600
  0.8330641996750388  0.1754951436969386  0.2440196804764083
  0.9977245443781084  0.3318074904729340  0.5013320602690248
  0.6693107215114135  0.0004172927465135  0.4995965832609160
  0.0030438490786416  0.6697932739825027  0.4958125822586810
  0.6698011535553942  0.0123991543957146  0.0018979641416274
  0.0028012669594356  0.0008264368152684  0.0023629996288759
  0.4974631575579568  0.1632419287591067  0.2530661473368806
  0.1650167684021331  0.4957101624739927  0.7458367630421650
  0.5007620422051420  0.1607643209695549  0.7496807469976562
  0.3342342129844939  0.3291645089739196  0.9974408674870715
  0.3209406647468647  0.6486368483291728  0.9936809283597905
  0.6506289952170079  0.3269082612512901  0.0013051934874413
  0.3339814033249952  0.0110303632815345  0.0019151264549502
  0.0085282440919194  0.3351751017128267  0.9919858340188202
  0.8374158145831023  0.8328513988113723  0.2419381736742938
  0.1698273550280844  0.8318681281402057  0.2498385755755752
  0.6728861834410820  0.3345414441478807  0.5101312206688839
  0.5007618361663260  0.4860151113284129  0.7498574591734156
  0.8283057260713789  0.1749753368846150  0.7428489639132013
  0.5062749799304647  0.8308403413081608  0.2466955896766772
  0.5058072440005349  0.8252713831262591  0.7679264708300967
  0.8360004194554456  0.5097417160624980  0.7560835399464313
  0.6362091049505617  0.6947968705720021  0.9988569358946747
  0.9884458013406462  0.6577660819121348  0.9953272415855781
  0.1656501384592729  0.0863563467123839  0.9934973530686025
  0.1698544555521847  0.0818788501893484  0.5075808123269747
  0.1732423563437551  0.4102938054411512  0.9889627766211149
  0.4972372388779932  0.0877875586000538  0.0001127943298967
  0.3411885050553502  0.2483853327590634  0.2427124887725957
  0.1647776315092832  0.4178036491108598  0.5059959342640085
  0.5005510173041463  0.0850249949242598  0.5014682038556922
  0.3357194201698460  0.2457680462314031  0.7544551699635460
  0.1668882410189990  0.7449034152333187  0.0044882786005314
  0.4925346884250705  0.4100385377663987  0.0016897287227321
  0.3303027070699294  0.5753063436137157  0.2259881814751205
  0.1725699572443602  0.7478132114231951  0.5035512716993747
  0.8405147863995563  0.0922306395686324  0.0023663848982850
  0.6580175727574696  0.2515631789891941  0.2518148541116044
  0.5012499828823667  0.4109314471713895  0.4947308716440224
  0.3248957057226637  0.5689361061840612  0.7647195396173264
  0.8365621824076160  0.0884421732394940  0.4866625162026089
  0.6527914929776952  0.2485464707913946  0.7636369995622939
  0.4532710281219325  0.7432987198223561  0.0123872321300383
  0.3381968357792769  0.9158409403106174  0.2304823562699868
  0.7986442467324328  0.4178736659449461  0.9930292656134316
  0.6662224551758360  0.5867777325661151  0.2153998002955461
  0.4953407325720587  0.7453457772934047  0.5074386295097769
  0.3374837946010293  0.9160723496450299  0.7760815034870092
  0.0000506939985141  0.2539962395131096  0.2397977543144330
  0.8341827709851221  0.4260933092305494  0.5068516962280728
  0.6643760839605600  0.5806591944841502  0.7837393842633976
  0.0016452830219612  0.2514470896956725  0.7559958237632570
  0.8217772656054484  0.7606942290206666  0.0122205969317637
  0.6740477626491682  0.9247164240774698  0.2565965786126277
  0.9969885317767521  0.5828614100617602  0.2545412612769151
  0.8292251713902911  0.7541936502660764  0.4856211970670504
  0.6635231632736113  0.9219043263724900  0.7386146838752272
  0.0087674797733759  0.5810508934860018  0.7378719733931213
  0.9972419369654869  0.9122545016076519  0.2513852085167899
  0.0121440583905041  0.9156816526621003  0.7475155761520499
  0.0816996302860134  0.1674059759005298  0.0028948291526000
  0.0818507000383913  0.1693169303012587  0.4942183044289379
  0.0813281045289021  0.4943770787415659  0.9923409490199073
  0.4184615650478743  0.1623204027853452  0.9923253675480426
  0.2527701323720101  0.3328693310302198  0.2402652789687968
  0.0834725675328919  0.5014072187807238  0.4981921750058453
  0.4206614195527279  0.1566695294980081  0.5111934304161939
  0.2480655452525725  0.3281211436999786  0.7505428282333007
  0.0904052364386423  0.8319227633634789  0.9992069299287694
  0.4090885215004317  0.4861007079900349  0.9981717119888940
  0.2499454856590282  0.6630735402972187  0.2670416921848801
  0.0853863309871341  0.8280866479870362  0.5013668083400273
  0.7483532281922873  0.1829718621741237  0.9957144065068728
  0.5827505948278514  0.3227243484407215  0.2508165049500549
  0.4185920601350293  0.5010040419310779  0.5016194490216286
  0.2452670747369179  0.6639096747651286  0.7406106663152662
  0.7471503735389116  0.1641575253096062  0.4885646474042165
  0.5774148949044413  0.3159956800486365  0.7549366188981689
  0.4135242455009814  0.8616792460512249  0.0066243646188939
  0.2552394137625136  0.9979915067669414  0.2367470498372350
  0.7421309658518752  0.4766845592532050  0.9910268154503223
  0.5773030270131351  0.6604925631169182  0.2610073545056826
  0.4335111400650466  0.8302585634625306  0.5085833529112560
  0.2562228276734669  0.0015929835038612  0.7634622798973660
  0.9151454426989231  0.3398263564507902  0.2152055767361517
  0.7609028839367312  0.4993021474803692  0.5014903306380452
  0.5778878651390923  0.6518640541228153  0.7333493929605884
  0.9123871714573102  0.3384364656562284  0.7751447852209796
  0.7487208037593094  0.8398043310568468  0.0014413128198930
  0.5836077945867422  0.0012218940320389  0.2479554601303481
  0.9127960374311258  0.6721505697670361  0.2477550905281301
  0.7566902950486369  0.8356267717204721  0.4997393877330425
  0.5790049786635120  0.9965629542317807  0.7590585747467363
  0.9260876347145979  0.6712476563067143  0.7338022982984710
  0.9120182882977150  0.0015192968444212  0.2456519072126654
  0.9188643543018187  0.0052463548505553  0.7552647908579362
  0.1718997399178376  0.9976892075557646  0.1211854369248098
  0.1697386297482301  0.9990204142331209  0.6345766186416165
  0.1647546352040453  0.3344631008605137  0.1189576891625116
  0.5047280197558127  0.0051499058574006  0.1303846138237361
  0.3420071450979366  0.1635635907561907  0.3761636706014092
  0.1652244384183480  0.3380687387165476  0.6275320877681525
  0.5051649193507306  0.9997926698054986  0.6328429515643995
  0.3379190225558942  0.1686708249052609  0.8735049542796495
  0.1670753737333141  0.6686694492437479  0.1162954943357037
  0.4919616897581319  0.3244654038847020  0.1235900410584658
  0.3341234354816998  0.5049598714952380  0.3779580734351438
  0.1643696777472306  0.6549325718283175  0.6242048418850296
  0.8321194455965505  0.0022606734296840  0.1377289283078907
  0.6582645844410180  0.1692309978592106  0.3744054549798668
  0.5033935470993663  0.3148472283989138  0.6300728490927803
  0.3282269506774140  0.4958255116746101  0.8645868504564717
  0.8325052320053302  0.0054058277057041  0.6238177788139585
  0.6633861291421528  0.1731451027371237  0.8763759524671795
  0.4660985474403369  0.6679715717338439  0.1204623089166098
  0.3380647395940748  0.8204596557485426  0.3776508721510047
  0.8499662745606521  0.3385516521626599  0.1162020749069333
  0.6664618858464685  0.5008868305658138  0.3751280087013036
  0.5115639337745209  0.6580037982426569  0.6543172538240468
  0.3365916930981480  0.8065830163473213  0.8810668242949606
  0.0015924337554559  0.1696764201436212  0.3686682214558571
  0.8429691267011014  0.3432985004007439  0.6210748243821479
  0.6646017120325778  0.5263584347641014  0.8726536062712464
  0.9951865432519217  0.1736553903303325  0.8770115611058521
  0.8137030850831961  0.6705060044315411  0.1140777296821693
  0.6755325925894140  0.8347747501807429  0.3646354186935044
  0.9985305490689186  0.4981837236763392  0.3739937914787493
  0.8346372236651982  0.6734945515065858  0.6202098411703770
  0.6809346095104479  0.8567475781989600  0.8849513879564709
  0.0094320790086126  0.4900259627461127  0.8651614627633495
  0.9996929023541339  0.8349092255962473  0.3659477292914656
  0.0028095533638539  0.8306755754150839  0.8834691626291998
  0.0853723111260287  0.9996474924001960  0.2442585232964600
  0.0894767746572556  0.9968126367472321  0.7587594729218129
  0.0826114158080027  0.3314545405984934  0.2398486835371697
  0.4213200918127574  0.0005263638673220  0.2341808400350211
  0.2548387361366110  0.1628788526862906  0.5057562578496008
  0.0871404114982850  0.3366188195019808  0.7530040047404678
  0.4192680644565162  0.9989346396798053  0.7626461547789414
  0.2537089850891250  0.1685131978730061  0.9970092299479567
  0.0795734572746079  0.6707728154784183  0.2478129806532383
  0.4192867691501965  0.3261119448111226  0.2412868095856091
  0.2446800198776975  0.5025480949502023  0.5025090791453987
  0.0873984605353887  0.6668652085836283  0.7519170682849557
  0.7552593036088796  0.0099729160705687  0.2475997114042731
  0.5835490701946406  0.1683954920943037  0.4954607433398640
  0.4135340174195324  0.3207489399473235  0.7608432178810526
  0.2471443394780136  0.4831743820181278  0.9965140309028910
  0.7544171842577897  0.0084130199623260  0.7591083444443198
  0.5743935315429662  0.1677574973175337  0.0045262378797198
  0.4147749752168283  0.6664947172128546  0.2733182642093190
  0.2471321911160765  0.8217583770371111  0.5032346028579761
  0.7443146622057890  0.3352943623480193  0.2322513312748918
  0.5960999210772853  0.5023168104250553  0.5167990733632095
  0.4105185768785360  0.6600158998818603  0.7528143615293773
  0.2560683026928141  0.8507199172142067  0.0040428738469426
  0.9131725667583894  0.1676339201143396  0.4957533271493904
  0.7438409645313423  0.3495046242625860  0.7834014420895208
  0.5812589314239400  0.4965157164096760  0.9977689889801681
  0.9150695454781793  0.1840482858844487  0.9917823814508592
  0.7474086384621903  0.6756009845955890  0.2353216153805041
  0.5922735249920568  0.8406716037122429  0.5041778256398544
  0.9202840497984738  0.4973631076278432  0.5003031471173804
  0.7539367436804976  0.6767354309889315  0.7754893887360170
  0.5822722050513248  0.8725659446941700  0.0082037556021188
  0.9153644807717100  0.4797374784092592  0.9994365824576971
  0.9192100003817028  0.8349667166267846  0.5027222298456838
  0.9268164527535254  0.8354763916446692  0.0028223719883185
  0.0025243031936029  0.1746352381525549  0.1180887000723407
  0.9995139914549233  0.1683406264751852  0.6304551598570998
  0.9994883757630331  0.4882455220818305  0.1137037901370129
  0.3399530661538551  0.1691019190600377  0.1223755373700901
  0.1638176423379384  0.3345426423433239  0.3758978755963069
  0.0024313124364464  0.4991907166554003  0.6247621168037938
  0.3419738452817055  0.1634351540722792  0.6245663006338629
  0.1658507772716618  0.3364506807097989  0.8702926350997391
  0.9970114826137764  0.8307658549113000  0.1256264184998807
  0.3327092608530005  0.5000033112806450  0.1258862622529893
  0.1759682778053542  0.6656579299815246  0.3679365263800987
  0.0101009314867595  0.8337496923237931  0.6296509668171835
  0.6600670522169270  0.1685246978391968  0.1286418470725494
  0.5054813862379909  0.3185454944803536  0.3773036804570509
  0.3310868526887408  0.4981293011242024  0.6275717323943645
  0.1595223667505783  0.6564907714824448  0.8736140484435406
  0.6551858096547079  0.1635790604505496  0.6250708361586186
  0.4925463504603563  0.3208576657120958  0.8780613795582990
  0.3346277605596572  0.8038072632995740  0.1248409016692186
  0.1689257386333239  0.9997471004589239  0.3707394752929938
  0.6643568335653772  0.5272987979244853  0.1200221076061132
  0.4880025131838178  0.6664301996819889  0.3627223370602304
  0.3394321071820753  0.8254006653945183  0.6342966739514967
  0.1737123978761722 -0.0000466520303169  0.8786533347109600
  0.8371019787283525  0.3377832132402131  0.3666183287295823
  0.6640532329204973  0.5024926710144477  0.6180518433311351
  0.4745203765115325  0.6445234924402404  0.8857979988026096
  0.8474038284375659  0.3383103713279315  0.8701125311099711
  0.6811726669016386  0.8539091014729812  0.1304796672834914
  0.5069923947864369  0.0029492283622458  0.3748095483973556
  0.8359474948801422  0.6792116372048487  0.3755919095730677
  0.6669570706595966  0.8349125204321072  0.6357958187944210
  0.5023851531967172  0.0018034371151386  0.8730807924149829
  0.8059613545360412  0.6699309839790523  0.8791185581728033
  0.8341539258500417  0.9912455111260152  0.3749475089451451
  0.8314339137771440  0.0072290447675779  0.8686526544945262
  0.9953876114703822  0.0899875850528375  0.2461096079703468
  0.0023341980218369  0.0874189601135787  0.7554237978812653
  0.9959799677415593  0.4158342740262496  0.2514503929369519
  0.3430512028168511  0.0805200955289618  0.2456598136029351
  0.1664358498269399  0.2510274866584083  0.5052111389737772
  0.0030779678961942  0.4179667371528189  0.7455456959227696
  0.3360587405073019  0.0776564894264950  0.7517459122826815
  0.1692791924041157  0.2498537007605859  0.9933636378737692
  0.0006346296493165  0.7491854283326455  0.2414437882196188
  0.3355740100523090  0.4140727053230006  0.2432495055312615
  0.1660580307226564  0.5842421324349799  0.5115862021597077
  0.0080613716109058  0.7500977018882085  0.7536265675240688
  0.6642547189479081  0.0881986874581827  0.2551740270828415
  0.5081510268162709  0.2473678340427748  0.4865249583830675
  0.3281045774534325  0.4113817239134112  0.7586470905150769
  0.1596852933323574  0.5788893791351901  0.9797714708058664
  0.6631893980166585  0.0869365814091016  0.7515289708644087
  0.4948062644783755  0.2447778169464059  0.0135185708223287
  0.3353040440643690  0.7492778385660864  0.2132076651567267
  0.1694960111659392  0.9084538746065512  0.5088634489899284
  0.6685721388150838  0.4102857306648687  0.2306415521954103
  0.5006560292115104  0.5766970227648786  0.5025363715887495
  0.3402885936468020  0.7483629234488878  0.7799246399035268
  0.1877552894512289  0.9149100404519334  0.0056052210316528
  0.8381014340496421  0.2520535954337599  0.4900749780204211
  0.6779896816344118  0.4109808811266921  0.7734051194112320
  0.4895922738869665  0.5815291336243518  0.9811119087393246
  0.8256936106876223  0.2560615234674633  0.9961815045935091
  0.6813578446456233  0.7641918705817827  0.2617830443014103
  0.5016610627165345  0.9051280298937685  0.5095335195578831
  0.8371593900105648  0.5875759857809834  0.4945010053215856
  0.6778076866036286  0.7577017781093583  0.7331541256134084
  0.4767348477535973  0.9124424788228567  0.0030764995941320
  0.8035031306495632  0.5939908881329402  0.0044740592678782
  0.8370369291008061  0.9167843077650302  0.4810273957702556
  0.8366566519596640  0.9262478602565132  0.0162143320701674
 
  0.00000000E+00  0.00000000E+00  0.00000000E+00
  0.00000000E+00  0.00000000E+00  0.00000000E+00
  0.00000000E+00  0.00000000E+00  0.00000000E+00
  0.00000000E+00  0.00000000E+00  0.00000000E+00
  0.00000000E+00  0.00000000E+00  0.00000000E+00
  0.00000000E+00  0.00000000E+00  0.00000000E+00
  0.00000000E+00  0.00000000E+00  0.00000000E+00
  0.00000000E+00  0.00000000E+00  0.00000000E+00
  0.00000000E+00  0.00000000E+00  0.00000000E+00
  0.00000000E+00  0.00000000E+00  0.00000000E+00
  0.00000000E+00  0.00000000E+00  0.00000000E+00
  0.00000000E+00  0.00000000E+00  0.00000000E+00
  0.00000000E+00  0.00000000E+00  0.00000000E+00
  0.00000000E+00  0.00000000E+00  0.00000000E+00
  0.00000000E+00  0.00000000E+00  0.00000000E+00
  0.00000000E+00  0.00000000E+00  0.00000000E+00
  0.00000000E+00  0.00000000E+00  0.00000000E+00
  0.00000000E+00  0.00000000E+00  0.00000000E+00
  0.00000000E+00  0.00000000E+00  0.00000000E+00
  0.00000000E+00  0.00000000E+00  0.00000000E+00
  0.00000000E+00  0.00000000E+00  0.00000000E+00
  0.00000000E+00  0.00000000E+00  0.00000000E+00
  0.00000000E+00  0.00000000E+00  0.00000000E+00
  0.00000000E+00  0.00000000E+00  0.00000000E+00
  0.00000000E+00  0.00000000E+00  0.00000000E+00
  0.00000000E+00  0.00000000E+00  0.00000000E+00
  0.00000000E+00  0.00000000E+00  0.00000000E+00
  0.00000000E+00  0.00000000E+00  0.00000000E+00
  0.00000000E+00  0.00000000E+00  0.00000000E+00
  0.00000000E+00  0.00000000E+00  0.00000000E+00
  0.00000000E+00  0.00000000E+00  0.00000000E+00
  0.00000000E+00  0.00000000E+00  0.00000000E+00
  0.00000000E+00  0.00000000E+00  0.00000000E+00
  0.00000000E+00  0.00000000E+00  0.00000000E+00
  0.00000000E+00  0.00000000E+00  0.00000000E+00
  0.00000000E+00  0.00000000E+00  0.00000000E+00
  0.00000000E+00  0.00000000E+00  0.00000000E+00
  0.00000000E+00  0.00000000E+00  0.00000000E+00
  0.00000000E+00  0.00000000E+00  0.00000000E+00
  0.00000000E+00  0.00000000E+00  0.00000000E+00
  0.00000000E+00  0.00000000E+00  0.00000000E+00
  0.00000000E+00  0.00000000E+00  0.00000000E+00
  0.00000000E+00  0.00000000E+00  0.00000000E+00
  0.00000000E+00  0.00000000E+00  0.00000000E+00
  0.00000000E+00  0.00000000E+00  0.00000000E+00
  0.00000000E+00  0.00000000E+00  0.00000000E+00
  0.00000000E+00  0.00000000E+00  0.00000000E+00
  0.00000000E+00  0.00000000E+00  0.00000000E+00
  0.00000000E+00  0.00000000E+00  0.00000000E+00
  0.00000000E+00  0.00000000E+00  0.00000000E+00
  0.00000000E+00  0.00000000E+00  0.00000000E+00
  0.00000000E+00  0.00000000E+00  0.00000000E+00
  0.00000000E+00  0.00000000E+00  0.00000000E+00
  0.00000000E+00  0.00000000E+00  0.00000000E+00
  0.00000000E+00  0.00000000E+00  0.00000000E+00
  0.00000000E+00  0.00000000E+00  0.00000000E+00
  0.00000000E+00  0.00000000E+00  0.00000000E+00
  0.00000000E+00  0.00000000E+00  0.00000000E+00
  0.00000000E+00  0.00000000E+00  0.00000000E+00
  0.00000000E+00  0.00000000E+00  0.00000000E+00
  0.00000000E+00  0.00000000E+00  0.00000000E+00
  0.00000000E+00  0.00000000E+00  0.00000000E+00
  0.00000000E+00  0.00000000E+00  0.00000000E+00
  0.00000000E+00  0.00000000E+00  0.00000000E+00
  0.00000000E+00  0.00000000E+00  0.00000000E+00
  0.00000000E+00  0.00000000E+00  0.00000000E+00
  0.00000000E+00  0.00000000E+00  0.00000000E+00
  0.00000000E+00  0.00000000E+00  0.00000000E+00
  0.00000000E+00  0.00000000E+00  0.00000000E+00
  0.00000000E+00  0.00000000E+00  0.00000000E+00
  0.00000000E+00  0.00000000E+00  0.00000000E+00
  0.00000000E+00  0.00000000E+00  0.00000000E+00
  0.00000000E+00  0.00000000E+00  0.00000000E+00
  0.00000000E+00  0.00000000E+00  0.00000000E+00
  0.00000000E+00  0.00000000E+00  0.00000000E+00
  0.00000000E+00  0.00000000E+00  0.00000000E+00
  0.00000000E+00  0.00000000E+00  0.00000000E+00
  0.00000000E+00  0.00000000E+00  0.00000000E+00
  0.00000000E+00  0.00000000E+00  0.00000000E+00
  0.00000000E+00  0.00000000E+00  0.00000000E+00
  0.00000000E+00  0.00000000E+00  0.00000000E+00
  0.00000000E+00  0.00000000E+00  0.00000000E+00
  0.00000000E+00  0.00000000E+00  0.00000000E+00
  0.00000000E+00  0.00000000E+00  0.00000000E+00
  0.00000000E+00  0.00000000E+00  0.00000000E+00
  0.00000000E+00  0.00000000E+00  0.00000000E+00
  0.00000000E+00  0.00000000E+00  0.00000000E+00
  0.00000000E+00  0.00000000E+00  0.00000000E+00
  0.00000000E+00  0.00000000E+00  0.00000000E+00
  0.00000000E+00  0.00000000E+00  0.00000000E+00
  0.00000000E+00  0.00000000E+00  0.00000000E+00
  0.00000000E+00  0.00000000E+00  0.00000000E+00
  0.00000000E+00  0.00000000E+00  0.00000000E+00
  0.00000000E+00  0.00000000E+00  0.00000000E+00
  0.00000000E+00  0.00000000E+00  0.00000000E+00
  0.00000000E+00  0.00000000E+00  0.00000000E+00
  0.00000000E+00  0.00000000E+00  0.00000000E+00
  0.00000000E+00  0.00000000E+00  0.00000000E+00
  0.00000000E+00  0.00000000E+00  0.00000000E+00
  0.00000000E+00  0.00000000E+00  0.00000000E+00
  0.00000000E+00  0.00000000E+00  0.00000000E+00
  0.00000000E+00  0.00000000E+00  0.00000000E+00
  0.00000000E+00  0.00000000E+00  0.00000000E+00
  0.00000000E+00  0.00000000E+00  0.00000000E+00
  0.00000000E+00  0.00000000E+00  0.00000000E+00
  0.00000000E+00  0.00000000E+00  0.00000000E+00
  0.00000000E+00  0.00000000E+00  0.00000000E+00
  0.00000000E+00  0.00000000E+00  0.00000000E+00
  0.00000000E+00  0.00000000E+00  0.00000000E+00
  0.00000000E+00  0.00000000E+00  0.00000000E+00
  0.00000000E+00  0.00000000E+00  0.00000000E+00
  0.00000000E+00  0.00000000E+00  0.00000000E+00
  0.00000000E+00  0.00000000E+00  0.00000000E+00
  0.00000000E+00  0.00000000E+00  0.00000000E+00
  0.00000000E+00  0.00000000E+00  0.00000000E+00
  0.00000000E+00  0.00000000E+00  0.00000000E+00
  0.00000000E+00  0.00000000E+00  0.00000000E+00
  0.00000000E+00  0.00000000E+00  0.00000000E+00
  0.00000000E+00  0.00000000E+00  0.00000000E+00
  0.00000000E+00  0.00000000E+00  0.00000000E+00
  0.00000000E+00  0.00000000E+00  0.00000000E+00
  0.00000000E+00  0.00000000E+00  0.00000000E+00
  0.00000000E+00  0.00000000E+00  0.00000000E+00
  0.00000000E+00  0.00000000E+00  0.00000000E+00
  0.00000000E+00  0.00000000E+00  0.00000000E+00
  0.00000000E+00  0.00000000E+00  0.00000000E+00
  0.00000000E+00  0.00000000E+00  0.00000000E+00
  0.00000000E+00  0.00000000E+00  0.00000000E+00
  0.00000000E+00  0.00000000E+00  0.00000000E+00
  0.00000000E+00  0.00000000E+00  0.00000000E+00
  0.00000000E+00  0.00000000E+00  0.00000000E+00
  0.00000000E+00  0.00000000E+00  0.00000000E+00
  0.00000000E+00  0.00000000E+00  0.00000000E+00
  0.00000000E+00  0.00000000E+00  0.00000000E+00
  0.00000000E+00  0.00000000E+00  0.00000000E+00
  0.00000000E+00  0.00000000E+00  0.00000000E+00
  0.00000000E+00  0.00000000E+00  0.00000000E+00
  0.00000000E+00  0.00000000E+00  0.00000000E+00
  0.00000000E+00  0.00000000E+00  0.00000000E+00
  0.00000000E+00  0.00000000E+00  0.00000000E+00
  0.00000000E+00  0.00000000E+00  0.00000000E+00
  0.00000000E+00  0.00000000E+00  0.00000000E+00
  0.00000000E+00  0.00000000E+00  0.00000000E+00
  0.00000000E+00  0.00000000E+00  0.00000000E+00
  0.00000000E+00  0.00000000E+00  0.00000000E+00
  0.00000000E+00  0.00000000E+00  0.00000000E+00
  0.00000000E+00  0.00000000E+00  0.00000000E+00
  0.00000000E+00  0.00000000E+00  0.00000000E+00
  0.00000000E+00  0.00000000E+00  0.00000000E+00
  0.00000000E+00  0.00000000E+00  0.00000000E+00
  0.00000000E+00  0.00000000E+00  0.00000000E+00
  0.00000000E+00  0.00000000E+00  0.00000000E+00
  0.00000000E+00  0.00000000E+00  0.00000000E+00
  0.00000000E+00  0.00000000E+00  0.00000000E+00
  0.00000000E+00  0.00000000E+00  0.00000000E+00
  0.00000000E+00  0.00000000E+00  0.00000000E+00
  0.00000000E+00  0.00000000E+00  0.00000000E+00
  0.00000000E+00  0.00000000E+00  0.00000000E+00
  0.00000000E+00  0.00000000E+00  0.00000000E+00
  0.00000000E+00  0.00000000E+00  0.00000000E+00
  0.00000000E+00  0.00000000E+00  0.00000000E+00
  0.00000000E+00  0.00000000E+00  0.00000000E+00
  0.00000000E+00  0.00000000E+00  0.00000000E+00
  0.00000000E+00  0.00000000E+00  0.00000000E+00
  0.00000000E+00  0.00000000E+00  0.00000000E+00
  0.00000000E+00  0.00000000E+00  0.00000000E+00
  0.00000000E+00  0.00000000E+00  0.00000000E+00
  0.00000000E+00  0.00000000E+00  0.00000000E+00
  0.00000000E+00  0.00000000E+00  0.00000000E+00
  0.00000000E+00  0.00000000E+00  0.00000000E+00
  0.00000000E+00  0.00000000E+00  0.00000000E+00
  0.00000000E+00  0.00000000E+00  0.00000000E+00
  0.00000000E+00  0.00000000E+00  0.00000000E+00
  0.00000000E+00  0.00000000E+00  0.00000000E+00
  0.00000000E+00  0.00000000E+00  0.00000000E+00
  0.00000000E+00  0.00000000E+00  0.00000000E+00
  0.00000000E+00  0.00000000E+00  0.00000000E+00
  0.00000000E+00  0.00000000E+00  0.00000000E+00
  0.00000000E+00  0.00000000E+00  0.00000000E+00
  0.00000000E+00  0.00000000E+00  0.00000000E+00
  0.00000000E+00  0.00000000E+00  0.00000000E+00
  0.00000000E+00  0.00000000E+00  0.00000000E+00
  0.00000000E+00  0.00000000E+00  0.00000000E+00
  0.00000000E+00  0.00000000E+00  0.00000000E+00
  0.00000000E+00  0.00000000E+00  0.00000000E+00
  0.00000000E+00  0.00000000E+00  0.00000000E+00
  0.00000000E+00  0.00000000E+00  0.00000000E+00
  0.00000000E+00  0.00000000E+00  0.00000000E+00
  0.00000000E+00  0.00000000E+00  0.00000000E+00
  0.00000000E+00  0.00000000E+00  0.00000000E+00
  0.00000000E+00  0.00000000E+00  0.00000000E+00
  0.00000000E+00  0.00000000E+00  0.00000000E+00
  0.00000000E+00  0.00000000E+00  0.00000000E+00
  0.00000000E+00  0.00000000E+00  0.00000000E+00
  0.00000000E+00  0.00000000E+00  0.00000000E+00
  0.00000000E+00  0.00000000E+00  0.00000000E+00
  0.00000000E+00  0.00000000E+00  0.00000000E+00
  0.00000000E+00  0.00000000E+00  0.00000000E+00
  0.00000000E+00  0.00000000E+00  0.00000000E+00
  0.00000000E+00  0.00000000E+00  0.00000000E+00
  0.00000000E+00  0.00000000E+00  0.00000000E+00
  0.00000000E+00  0.00000000E+00  0.00000000E+00
  0.00000000E+00  0.00000000E+00  0.00000000E+00
  0.00000000E+00  0.00000000E+00  0.00000000E+00
  0.00000000E+00  0.00000000E+00  0.00000000E+00
  0.00000000E+00  0.00000000E+00  0.00000000E+00
  0.00000000E+00  0.00000000E+00  0.00000000E+00
  0.00000000E+00  0.00000000E+00  0.00000000E+00
  0.00000000E+00  0.00000000E+00  0.00000000E+00
  0.00000000E+00  0.00000000E+00  0.00000000E+00
  0.00000000E+00  0.00000000E+00  0.00000000E+00
  0.00000000E+00  0.00000000E+00  0.00000000E+00
  0.00000000E+00  0.00000000E+00  0.00000000E+00
  0.00000000E+00  0.00000000E+00  0.00000000E+00
  0.00000000E+00  0.00000000E+00  0.00000000E+00
  0.00000000E+00  0.00000000E+00  0.00000000E+00
  0.00000000E+00  0.00000000E+00  0.00000000E+00
  0.00000000E+00  0.00000000E+00  0.00000000E+00
  0.00000000E+00  0.00000000E+00  0.00000000E+00
  0.00000000E+00  0.00000000E+00  0.00000000E+00
  0.00000000E+00  0.00000000E+00  0.00000000E+00
  0.00000000E+00  0.00000000E+00  0.00000000E+00
  0.00000000E+00  0.00000000E+00  0.00000000E+00
  0.00000000E+00  0.00000000E+00  0.00000000E+00
  0.00000000E+00  0.00000000E+00  0.00000000E+00
  0.00000000E+00  0.00000000E+00  0.00000000E+00
  0.00000000E+00  0.00000000E+00  0.00000000E+00
  0.00000000E+00  0.00000000E+00  0.00000000E+00
  0.00000000E+00  0.00000000E+00  0.00000000E+00
  0.00000000E+00  0.00000000E+00  0.00000000E+00
  0.00000000E+00  0.00000000E+00  0.00000000E+00
  0.00000000E+00  0.00000000E+00  0.00000000E+00
  0.00000000E+00  0.00000000E+00  0.00000000E+00
  0.00000000E+00  0.00000000E+00  0.00000000E+00
  0.00000000E+00  0.00000000E+00  0.00000000E+00
  0.00000000E+00  0.00000000E+00  0.00000000E+00
  0.00000000E+00  0.00000000E+00  0.00000000E+00
  0.00000000E+00  0.00000000E+00  0.00000000E+00
  0.00000000E+00  0.00000000E+00  0.00000000E+00
  0.00000000E+00  0.00000000E+00  0.00000000E+00
  0.00000000E+00  0.00000000E+00  0.00000000E+00
  0.00000000E+00  0.00000000E+00  0.00000000E+00
  0.00000000E+00  0.00000000E+00  0.00000000E+00
  0.00000000E+00  0.00000000E+00  0.00000000E+00
  0.00000000E+00  0.00000000E+00  0.00000000E+00
  0.00000000E+00  0.00000000E+00  0.00000000E+00
  0.00000000E+00  0.00000000E+00  0.00000000E+00
  0.00000000E+00  0.00000000E+00  0.00000000E+00
  0.00000000E+00  0.00000000E+00  0.00000000E+00
  0.00000000E+00  0.00000000E+00  0.00000000E+00
  0.00000000E+00  0.00000000E+00  0.00000000E+00
  0.00000000E+00  0.00000000E+00  0.00000000E+00
