POSCAR                                  
   1.00000000000000     
    10.2940339604450415    0.0346607078852998   -0.0138797005070904
     0.0345097665885050   10.3674522309842949    0.0156142663246558
    -0.0092894006630865    0.0104869750792980    6.8618297671705761
   Y    Zr   Sc   K    H 
     9     9     9     9   216
Direct
  0.1733700736582344  0.1667413080324557  0.2497551255202441
  0.1643311586993721  0.5006807279521255  0.2451829137685022
  0.3363707103054112  0.3316482829390598  0.4993538129682710
  0.5021289319504944  0.4973844165217497  0.2472830293534518
  0.3360117240691916 -0.0118427715692231  0.4982359579344507
  0.8294894887540725  0.5048206695212271  0.2398920988891884
  0.6651063635147119  0.6668767451956339  0.4992236587917880
  0.8399574633227116  0.8357136423216508  0.7554747016974122
  0.0020040805266102  0.0005234735958636  0.4991374651869316
  0.1682029827468459  0.1650472541992601  0.7480257312383595
  0.3399804943524891  0.6661632110991929  0.5116499166269555
  0.1739508324450446  0.8285434494823207  0.7623087234833186
  0.8317645070571209  0.1767834537775153  0.2441985440171576
 -0.0028280333466748  0.3317865307630365  0.4985004849742576
  0.6717279604661804  0.0001458662759562  0.5008664778367499
  0.0038039474672462  0.6699654644448630  0.4937161455559609
  0.6676048133850379  0.0126219351243801  0.0025740875833910
  0.0028125317230539  0.0018869324043508  0.0028794869363956
  0.4969547330018664  0.1629136151687531  0.2558414705249008
  0.1645279442059462  0.4958101054301410  0.7439752205143282
  0.5019191892354304  0.1609784142536014  0.7477925356714537
  0.3338514840280447  0.3297461023077339 -0.0039360599557847
  0.3210888283177958  0.6482789442614242 -0.0058140854795937
  0.6482390987400832  0.3262263495381447  0.0025499138529245
  0.3361725835027484  0.0108463200984658  0.0023229566648051
  0.0100660735663122  0.3343207565462839 -0.0085327396227062
  0.8371632422655317  0.8335629767895150  0.2427439177766463
  0.1714896258091676  0.8322110776225423  0.2503135865387118
  0.6729182881809402  0.3359308145540454  0.5105483581406978
  0.5009512284198411  0.4859897434814062  0.7499294970021896
  0.8286833791441305  0.1740703199894700  0.7441782746969755
  0.5075894483640536  0.8309144273236582  0.2468405389449418
  0.5060802610242957  0.8253077731410500  0.7679410372638478
  0.8358135678763002  0.5079273438043808  0.7547392257228400
  0.6362996528718327  0.6953262821825301 -0.0007461248607104
 -0.0127205835006989  0.6573232622197395 -0.0056781555244792
  0.1662795527362731  0.0852379310680349 -0.0068069890944471
  0.1698466274219083  0.0818116875293284  0.5066412729350377
  0.1735069511739911  0.4104842841038124 -0.0131551851662429
  0.4972130779918268  0.0889656851230261  0.0002280189414761
  0.3414651705057700  0.2488489261494543  0.2404894563848242
  0.1640399036547918  0.4186669240829372  0.5039619920145302
  0.4998586730290542  0.0846864092123896  0.4996288336673561
  0.3335729479573328  0.2464353072252192  0.7565116632353988
  0.1674359469219963  0.7444412060721682  0.0054636322286870
  0.4927635194061299  0.4098140203336815  0.0014954008549239
  0.3305341673074804  0.5759327470042521  0.2265099133890135
  0.1729482226491876  0.7491354645400804  0.5046984728986984
  0.8397494579798509  0.0922138381434218  0.0026746093684684
  0.6543874492080561  0.2514886968462466  0.2530935707700873
  0.5011157926488767  0.4112798841877209  0.4942213482472678
  0.3242824683425173  0.5689103194761104  0.7646770105557678
  0.8372012935949127  0.0883783698998844  0.4856470595129563
  0.6528349712790312  0.2477228035756137  0.7626583551395902
  0.4534806240833386  0.7428828724105148  0.0124724457050321
  0.3401418628711403  0.9153984114430723  0.2316750012796921
  0.7960935183613639  0.4154925902629074 -0.0081505755624052
  0.6662754229845993  0.5863743051547310  0.2145932942712247
  0.4956746272498794  0.7456508097059688  0.5068448046986146
  0.3381113808124878  0.9164172382524819  0.7739733950179764
  0.0007301682545780  0.2533405212394359  0.2387954287495976
  0.8365140061723279  0.4267049438306905  0.5038798139668449
  0.6647477139498348  0.5801918678146109  0.7837581286908083
  0.0023111507913275  0.2532223653618944  0.7530433568801627
  0.8212356948033472  0.7604860418833432  0.0126965001295330
  0.6757318215696760  0.9243570298476305  0.2574695351552930
 -0.0026179620381245  0.5832903934602804  0.2543484682611395
  0.8274650836611064  0.7526764372942161  0.4924274378817352
  0.6649828282406770  0.9208744250182540  0.7387295597231781
  0.0083536051910240  0.5796369384000353  0.7344508470730328
 -0.0005252556013595  0.9132911750486150  0.2496808799475525
  0.0133083107143553  0.9172842862443632  0.7522513909216003
  0.0822300503119747  0.1665994693242800  0.0028268934138888
  0.0812724025310951  0.1687573307015253  0.4936929802613318
  0.0808650461985176  0.4944701757581892 -0.0090661671826420
  0.4173473878546632  0.1628885413599491 -0.0137425528945995
  0.2524968624882701  0.3333113376851040  0.2398228224762103
  0.0828301522200269  0.4994604871714923  0.4975476721300187
  0.4214748090890233  0.1560209031603648  0.5115246688352751
  0.2475166763169576  0.3262978540532517  0.7486865977341441
  0.0912182850816168  0.8321321932314152  0.0003941459186659
  0.4080240010944252  0.4861128710404922 -0.0022443723848482
  0.2507924680681082  0.6635454695690964  0.2667606093019012
  0.0848860394370433  0.8295916385055830  0.5012020812524157
  0.7476422216469260  0.1844700568438009 -0.0042578392712597
  0.5824516036187993  0.3222230883837243  0.2517000382909114
  0.4166699747233900  0.5011278800324379  0.5021069819961927
  0.2456918931560662  0.6646735738985332  0.7407320953296546
  0.7475649911418089  0.1661627709022227  0.4899109772748253
  0.5777656952510215  0.3158517886829055  0.7551147058453969
  0.4143474178736239  0.8629024543449088  0.0076112436240419
  0.2551265844393359 -0.0011752622017455  0.2363573475933188
  0.7414122679654538  0.4748592538299585 -0.0102087373221551
  0.5768790148726927  0.6604004734348149  0.2614291496986016
  0.4349675237096748  0.8323527618120340  0.5084898674022770
  0.2544588177640057  0.0008974491968686  0.7654808199232366
  0.9147466490723337  0.3398832851862302  0.2139256347132869
  0.7609335700109793  0.5009804951187136  0.4997443749287159
  0.5768918625661196  0.6521415942562373  0.7359614052206691
  0.9110263347965014  0.3372427306777504  0.7761104725895422
  0.7489859826360825  0.8411424805264086  0.0040817749345668
  0.5849570710805029  0.0020327402577814  0.2515230254691375
  0.9114137846893895  0.6727821096543546  0.2494855668236775
  0.7577173330131658  0.8339379236921466  0.4993004955274699
  0.5811862873647315 -0.0036031244702627  0.7545446887944612
  0.9252903969662890  0.6689329474477103  0.7311132856453171
  0.9117200736361937  0.0015925196495234  0.2464921019621004
  0.9187966991087196  0.0042314054288300  0.7569912147456923
  0.1726211052764662 -0.0024185725053310  0.1210406897578959
  0.1686840593566124  0.0003475843144128  0.6363008439892831
  0.1660297578140191  0.3345661636183108  0.1187345680747142
  0.5021807944477701  0.0056138327980127  0.1301370727653794
  0.3404326956304476  0.1634473062471815  0.3772947918724857
  0.1648117823815586  0.3389087035687126  0.6271117252174158
  0.5070155268686346 -0.0003163084872292  0.6302979306906937
  0.3385937891968103  0.1696437367501026  0.8724694191410979
  0.1654673653009377  0.6695003635980901  0.1171729463801351
  0.4886732692447284  0.3250622604379976  0.1237532294034085
  0.3338054035396896  0.5042500409855827  0.3788754932121800
  0.1651199819139065  0.6544840058175221  0.6250008349632101
  0.8330222905107182  0.0026320846033731  0.1371040712959822
  0.6599393456820599  0.1703112760280224  0.3727890839241081
  0.5028106981844394  0.3144451465566176  0.6304864172326501
  0.3274070095977269  0.4962202491087720  0.8625809988176604
  0.8328415804319199  0.0042125643316392  0.6251422231454251
  0.6630373744770744  0.1719284841172155  0.8762464969605697
  0.4663900914944432  0.6683051791353611  0.1204971055693566
  0.3394339313197571  0.8217333093449362  0.3771736154768184
  0.8526451778266347  0.3388901233940587  0.1134882464465506
  0.6661898383229689  0.5006046396337287  0.3738926273827055
  0.5105024340442118  0.6574947161587967  0.6548747394404174
  0.3371258344394230  0.8061262458866386  0.8838548818453683
  0.0021968839339524  0.1687734430266132  0.3678125169413807
  0.8433110527456449  0.3410329542140499  0.6205503720624956
  0.6651028961847673  0.5276734714821600  0.8738345249360424
 -0.0050476267660938  0.1745459205993448  0.8775253418838519
  0.8148717632686521  0.6746500823760495  0.1215358599089303
  0.6762673535506203  0.8337810893031226  0.3649544170549112
 -0.0015971868263896  0.5008167990157063  0.3740986657441687
  0.8354781222804681  0.6718125218170605  0.6192453925015153
  0.6816486779063352  0.8572474115309520  0.8842766492429728
  0.0090530285645506  0.4890892347197913  0.8636395437123446
  0.0018633082940568  0.8339340146160277  0.3671547869830207
  0.0041265088328543  0.8303572885131808  0.8843749137288275
  0.0870966723212475 -0.0003393151559395  0.2469817977044499
  0.0905943020678794 -0.0011977271047526  0.7564430366991061
  0.0829503530949021  0.3308876297380018  0.2396218531686322
  0.4206850291876075 -0.0007878668085760  0.2360112391789749
  0.2547378177960752  0.1632166339286429  0.5054706779791069
  0.0864449256521792  0.3357055317655973  0.7509075532104853
  0.4184793677395974 -0.0009426603532451  0.7633055529131307
  0.2547462797307802  0.1676080370202933 -0.0040291141453618
  0.0816217603995331  0.6710514649404767  0.2442964404966606
  0.4182437932073325  0.3272097926380977  0.2423161942142240
  0.2443378074293666  0.5024404299131563  0.5020705287273144
  0.0889064865478262  0.6682480327531084  0.7543091866787961
  0.7555626639105330  0.0123518845747518  0.2471412769881498
  0.5835354962357915  0.1674674989292464  0.4967725829395567
  0.4135372118481141  0.3216718590511296  0.7605935757064012
  0.2470556483381412  0.4842384652902288 -0.0041442418615462
  0.7561702712088310  0.0072021647542964  0.7619982291864222
  0.5717422370275140  0.1674125906494607  0.0067224345243481
  0.4148046298784874  0.6663943882171284  0.2718706586216071
  0.2481920705661667  0.8205948642619219  0.5042283649553339
  0.7437055254053985  0.3359174897831771  0.2311440166831985
  0.5952264374467598  0.5014685770740595  0.5141122784277760
  0.4102363959881873  0.6598898787167186  0.7532984382561906
  0.2561904476147728  0.8517781775800681  0.0042210696412851
  0.9131549458777197  0.1670458378178581  0.4952873456145626
  0.7428224322408691  0.3476907974464350  0.7853385597294866
  0.5802807610425627  0.4951845383962967 -0.0022621548558250
  0.9151395995364007  0.1864599815928852 -0.0079455396716988
  0.7466936403786094  0.6735854508327442  0.2350099041599701
  0.5937934082659529  0.8415809673605630  0.5040824430697807
  0.9197546069089123  0.4955839305019373  0.4982728125546039
  0.7551863165806391  0.6748561198839972  0.7733166319727907
  0.5827230594148161  0.8719006944522935  0.0079136406012602
  0.9156157568138353  0.4783899406160332 -0.0033142709535087
  0.9176112910627544  0.8375021415083054  0.5012745047554898
  0.9284775972232446  0.8352782484284604  0.0044582478042164
  0.0016763565611110  0.1748225799019316  0.1187772489561383
 -0.0011876123618147  0.1683137859865241  0.6292203528738501
 -0.0007497495281611  0.4882332109825114  0.1125573181512780
  0.3413468715595353  0.1689740406810276  0.1227062740773125
  0.1640854601267258  0.3343883854990113  0.3750813771942016
  0.0024339883774145  0.5011731897667893  0.6236731831375487
  0.3421136561612290  0.1635629280218658  0.6252304885052529
  0.1651057726552499  0.3372308087116218  0.8675543679522346
 -0.0019117906029899  0.8316389989823909  0.1260507319522957
  0.3332303238421285  0.4996727497300564  0.1272296300622526
  0.1749848094702262  0.6666215948733146  0.3681740740591985
  0.0117061285974166  0.8309959107779521  0.6295513425053421
  0.6598404159792863  0.1680401689725851  0.1290697653673337
  0.5048733539130688  0.3188051548373281  0.3788450114425036
  0.3308758620920899  0.4976425588299454  0.6256133720466968
  0.1585606604730059  0.6543992017038556  0.8739302946128095
  0.6573050115784904  0.1650816642595397  0.6248622087646427
  0.4908052108310609  0.3205632238077752  0.8778200735554006
  0.3360523956860973  0.8040795674337750  0.1238455936533501
  0.1671829915555603 -0.0004113607566518  0.3701273146723474
  0.6628974744331817  0.5266543123625613  0.1190251038848888
  0.4887178714142796  0.6671786719658921  0.3623698377499503
  0.3397739192087629  0.8264207312425897  0.6356869562645411
  0.1750989042622964 -0.0005532910607072  0.8801466166334642
  0.8364181380677528  0.3379768147604227  0.3656471226468760
  0.6637679303667561  0.5033218389176225  0.6176622480718829
  0.4747317057138435  0.6442710884419472  0.8860495961594727
  0.8489962298957331  0.3373486588697021  0.8711139801313278
  0.6823229060409647  0.8548595000972088  0.1302203323050178
  0.5076451281195377  0.0025410503134307  0.3766590193347205
  0.8363545403219600  0.6792400009932867  0.3741972540791693
  0.6678036793318051  0.8338275631286693  0.6393519996251152
  0.5018538094096973  0.0022037028945897  0.8705387520309777
  0.8038816367282514  0.6652254324946105  0.8831480604158943
  0.8342908051393151 -0.0109053369832924  0.3752380512991991
  0.8295697754696506  0.0073253470093503  0.8703482608299900
 -0.0053482381836552  0.0892338887650039  0.2456150651640048
  0.0017219073307186  0.0884818096511321  0.7571839681428510
 -0.0044394082901528  0.4170893980803824  0.2510678098559245
  0.3441895064368581  0.0807309361133843  0.2462161397160202
  0.1658145529137230  0.2506276554928648  0.5045151327823977
  0.0030461974332978  0.4179103301821423  0.7427315016459313
  0.3375400053329656  0.0785185125047046  0.7524245605202844
  0.1694335358052370  0.2499334919264633 -0.0077474840491332
  0.0022935166160691  0.7504462404030396  0.2411361522849086
  0.3342935444299692  0.4148841455751124  0.2436233414496141
  0.1672345527704225  0.5839479372799754  0.5118213565750717
  0.0090995190100280  0.7506073274579771  0.7511589259270588
  0.6638357210787104  0.0884151735144938  0.2568460706080871
  0.5083729134221636  0.2476451745348883  0.4876255737793735
  0.3279496897039912  0.4109987334368027  0.7578553647854130
  0.1598814952949939  0.5788348812910801 -0.0224117339442246
  0.6634294000241894  0.0865070065762509  0.7523932332231378
  0.4929875790335612  0.2451027590268691  0.0154387806859937
  0.3360001385162532  0.7495778458006930  0.2122206529712805
  0.1676680663792582  0.9100887291893378  0.5105536677385604
  0.6680131393999605  0.4099255709015258  0.2312471019739198
  0.4994856260931032  0.5771326576190223  0.5035807054275873
  0.3408399164604543  0.7490878688969999  0.7833396689142487
  0.1867537655731542  0.9151384592201207  0.0045214507203781
  0.8370350052238930  0.2516782854053554  0.4915956777254131
  0.6774001576844551  0.4096792841902659  0.7766075916333069
  0.4893094437071913  0.5814157104050863 -0.0177510777893700
  0.8192054732907798  0.2571361614865150 -0.0042689001377769
  0.6818880553203404  0.7642971980479460  0.2641365686551648
  0.5008811232658298  0.9055678088526987  0.5096698846417026
  0.8360271581195405  0.5878959495092367  0.4943528776570829
  0.6782220423620111  0.7587442168562409  0.7329628812946556
  0.4793813095313708  0.9127784809742238  0.0041331642228276
  0.8010328176101345  0.5927763046670111 -0.0005233018521878
  0.8380767667121692  0.9146651652013283  0.4854206318061247
  0.8373493646079014  0.9270465686739902  0.0149730373483271
 
  0.00000000E+00  0.00000000E+00  0.00000000E+00
  0.00000000E+00  0.00000000E+00  0.00000000E+00
  0.00000000E+00  0.00000000E+00  0.00000000E+00
  0.00000000E+00  0.00000000E+00  0.00000000E+00
  0.00000000E+00  0.00000000E+00  0.00000000E+00
  0.00000000E+00  0.00000000E+00  0.00000000E+00
  0.00000000E+00  0.00000000E+00  0.00000000E+00
  0.00000000E+00  0.00000000E+00  0.00000000E+00
  0.00000000E+00  0.00000000E+00  0.00000000E+00
  0.00000000E+00  0.00000000E+00  0.00000000E+00
  0.00000000E+00  0.00000000E+00  0.00000000E+00
  0.00000000E+00  0.00000000E+00  0.00000000E+00
  0.00000000E+00  0.00000000E+00  0.00000000E+00
  0.00000000E+00  0.00000000E+00  0.00000000E+00
  0.00000000E+00  0.00000000E+00  0.00000000E+00
  0.00000000E+00  0.00000000E+00  0.00000000E+00
  0.00000000E+00  0.00000000E+00  0.00000000E+00
  0.00000000E+00  0.00000000E+00  0.00000000E+00
  0.00000000E+00  0.00000000E+00  0.00000000E+00
  0.00000000E+00  0.00000000E+00  0.00000000E+00
  0.00000000E+00  0.00000000E+00  0.00000000E+00
  0.00000000E+00  0.00000000E+00  0.00000000E+00
  0.00000000E+00  0.00000000E+00  0.00000000E+00
  0.00000000E+00  0.00000000E+00  0.00000000E+00
  0.00000000E+00  0.00000000E+00  0.00000000E+00
  0.00000000E+00  0.00000000E+00  0.00000000E+00
  0.00000000E+00  0.00000000E+00  0.00000000E+00
  0.00000000E+00  0.00000000E+00  0.00000000E+00
  0.00000000E+00  0.00000000E+00  0.00000000E+00
  0.00000000E+00  0.00000000E+00  0.00000000E+00
  0.00000000E+00  0.00000000E+00  0.00000000E+00
  0.00000000E+00  0.00000000E+00  0.00000000E+00
  0.00000000E+00  0.00000000E+00  0.00000000E+00
  0.00000000E+00  0.00000000E+00  0.00000000E+00
  0.00000000E+00  0.00000000E+00  0.00000000E+00
  0.00000000E+00  0.00000000E+00  0.00000000E+00
  0.00000000E+00  0.00000000E+00  0.00000000E+00
  0.00000000E+00  0.00000000E+00  0.00000000E+00
  0.00000000E+00  0.00000000E+00  0.00000000E+00
  0.00000000E+00  0.00000000E+00  0.00000000E+00
  0.00000000E+00  0.00000000E+00  0.00000000E+00
  0.00000000E+00  0.00000000E+00  0.00000000E+00
  0.00000000E+00  0.00000000E+00  0.00000000E+00
  0.00000000E+00  0.00000000E+00  0.00000000E+00
  0.00000000E+00  0.00000000E+00  0.00000000E+00
  0.00000000E+00  0.00000000E+00  0.00000000E+00
  0.00000000E+00  0.00000000E+00  0.00000000E+00
  0.00000000E+00  0.00000000E+00  0.00000000E+00
  0.00000000E+00  0.00000000E+00  0.00000000E+00
  0.00000000E+00  0.00000000E+00  0.00000000E+00
  0.00000000E+00  0.00000000E+00  0.00000000E+00
  0.00000000E+00  0.00000000E+00  0.00000000E+00
  0.00000000E+00  0.00000000E+00  0.00000000E+00
  0.00000000E+00  0.00000000E+00  0.00000000E+00
  0.00000000E+00  0.00000000E+00  0.00000000E+00
  0.00000000E+00  0.00000000E+00  0.00000000E+00
  0.00000000E+00  0.00000000E+00  0.00000000E+00
  0.00000000E+00  0.00000000E+00  0.00000000E+00
  0.00000000E+00  0.00000000E+00  0.00000000E+00
  0.00000000E+00  0.00000000E+00  0.00000000E+00
  0.00000000E+00  0.00000000E+00  0.00000000E+00
  0.00000000E+00  0.00000000E+00  0.00000000E+00
  0.00000000E+00  0.00000000E+00  0.00000000E+00
  0.00000000E+00  0.00000000E+00  0.00000000E+00
  0.00000000E+00  0.00000000E+00  0.00000000E+00
  0.00000000E+00  0.00000000E+00  0.00000000E+00
  0.00000000E+00  0.00000000E+00  0.00000000E+00
  0.00000000E+00  0.00000000E+00  0.00000000E+00
  0.00000000E+00  0.00000000E+00  0.00000000E+00
  0.00000000E+00  0.00000000E+00  0.00000000E+00
  0.00000000E+00  0.00000000E+00  0.00000000E+00
  0.00000000E+00  0.00000000E+00  0.00000000E+00
  0.00000000E+00  0.00000000E+00  0.00000000E+00
  0.00000000E+00  0.00000000E+00  0.00000000E+00
  0.00000000E+00  0.00000000E+00  0.00000000E+00
  0.00000000E+00  0.00000000E+00  0.00000000E+00
  0.00000000E+00  0.00000000E+00  0.00000000E+00
  0.00000000E+00  0.00000000E+00  0.00000000E+00
  0.00000000E+00  0.00000000E+00  0.00000000E+00
  0.00000000E+00  0.00000000E+00  0.00000000E+00
  0.00000000E+00  0.00000000E+00  0.00000000E+00
  0.00000000E+00  0.00000000E+00  0.00000000E+00
  0.00000000E+00  0.00000000E+00  0.00000000E+00
  0.00000000E+00  0.00000000E+00  0.00000000E+00
  0.00000000E+00  0.00000000E+00  0.00000000E+00
  0.00000000E+00  0.00000000E+00  0.00000000E+00
  0.00000000E+00  0.00000000E+00  0.00000000E+00
  0.00000000E+00  0.00000000E+00  0.00000000E+00
  0.00000000E+00  0.00000000E+00  0.00000000E+00
  0.00000000E+00  0.00000000E+00  0.00000000E+00
  0.00000000E+00  0.00000000E+00  0.00000000E+00
  0.00000000E+00  0.00000000E+00  0.00000000E+00
  0.00000000E+00  0.00000000E+00  0.00000000E+00
  0.00000000E+00  0.00000000E+00  0.00000000E+00
  0.00000000E+00  0.00000000E+00  0.00000000E+00
  0.00000000E+00  0.00000000E+00  0.00000000E+00
  0.00000000E+00  0.00000000E+00  0.00000000E+00
  0.00000000E+00  0.00000000E+00  0.00000000E+00
  0.00000000E+00  0.00000000E+00  0.00000000E+00
  0.00000000E+00  0.00000000E+00  0.00000000E+00
  0.00000000E+00  0.00000000E+00  0.00000000E+00
  0.00000000E+00  0.00000000E+00  0.00000000E+00
  0.00000000E+00  0.00000000E+00  0.00000000E+00
  0.00000000E+00  0.00000000E+00  0.00000000E+00
  0.00000000E+00  0.00000000E+00  0.00000000E+00
  0.00000000E+00  0.00000000E+00  0.00000000E+00
  0.00000000E+00  0.00000000E+00  0.00000000E+00
  0.00000000E+00  0.00000000E+00  0.00000000E+00
  0.00000000E+00  0.00000000E+00  0.00000000E+00
  0.00000000E+00  0.00000000E+00  0.00000000E+00
  0.00000000E+00  0.00000000E+00  0.00000000E+00
  0.00000000E+00  0.00000000E+00  0.00000000E+00
  0.00000000E+00  0.00000000E+00  0.00000000E+00
  0.00000000E+00  0.00000000E+00  0.00000000E+00
  0.00000000E+00  0.00000000E+00  0.00000000E+00
  0.00000000E+00  0.00000000E+00  0.00000000E+00
  0.00000000E+00  0.00000000E+00  0.00000000E+00
  0.00000000E+00  0.00000000E+00  0.00000000E+00
  0.00000000E+00  0.00000000E+00  0.00000000E+00
  0.00000000E+00  0.00000000E+00  0.00000000E+00
  0.00000000E+00  0.00000000E+00  0.00000000E+00
  0.00000000E+00  0.00000000E+00  0.00000000E+00
  0.00000000E+00  0.00000000E+00  0.00000000E+00
  0.00000000E+00  0.00000000E+00  0.00000000E+00
  0.00000000E+00  0.00000000E+00  0.00000000E+00
  0.00000000E+00  0.00000000E+00  0.00000000E+00
  0.00000000E+00  0.00000000E+00  0.00000000E+00
  0.00000000E+00  0.00000000E+00  0.00000000E+00
  0.00000000E+00  0.00000000E+00  0.00000000E+00
  0.00000000E+00  0.00000000E+00  0.00000000E+00
  0.00000000E+00  0.00000000E+00  0.00000000E+00
  0.00000000E+00  0.00000000E+00  0.00000000E+00
  0.00000000E+00  0.00000000E+00  0.00000000E+00
  0.00000000E+00  0.00000000E+00  0.00000000E+00
  0.00000000E+00  0.00000000E+00  0.00000000E+00
  0.00000000E+00  0.00000000E+00  0.00000000E+00
  0.00000000E+00  0.00000000E+00  0.00000000E+00
  0.00000000E+00  0.00000000E+00  0.00000000E+00
  0.00000000E+00  0.00000000E+00  0.00000000E+00
  0.00000000E+00  0.00000000E+00  0.00000000E+00
  0.00000000E+00  0.00000000E+00  0.00000000E+00
  0.00000000E+00  0.00000000E+00  0.00000000E+00
  0.00000000E+00  0.00000000E+00  0.00000000E+00
  0.00000000E+00  0.00000000E+00  0.00000000E+00
  0.00000000E+00  0.00000000E+00  0.00000000E+00
  0.00000000E+00  0.00000000E+00  0.00000000E+00
  0.00000000E+00  0.00000000E+00  0.00000000E+00
  0.00000000E+00  0.00000000E+00  0.00000000E+00
  0.00000000E+00  0.00000000E+00  0.00000000E+00
  0.00000000E+00  0.00000000E+00  0.00000000E+00
  0.00000000E+00  0.00000000E+00  0.00000000E+00
  0.00000000E+00  0.00000000E+00  0.00000000E+00
  0.00000000E+00  0.00000000E+00  0.00000000E+00
  0.00000000E+00  0.00000000E+00  0.00000000E+00
  0.00000000E+00  0.00000000E+00  0.00000000E+00
  0.00000000E+00  0.00000000E+00  0.00000000E+00
  0.00000000E+00  0.00000000E+00  0.00000000E+00
  0.00000000E+00  0.00000000E+00  0.00000000E+00
  0.00000000E+00  0.00000000E+00  0.00000000E+00
  0.00000000E+00  0.00000000E+00  0.00000000E+00
  0.00000000E+00  0.00000000E+00  0.00000000E+00
  0.00000000E+00  0.00000000E+00  0.00000000E+00
  0.00000000E+00  0.00000000E+00  0.00000000E+00
  0.00000000E+00  0.00000000E+00  0.00000000E+00
  0.00000000E+00  0.00000000E+00  0.00000000E+00
  0.00000000E+00  0.00000000E+00  0.00000000E+00
  0.00000000E+00  0.00000000E+00  0.00000000E+00
  0.00000000E+00  0.00000000E+00  0.00000000E+00
  0.00000000E+00  0.00000000E+00  0.00000000E+00
  0.00000000E+00  0.00000000E+00  0.00000000E+00
  0.00000000E+00  0.00000000E+00  0.00000000E+00
  0.00000000E+00  0.00000000E+00  0.00000000E+00
  0.00000000E+00  0.00000000E+00  0.00000000E+00
  0.00000000E+00  0.00000000E+00  0.00000000E+00
  0.00000000E+00  0.00000000E+00  0.00000000E+00
  0.00000000E+00  0.00000000E+00  0.00000000E+00
  0.00000000E+00  0.00000000E+00  0.00000000E+00
  0.00000000E+00  0.00000000E+00  0.00000000E+00
  0.00000000E+00  0.00000000E+00  0.00000000E+00
  0.00000000E+00  0.00000000E+00  0.00000000E+00
  0.00000000E+00  0.00000000E+00  0.00000000E+00
  0.00000000E+00  0.00000000E+00  0.00000000E+00
  0.00000000E+00  0.00000000E+00  0.00000000E+00
  0.00000000E+00  0.00000000E+00  0.00000000E+00
  0.00000000E+00  0.00000000E+00  0.00000000E+00
  0.00000000E+00  0.00000000E+00  0.00000000E+00
  0.00000000E+00  0.00000000E+00  0.00000000E+00
  0.00000000E+00  0.00000000E+00  0.00000000E+00
  0.00000000E+00  0.00000000E+00  0.00000000E+00
  0.00000000E+00  0.00000000E+00  0.00000000E+00
  0.00000000E+00  0.00000000E+00  0.00000000E+00
  0.00000000E+00  0.00000000E+00  0.00000000E+00
  0.00000000E+00  0.00000000E+00  0.00000000E+00
  0.00000000E+00  0.00000000E+00  0.00000000E+00
  0.00000000E+00  0.00000000E+00  0.00000000E+00
  0.00000000E+00  0.00000000E+00  0.00000000E+00
  0.00000000E+00  0.00000000E+00  0.00000000E+00
  0.00000000E+00  0.00000000E+00  0.00000000E+00
  0.00000000E+00  0.00000000E+00  0.00000000E+00
  0.00000000E+00  0.00000000E+00  0.00000000E+00
  0.00000000E+00  0.00000000E+00  0.00000000E+00
  0.00000000E+00  0.00000000E+00  0.00000000E+00
  0.00000000E+00  0.00000000E+00  0.00000000E+00
  0.00000000E+00  0.00000000E+00  0.00000000E+00
  0.00000000E+00  0.00000000E+00  0.00000000E+00
  0.00000000E+00  0.00000000E+00  0.00000000E+00
  0.00000000E+00  0.00000000E+00  0.00000000E+00
  0.00000000E+00  0.00000000E+00  0.00000000E+00
  0.00000000E+00  0.00000000E+00  0.00000000E+00
  0.00000000E+00  0.00000000E+00  0.00000000E+00
  0.00000000E+00  0.00000000E+00  0.00000000E+00
  0.00000000E+00  0.00000000E+00  0.00000000E+00
  0.00000000E+00  0.00000000E+00  0.00000000E+00
  0.00000000E+00  0.00000000E+00  0.00000000E+00
  0.00000000E+00  0.00000000E+00  0.00000000E+00
  0.00000000E+00  0.00000000E+00  0.00000000E+00
  0.00000000E+00  0.00000000E+00  0.00000000E+00
  0.00000000E+00  0.00000000E+00  0.00000000E+00
  0.00000000E+00  0.00000000E+00  0.00000000E+00
  0.00000000E+00  0.00000000E+00  0.00000000E+00
  0.00000000E+00  0.00000000E+00  0.00000000E+00
  0.00000000E+00  0.00000000E+00  0.00000000E+00
  0.00000000E+00  0.00000000E+00  0.00000000E+00
  0.00000000E+00  0.00000000E+00  0.00000000E+00
  0.00000000E+00  0.00000000E+00  0.00000000E+00
  0.00000000E+00  0.00000000E+00  0.00000000E+00
  0.00000000E+00  0.00000000E+00  0.00000000E+00
  0.00000000E+00  0.00000000E+00  0.00000000E+00
  0.00000000E+00  0.00000000E+00  0.00000000E+00
  0.00000000E+00  0.00000000E+00  0.00000000E+00
  0.00000000E+00  0.00000000E+00  0.00000000E+00
  0.00000000E+00  0.00000000E+00  0.00000000E+00
  0.00000000E+00  0.00000000E+00  0.00000000E+00
  0.00000000E+00  0.00000000E+00  0.00000000E+00
  0.00000000E+00  0.00000000E+00  0.00000000E+00
  0.00000000E+00  0.00000000E+00  0.00000000E+00
  0.00000000E+00  0.00000000E+00  0.00000000E+00
  0.00000000E+00  0.00000000E+00  0.00000000E+00
  0.00000000E+00  0.00000000E+00  0.00000000E+00
  0.00000000E+00  0.00000000E+00  0.00000000E+00
  0.00000000E+00  0.00000000E+00  0.00000000E+00
  0.00000000E+00  0.00000000E+00  0.00000000E+00
  0.00000000E+00  0.00000000E+00  0.00000000E+00
  0.00000000E+00  0.00000000E+00  0.00000000E+00
  0.00000000E+00  0.00000000E+00  0.00000000E+00
  0.00000000E+00  0.00000000E+00  0.00000000E+00
  0.00000000E+00  0.00000000E+00  0.00000000E+00
  0.00000000E+00  0.00000000E+00  0.00000000E+00
  0.00000000E+00  0.00000000E+00  0.00000000E+00
  0.00000000E+00  0.00000000E+00  0.00000000E+00
  0.00000000E+00  0.00000000E+00  0.00000000E+00
  0.00000000E+00  0.00000000E+00  0.00000000E+00
