       N       E                     dE             d eps       ncg     rms          rms(c)
DAV:   1     0.106335049941E+05    0.10634E+05   -0.27217E+05 17624   0.170E+03
DAV:   2     0.125557955516E+04   -0.93779E+04   -0.87557E+04 24016   0.782E+02
DAV:   3    -0.483591478916E+03   -0.17392E+04   -0.16083E+04 29504   0.354E+02
DAV:   4    -0.736955881288E+03   -0.25336E+03   -0.24149E+03 32528   0.174E+02
DAV:   5    -0.764881842610E+03   -0.27926E+02   -0.26986E+02 32528   0.737E+01    0.292E+02
DAV:   6    -0.643755978005E+03    0.12113E+03   -0.22503E+02 30288   0.577E+01    0.170E+02
DAV:   7    -0.648358374334E+03   -0.46024E+01   -0.24770E+02 29040   0.479E+01    0.574E+01
DAV:   8    -0.645066815606E+03    0.32916E+01   -0.57464E+01 28648   0.347E+01    0.208E+01
DAV:   9    -0.643684177431E+03    0.13826E+01   -0.18271E+01 30424   0.179E+01    0.880E+00
DAV:  10    -0.643377230457E+03    0.30695E+00   -0.56873E+00 29512   0.987E+00    0.836E+00
DAV:  11    -0.643393379135E+03   -0.16149E-01   -0.10612E+00 30560   0.405E+00    0.632E+00
DAV:  12    -0.643372668825E+03    0.20710E-01   -0.29309E-01 29432   0.235E+00    0.268E+00
DAV:  13    -0.643354052658E+03    0.18616E-01   -0.14014E-01 27960   0.142E+00    0.155E+00
DAV:  14    -0.643352007564E+03    0.20451E-02   -0.35574E-02 30096   0.851E-01    0.758E-01
DAV:  15    -0.643352991243E+03   -0.98368E-03   -0.11286E-02 30456   0.344E-01    0.625E-01
DAV:  16    -0.643352249058E+03    0.74218E-03   -0.32785E-03 28600   0.219E-01    0.145E-01
DAV:  17    -0.643352315101E+03   -0.66042E-04   -0.75853E-04 31168   0.899E-02    0.117E-01
DAV:  18    -0.643352302820E+03    0.12281E-04   -0.15043E-04 28664   0.541E-02    0.622E-02
DAV:  19    -0.643352303900E+03   -0.10805E-05   -0.36239E-05 29040   0.222E-02    0.271E-02
DAV:  20    -0.643352305202E+03   -0.13017E-05   -0.67200E-06 22200   0.106E-02    0.179E-02
DAV:  21    -0.643352305243E+03   -0.40978E-07   -0.16672E-06 16032   0.715E-03
   1 F= 0.27102011E+03 E0= 0.27101808E+03  d E =0.271020E+03
