opt                                     
           1
    10.285103    0.053708   -0.022746
     0.053771   10.342618    0.032993
    -0.015179    0.021942    6.886252
   Y    Zr   Sc   K    H 
   9   9   9   9 216
Direct configuration=     1
   0.17266400  0.16694541  0.25026478
   0.16432338  0.50023760  0.24596201
   0.33684971  0.33219373  0.49961709
   0.50271375  0.49706467  0.24727579
   0.33680301  0.98839962  0.49742358
   0.82972707  0.50436895  0.24288101
   0.66581182  0.66786584  0.49816821
   0.83875561  0.83719485  0.75318540
   0.00308534  0.00089349  0.49826638
   0.16878640  0.16585491  0.74899243
   0.33916309  0.66480839  0.51193234
   0.17380882  0.82965272  0.76096927
   0.83306420  0.17549514  0.24401968
   0.99772454  0.33180749  0.50133206
   0.66931072  0.00041729  0.49959658
   0.00304385  0.66979327  0.49581258
   0.66980115  0.01239915  0.00189796
   0.00280127  0.00082644  0.00236300
   0.49746316  0.16324193  0.25306615
   0.16501677  0.49571016  0.74583676
   0.50076204  0.16076432  0.74968075
   0.33423421  0.32916451  0.99744087
   0.32094066  0.64863685  0.99368093
   0.65062900  0.32690826  0.00130519
   0.33398140  0.01103036  0.00191513
   0.00852824  0.33517510  0.99198583
   0.83741581  0.83285140  0.24193817
   0.16982736  0.83186813  0.24983858
   0.67288618  0.33454144  0.51013122
   0.50076184  0.48601511  0.74985746
   0.82830573  0.17497534  0.74284896
   0.50627498  0.83084034  0.24669559
   0.50580724  0.82527138  0.76792647
   0.83600042  0.50974172  0.75608354
   0.63620910  0.69479687  0.99885694
   0.98844580  0.65776608  0.99532724
   0.16565014  0.08635635  0.99349735
   0.16985446  0.08187885  0.50758081
   0.17324236  0.41029381  0.98896278
   0.49723724  0.08778756  0.00011279
   0.34118851  0.24838533  0.24271249
   0.16477763  0.41780365  0.50599593
   0.50055102  0.08502499  0.50146820
   0.33571942  0.24576805  0.75445517
   0.16688824  0.74490342  0.00448828
   0.49253469  0.41003854  0.00168973
   0.33030271  0.57530634  0.22598818
   0.17256996  0.74781321  0.50355127
   0.84051479  0.09223064  0.00236638
   0.65801757  0.25156318  0.25181485
   0.50124998  0.41093145  0.49473087
   0.32489571  0.56893611  0.76471954
   0.83656218  0.08844217  0.48666252
   0.65279149  0.24854647  0.76363700
   0.45327103  0.74329872  0.01238723
   0.33819684  0.91584094  0.23048236
   0.79864425  0.41787367  0.99302927
   0.66622246  0.58677773  0.21539980
   0.49534073  0.74534578  0.50743863
   0.33748379  0.91607235  0.77608150
   0.00005069  0.25399624  0.23979775
   0.83418277  0.42609331  0.50685170
   0.66437608  0.58065919  0.78373938
   0.00164528  0.25144709  0.75599582
   0.82177727  0.76069423  0.01222060
   0.67404776  0.92471642  0.25659658
   0.99698853  0.58286141  0.25454126
   0.82922517  0.75419365  0.48562120
   0.66352316  0.92190433  0.73861468
   0.00876748  0.58105089  0.73787197
   0.99724194  0.91225450  0.25138521
   0.01214406  0.91568165  0.74751558
   0.08169963  0.16740598  0.00289483
   0.08185070  0.16931693  0.49421830
   0.08132810  0.49437708  0.99234095
   0.41846157  0.16232040  0.99232537
   0.25277013  0.33286933  0.24026528
   0.08347257  0.50140722  0.49819218
   0.42066142  0.15666953  0.51119343
   0.24806555  0.32812114  0.75054283
   0.09040524  0.83192276  0.99920693
   0.40908852  0.48610071  0.99817171
   0.24994549  0.66307354  0.26704169
   0.08538633  0.82808665  0.50136681
   0.74835323  0.18297186  0.99571441
   0.58275059  0.32272435  0.25081650
   0.41859206  0.50100404  0.50161945
   0.24526707  0.66390967  0.74061067
   0.74715037  0.16415753  0.48856465
   0.57741489  0.31599568  0.75493662
   0.41352425  0.86167925  0.00662436
   0.25523941  0.99799151  0.23674705
   0.74213097  0.47668456  0.99102682
   0.57730303  0.66049256  0.26100735
   0.43351114  0.83025856  0.50858335
   0.25622283  0.00159298  0.76346228
   0.91514544  0.33982636  0.21520558
   0.76090288  0.49930215  0.50149033
   0.57788787  0.65186405  0.73334939
   0.91238717  0.33843647  0.77514479
   0.74872080  0.83980433  0.00144131
   0.58360779  0.00122189  0.24795546
   0.91279604  0.67215057  0.24775509
   0.75669030  0.83562677  0.49973939
   0.57900498  0.99656295  0.75905857
   0.92608763  0.67124766  0.73380230
   0.91201829  0.00151930  0.24565191
   0.91886435  0.00524635  0.75526479
   0.17189974  0.99768921  0.12118544
   0.16973863  0.99902041  0.63457662
   0.16475464  0.33446310  0.11895769
   0.50472802  0.00514991  0.13038461
   0.34200715  0.16356359  0.37616367
   0.16522444  0.33806874  0.62753209
   0.50516492  0.99979267  0.63284295
   0.33791902  0.16867082  0.87350495
   0.16707537  0.66866945  0.11629549
   0.49196169  0.32446540  0.12359004
   0.33412344  0.50495987  0.37795807
   0.16436968  0.65493257  0.62420484
   0.83211945  0.00226067  0.13772893
   0.65826458  0.16923100  0.37440545
   0.50339355  0.31484723  0.63007285
   0.32822695  0.49582551  0.86458685
   0.83250523  0.00540583  0.62381778
   0.66338613  0.17314510  0.87637595
   0.46609855  0.66797157  0.12046231
   0.33806474  0.82045966  0.37765087
   0.84996627  0.33855165  0.11620207
   0.66646189  0.50088683  0.37512801
   0.51156393  0.65800380  0.65431725
   0.33659169  0.80658302  0.88106682
   0.00159243  0.16967642  0.36866822
   0.84296913  0.34329850  0.62107482
   0.66460171  0.52635843  0.87265361
   0.99518654  0.17365539  0.87701156
   0.81370309  0.67050600  0.11407773
   0.67553259  0.83477475  0.36463542
   0.99853055  0.49818372  0.37399379
   0.83463722  0.67349455  0.62020984
   0.68093461  0.85674758  0.88495139
   0.00943208  0.49002596  0.86516146
   0.99969290  0.83490923  0.36594773
   0.00280955  0.83067558  0.88346916
   0.08537231  0.99964749  0.24425852
   0.08947677  0.99681264  0.75875947
   0.08261142  0.33145454  0.23984868
   0.42132009  0.00052636  0.23418084
   0.25483874  0.16287885  0.50575626
   0.08714041  0.33661882  0.75300400
   0.41926806  0.99893464  0.76264615
   0.25370899  0.16851320  0.99700923
   0.07957346  0.67077282  0.24781298
   0.41928677  0.32611194  0.24128681
   0.24468002  0.50254809  0.50250908
   0.08739846  0.66686521  0.75191707
   0.75525930  0.00997292  0.24759971
   0.58354907  0.16839549  0.49546074
   0.41353402  0.32074894  0.76084322
   0.24714434  0.48317438  0.99651403
   0.75441718  0.00841302  0.75910834
   0.57439353  0.16775750  0.00452624
   0.41477498  0.66649472  0.27331826
   0.24713219  0.82175838  0.50323460
   0.74431466  0.33529436  0.23225133
   0.59609992  0.50231681  0.51679907
   0.41051858  0.66001590  0.75281436
   0.25606830  0.85071992  0.00404287
   0.91317257  0.16763392  0.49575333
   0.74384096  0.34950462  0.78340144
   0.58125893  0.49651572  0.99776899
   0.91506955  0.18404829  0.99178238
   0.74740864  0.67560098  0.23532162
   0.59227352  0.84067160  0.50417783
   0.92028405  0.49736311  0.50030315
   0.75393674  0.67673543  0.77548939
   0.58227221  0.87256594  0.00820376
   0.91536448  0.47973748  0.99943658
   0.91921000  0.83496672  0.50272223
   0.92681645  0.83547639  0.00282237
   0.00252430  0.17463524  0.11808870
   0.99951399  0.16834063  0.63045516
   0.99948838  0.48824552  0.11370379
   0.33995307  0.16910192  0.12237554
   0.16381764  0.33454264  0.37589788
   0.00243131  0.49919072  0.62476212
   0.34197385  0.16343515  0.62456630
   0.16585078  0.33645068  0.87029264
   0.99701148  0.83076585  0.12562642
   0.33270926  0.50000331  0.12588626
   0.17596828  0.66565793  0.36793653
   0.01010093  0.83374969  0.62965097
   0.66006705  0.16852470  0.12864185
   0.50548139  0.31854549  0.37730368
   0.33108685  0.49812930  0.62757173
   0.15952237  0.65649077  0.87361405
   0.65518581  0.16357906  0.62507084
   0.49254635  0.32085767  0.87806138
   0.33462776  0.80380726  0.12484090
   0.16892574  0.99974710  0.37073948
   0.66435683  0.52729880  0.12002211
   0.48800251  0.66643020  0.36272234
   0.33943211  0.82540067  0.63429667
   0.17371240  0.99995335  0.87865333
   0.83710198  0.33778321  0.36661833
   0.66405323  0.50249267  0.61805184
   0.47452038  0.64452349  0.88579800
   0.84740383  0.33831037  0.87011253
   0.68117267  0.85390910  0.13047967
   0.50699239  0.00294923  0.37480955
   0.83594749  0.67921164  0.37559191
   0.66695707  0.83491252  0.63579582
   0.50238515  0.00180344  0.87308079
   0.80596135  0.66993098  0.87911856
   0.83415393  0.99124551  0.37494751
   0.83143391  0.00722904  0.86865265
   0.99538761  0.08998759  0.24610961
   0.00233420  0.08741896  0.75542380
   0.99597997  0.41583427  0.25145039
   0.34305120  0.08052010  0.24565981
   0.16643585  0.25102749  0.50521114
   0.00307797  0.41796674  0.74554570
   0.33605874  0.07765649  0.75174591
   0.16927919  0.24985370  0.99336364
   0.00063463  0.74918543  0.24144379
   0.33557401  0.41407271  0.24324951
   0.16605803  0.58424213  0.51158620
   0.00806137  0.75009770  0.75362657
   0.66425472  0.08819869  0.25517403
   0.50815103  0.24736783  0.48652496
   0.32810458  0.41138172  0.75864709
   0.15968529  0.57888938  0.97977147
   0.66318940  0.08693658  0.75152897
   0.49480626  0.24477782  0.01351857
   0.33530404  0.74927784  0.21320767
   0.16949601  0.90845387  0.50886345
   0.66857214  0.41028573  0.23064155
   0.50065603  0.57669702  0.50253637
   0.34028859  0.74836292  0.77992464
   0.18775529  0.91491004  0.00560522
   0.83810143  0.25205360  0.49007498
   0.67798968  0.41098088  0.77340512
   0.48959227  0.58152913  0.98111191
   0.82569361  0.25606152  0.99618150
   0.68135784  0.76419187  0.26178304
   0.50166106  0.90512803  0.50953352
   0.83715939  0.58757599  0.49450101
   0.67780769  0.75770178  0.73315413
   0.47673485  0.91244248  0.00307650
   0.80350313  0.59399089  0.00447406
   0.83703693  0.91678431  0.48102740
   0.83665665  0.92624786  0.01621433
