generated by phonopy                    
   1.00000000000000     
     0.0000000000000000    3.2883613178725217    3.2883613178726168
     3.2883613178725595    0.0000000000000000    3.2883613178726168
     3.2883613178725595    3.2883613178725217    0.0000000000000000
   K    Sc   Mg   Zr   H 
     1     1     1     1    24
Direct
  0.2500000000000000  0.2500000000000000  0.2500000000000000
  0.7500000000000000  0.7500000000000000  0.7500000000000000
  0.0000000000000000  0.0000000000000000  0.0000000000000000
  0.5000000000000000  0.5000000000000000  0.5000000000000000
  0.1112943874522045  0.8883454871306853  0.6331262180104886
  0.8883454871306853  0.1112943874522045  0.3672339074066144
  0.6331262180104886  0.3672339074066144  0.1112943874522045
  0.3672339074066144  0.6331262180104886  0.8883454871306853
  0.6331262180104886  0.1112943874522045  0.8883454871306853
  0.3672339074066144  0.8883454871306853  0.1112943874522045
  0.1112943874522045  0.6331262180104886  0.3672339074066144
  0.8883454871306853  0.3672339074066144  0.6331262180104886
  0.8883454871306853  0.6331262180104886  0.1112943874522045
  0.1112943874522045  0.3672339074066144  0.8883454871306853
  0.3672339074066144  0.1112943874522045  0.6331262180104886
  0.6331262180104886  0.8883454871306853  0.3672339074066144
  0.1112943874522045  0.3672339074066144  0.6331262180104886
  0.3672339074066144  0.1112943874522045  0.8883454871306853
  0.6331262180104886  0.8883454871306853  0.1112943874522045
  0.8883454871306853  0.6331262180104886  0.3672339074066144
  0.6331262180104886  0.1112943874522045  0.3672339074066144
  0.8883454871306853  0.3672339074066144  0.1112943874522045
  0.1112943874522045  0.6331262180104886  0.8883454871306853
  0.3672339074066144  0.8883454871306853  0.6331262180104886
  0.3672339074066144  0.6331262180104886  0.1112943874522045
  0.1112943874522045  0.8883454871306853  0.3672339074066144
  0.8883454871306853  0.1112943874522045  0.6331262180104886
  0.6331262180104886  0.3672339074066144  0.8883454871306853
 
  0.00000000E+00  0.00000000E+00  0.00000000E+00
  0.00000000E+00  0.00000000E+00  0.00000000E+00
  0.00000000E+00  0.00000000E+00  0.00000000E+00
  0.00000000E+00  0.00000000E+00  0.00000000E+00
  0.00000000E+00  0.00000000E+00  0.00000000E+00
  0.00000000E+00  0.00000000E+00  0.00000000E+00
  0.00000000E+00  0.00000000E+00  0.00000000E+00
  0.00000000E+00  0.00000000E+00  0.00000000E+00
  0.00000000E+00  0.00000000E+00  0.00000000E+00
  0.00000000E+00  0.00000000E+00  0.00000000E+00
  0.00000000E+00  0.00000000E+00  0.00000000E+00
  0.00000000E+00  0.00000000E+00  0.00000000E+00
  0.00000000E+00  0.00000000E+00  0.00000000E+00
  0.00000000E+00  0.00000000E+00  0.00000000E+00
  0.00000000E+00  0.00000000E+00  0.00000000E+00
  0.00000000E+00  0.00000000E+00  0.00000000E+00
  0.00000000E+00  0.00000000E+00  0.00000000E+00
  0.00000000E+00  0.00000000E+00  0.00000000E+00
  0.00000000E+00  0.00000000E+00  0.00000000E+00
  0.00000000E+00  0.00000000E+00  0.00000000E+00
  0.00000000E+00  0.00000000E+00  0.00000000E+00
  0.00000000E+00  0.00000000E+00  0.00000000E+00
  0.00000000E+00  0.00000000E+00  0.00000000E+00
  0.00000000E+00  0.00000000E+00  0.00000000E+00
  0.00000000E+00  0.00000000E+00  0.00000000E+00
  0.00000000E+00  0.00000000E+00  0.00000000E+00
  0.00000000E+00  0.00000000E+00  0.00000000E+00
  0.00000000E+00  0.00000000E+00  0.00000000E+00
