generated by phonopy                    
   1.00000000000000     
     0.0000000000000000    3.2272586335317359    3.2272586335317941
     3.2272586335317599    0.0000000000000000    3.2272586335317941
     3.2272586335317599    3.2272586335317359    0.0000000000000000
   Na   Y    Ca   Sc   H 
     1     1     1     1    24
Direct
  0.2500000000000000  0.2500000000000000  0.2500000000000000
  0.7500000000000000  0.7500000000000000  0.7500000000000000
  0.0000000000000000  0.0000000000000000  0.0000000000000000
  0.5000000000000000  0.5000000000000000  0.5000000000000000
  0.1369028404078634  0.8884716715205485  0.6115232018197290
  0.8884716715205485  0.1369028404078634  0.3631022862518591
  0.6115232018197290  0.3631022862518591  0.1369028404078634
  0.3631022862518591  0.6115232018197290  0.8884716715205485
  0.6115232018197290  0.1369028404078634  0.8884716715205485
  0.3631022862518591  0.8884716715205485  0.1369028404078634
  0.1369028404078634  0.6115232018197290  0.3631022862518591
  0.8884716715205485  0.3631022862518591  0.6115232018197290
  0.8884716715205485  0.6115232018197290  0.1369028404078634
  0.1369028404078634  0.3631022862518591  0.8884716715205485
  0.3631022862518591  0.1369028404078634  0.6115232018197290
  0.6115232018197290  0.8884716715205485  0.3631022862518591
  0.1369028404078634  0.3631022862518591  0.6115232018197290
  0.3631022862518591  0.1369028404078634  0.8884716715205485
  0.6115232018197290  0.8884716715205485  0.1369028404078634
  0.8884716715205485  0.6115232018197290  0.3631022862518591
  0.6115232018197290  0.1369028404078634  0.3631022862518591
  0.8884716715205485  0.3631022862518591  0.1369028404078634
  0.1369028404078634  0.6115232018197290  0.8884716715205485
  0.3631022862518591  0.8884716715205485  0.6115232018197290
  0.3631022862518591  0.6115232018197290  0.1369028404078634
  0.1369028404078634  0.8884716715205485  0.3631022862518591
  0.8884716715205485  0.1369028404078634  0.6115232018197290
  0.6115232018197290  0.3631022862518591  0.8884716715205485
 
  0.00000000E+00  0.00000000E+00  0.00000000E+00
  0.00000000E+00  0.00000000E+00  0.00000000E+00
  0.00000000E+00  0.00000000E+00  0.00000000E+00
  0.00000000E+00  0.00000000E+00  0.00000000E+00
  0.00000000E+00  0.00000000E+00  0.00000000E+00
  0.00000000E+00  0.00000000E+00  0.00000000E+00
  0.00000000E+00  0.00000000E+00  0.00000000E+00
  0.00000000E+00  0.00000000E+00  0.00000000E+00
  0.00000000E+00  0.00000000E+00  0.00000000E+00
  0.00000000E+00  0.00000000E+00  0.00000000E+00
  0.00000000E+00  0.00000000E+00  0.00000000E+00
  0.00000000E+00  0.00000000E+00  0.00000000E+00
  0.00000000E+00  0.00000000E+00  0.00000000E+00
  0.00000000E+00  0.00000000E+00  0.00000000E+00
  0.00000000E+00  0.00000000E+00  0.00000000E+00
  0.00000000E+00  0.00000000E+00  0.00000000E+00
  0.00000000E+00  0.00000000E+00  0.00000000E+00
  0.00000000E+00  0.00000000E+00  0.00000000E+00
  0.00000000E+00  0.00000000E+00  0.00000000E+00
  0.00000000E+00  0.00000000E+00  0.00000000E+00
  0.00000000E+00  0.00000000E+00  0.00000000E+00
  0.00000000E+00  0.00000000E+00  0.00000000E+00
  0.00000000E+00  0.00000000E+00  0.00000000E+00
  0.00000000E+00  0.00000000E+00  0.00000000E+00
  0.00000000E+00  0.00000000E+00  0.00000000E+00
  0.00000000E+00  0.00000000E+00  0.00000000E+00
  0.00000000E+00  0.00000000E+00  0.00000000E+00
  0.00000000E+00  0.00000000E+00  0.00000000E+00
