generated by phonopy                    
   1.00000000000000     
     0.0000000000000000    3.2888914485499772    3.2888914485500274
     3.2888914485499976    0.0000000000000000    3.2888914485500274
     3.2888914485499976    3.2888914485499772    0.0000000000000000
   Ca   Y    Sc   Hf   H 
     1     1     1     1    24
Direct
  0.2500000000000000  0.2500000000000000  0.2500000000000000
  0.7500000000000000  0.7500000000000000  0.7500000000000000
  0.0000000000000000  0.0000000000000000  0.0000000000000000
  0.5000000000000000  0.5000000000000000  0.5000000000000000
  0.1213243418233034  0.8877263716267763  0.6238082428880958
  0.8877263716267763  0.1213243418233034  0.3671410436618316
  0.6238082428880958  0.3671410436618316  0.1213243418233034
  0.3671410436618316  0.6238082428880958  0.8877263716267763
  0.6238082428880958  0.1213243418233034  0.8877263716267763
  0.3671410436618316  0.8877263716267763  0.1213243418233034
  0.1213243418233034  0.6238082428880958  0.3671410436618316
  0.8877263716267763  0.3671410436618316  0.6238082428880958
  0.8877263716267763  0.6238082428880958  0.1213243418233034
  0.1213243418233034  0.3671410436618316  0.8877263716267763
  0.3671410436618316  0.1213243418233034  0.6238082428880958
  0.6238082428880958  0.8877263716267763  0.3671410436618316
  0.1213243418233034  0.3671410436618316  0.6238082428880958
  0.3671410436618316  0.1213243418233034  0.8877263716267763
  0.6238082428880958  0.8877263716267763  0.1213243418233034
  0.8877263716267763  0.6238082428880958  0.3671410436618316
  0.6238082428880958  0.1213243418233034  0.3671410436618316
  0.8877263716267763  0.3671410436618316  0.1213243418233034
  0.1213243418233034  0.6238082428880958  0.8877263716267763
  0.3671410436618316  0.8877263716267763  0.6238082428880958
  0.3671410436618316  0.6238082428880958  0.1213243418233034
  0.1213243418233034  0.8877263716267763  0.3671410436618316
  0.8877263716267763  0.1213243418233034  0.6238082428880958
  0.6238082428880958  0.3671410436618316  0.8877263716267763
 
  0.00000000E+00  0.00000000E+00  0.00000000E+00
  0.00000000E+00  0.00000000E+00  0.00000000E+00
  0.00000000E+00  0.00000000E+00  0.00000000E+00
  0.00000000E+00  0.00000000E+00  0.00000000E+00
  0.00000000E+00  0.00000000E+00  0.00000000E+00
  0.00000000E+00  0.00000000E+00  0.00000000E+00
  0.00000000E+00  0.00000000E+00  0.00000000E+00
  0.00000000E+00  0.00000000E+00  0.00000000E+00
  0.00000000E+00  0.00000000E+00  0.00000000E+00
  0.00000000E+00  0.00000000E+00  0.00000000E+00
  0.00000000E+00  0.00000000E+00  0.00000000E+00
  0.00000000E+00  0.00000000E+00  0.00000000E+00
  0.00000000E+00  0.00000000E+00  0.00000000E+00
  0.00000000E+00  0.00000000E+00  0.00000000E+00
  0.00000000E+00  0.00000000E+00  0.00000000E+00
  0.00000000E+00  0.00000000E+00  0.00000000E+00
  0.00000000E+00  0.00000000E+00  0.00000000E+00
  0.00000000E+00  0.00000000E+00  0.00000000E+00
  0.00000000E+00  0.00000000E+00  0.00000000E+00
  0.00000000E+00  0.00000000E+00  0.00000000E+00
  0.00000000E+00  0.00000000E+00  0.00000000E+00
  0.00000000E+00  0.00000000E+00  0.00000000E+00
  0.00000000E+00  0.00000000E+00  0.00000000E+00
  0.00000000E+00  0.00000000E+00  0.00000000E+00
  0.00000000E+00  0.00000000E+00  0.00000000E+00
  0.00000000E+00  0.00000000E+00  0.00000000E+00
  0.00000000E+00  0.00000000E+00  0.00000000E+00
  0.00000000E+00  0.00000000E+00  0.00000000E+00
