generated by phonopy                    
   1.00000000000000     
     0.0000000000000000    3.3446451421586256    3.3446451421587615
     3.3446451421586834    0.0000000000000000    3.3446451421587615
     3.3446451421586834    3.3446451421586256    0.0000000000000000
   Na   Ca   Mg   Y    H 
     1     1     1     1    24
Direct
  0.2500000000000000  0.2500000000000000  0.2500000000000000
  0.7500000000000000  0.7500000000000000  0.7500000000000000
  0.0000000000000000  0.0000000000000000  0.0000000000000000
  0.5000000000000000  0.5000000000000000  0.5000000000000000
  0.1179633266350280  0.8952746225978956  0.6276020514910883
  0.8952746225978956  0.1179633266350280  0.3591599992760095
  0.6276020514910883  0.3591599992760095  0.1179633266350280
  0.3591599992760095  0.6276020514910883  0.8952746225978956
  0.6276020514910883  0.1179633266350280  0.8952746225978956
  0.3591599992760095  0.8952746225978956  0.1179633266350280
  0.1179633266350280  0.6276020514910883  0.3591599992760095
  0.8952746225978956  0.3591599992760095  0.6276020514910883
  0.8952746225978956  0.6276020514910883  0.1179633266350280
  0.1179633266350280  0.3591599992760095  0.8952746225978956
  0.3591599992760095  0.1179633266350280  0.6276020514910883
  0.6276020514910883  0.8952746225978956  0.3591599992760095
  0.1179633266350280  0.3591599992760095  0.6276020514910883
  0.3591599992760095  0.1179633266350280  0.8952746225978956
  0.6276020514910883  0.8952746225978956  0.1179633266350280
  0.8952746225978956  0.6276020514910883  0.3591599992760095
  0.6276020514910883  0.1179633266350280  0.3591599992760095
  0.8952746225978956  0.3591599992760095  0.1179633266350280
  0.1179633266350280  0.6276020514910883  0.8952746225978956
  0.3591599992760095  0.8952746225978956  0.6276020514910883
  0.3591599992760095  0.6276020514910883  0.1179633266350280
  0.1179633266350280  0.8952746225978956  0.3591599992760095
  0.8952746225978956  0.1179633266350280  0.6276020514910883
  0.6276020514910883  0.3591599992760095  0.8952746225978956
 
  0.00000000E+00  0.00000000E+00  0.00000000E+00
  0.00000000E+00  0.00000000E+00  0.00000000E+00
  0.00000000E+00  0.00000000E+00  0.00000000E+00
  0.00000000E+00  0.00000000E+00  0.00000000E+00
  0.00000000E+00  0.00000000E+00  0.00000000E+00
  0.00000000E+00  0.00000000E+00  0.00000000E+00
  0.00000000E+00  0.00000000E+00  0.00000000E+00
  0.00000000E+00  0.00000000E+00  0.00000000E+00
  0.00000000E+00  0.00000000E+00  0.00000000E+00
  0.00000000E+00  0.00000000E+00  0.00000000E+00
  0.00000000E+00  0.00000000E+00  0.00000000E+00
  0.00000000E+00  0.00000000E+00  0.00000000E+00
  0.00000000E+00  0.00000000E+00  0.00000000E+00
  0.00000000E+00  0.00000000E+00  0.00000000E+00
  0.00000000E+00  0.00000000E+00  0.00000000E+00
  0.00000000E+00  0.00000000E+00  0.00000000E+00
  0.00000000E+00  0.00000000E+00  0.00000000E+00
  0.00000000E+00  0.00000000E+00  0.00000000E+00
  0.00000000E+00  0.00000000E+00  0.00000000E+00
  0.00000000E+00  0.00000000E+00  0.00000000E+00
  0.00000000E+00  0.00000000E+00  0.00000000E+00
  0.00000000E+00  0.00000000E+00  0.00000000E+00
  0.00000000E+00  0.00000000E+00  0.00000000E+00
  0.00000000E+00  0.00000000E+00  0.00000000E+00
  0.00000000E+00  0.00000000E+00  0.00000000E+00
  0.00000000E+00  0.00000000E+00  0.00000000E+00
  0.00000000E+00  0.00000000E+00  0.00000000E+00
  0.00000000E+00  0.00000000E+00  0.00000000E+00
