generated by phonopy                    
   1.00000000000000     
     0.0000000000000000    3.2963619905298858    3.2963619905299786
     3.2963619905299280    0.0000000000000000    3.2963619905299786
     3.2963619905299280    3.2963619905298858    0.0000000000000000
   Na   Sr   Mg   Zr   H 
     1     1     1     1    24
Direct
  0.2500000000000000  0.2500000000000000  0.2500000000000000
  0.7500000000000000  0.7500000000000000  0.7500000000000000
  0.0000000000000000  0.0000000000000000  0.0000000000000000
  0.5000000000000000  0.5000000000000000  0.5000000000000000
  0.1225404603230871  0.9006091996889367  0.6211163393044430
  0.9006091996889367  0.1225404603230871  0.3557340006835332
  0.6211163393044430  0.3557340006835332  0.1225404603230871
  0.3557340006835332  0.6211163393044430  0.9006091996889367
  0.6211163393044430  0.1225404603230871  0.9006091996889367
  0.3557340006835332  0.9006091996889367  0.1225404603230871
  0.1225404603230871  0.6211163393044430  0.3557340006835332
  0.9006091996889367  0.3557340006835332  0.6211163393044430
  0.9006091996889367  0.6211163393044430  0.1225404603230871
  0.1225404603230871  0.3557340006835332  0.9006091996889367
  0.3557340006835332  0.1225404603230871  0.6211163393044430
  0.6211163393044430  0.9006091996889367  0.3557340006835332
  0.1225404603230871  0.3557340006835332  0.6211163393044430
  0.3557340006835332  0.1225404603230871  0.9006091996889367
  0.6211163393044430  0.9006091996889367  0.1225404603230871
  0.9006091996889367  0.6211163393044430  0.3557340006835332
  0.6211163393044430  0.1225404603230871  0.3557340006835332
  0.9006091996889367  0.3557340006835332  0.1225404603230871
  0.1225404603230871  0.6211163393044430  0.9006091996889367
  0.3557340006835332  0.9006091996889367  0.6211163393044430
  0.3557340006835332  0.6211163393044430  0.1225404603230871
  0.1225404603230871  0.9006091996889367  0.3557340006835332
  0.9006091996889367  0.1225404603230871  0.6211163393044430
  0.6211163393044430  0.3557340006835332  0.9006091996889367
 
  0.00000000E+00  0.00000000E+00  0.00000000E+00
  0.00000000E+00  0.00000000E+00  0.00000000E+00
  0.00000000E+00  0.00000000E+00  0.00000000E+00
  0.00000000E+00  0.00000000E+00  0.00000000E+00
  0.00000000E+00  0.00000000E+00  0.00000000E+00
  0.00000000E+00  0.00000000E+00  0.00000000E+00
  0.00000000E+00  0.00000000E+00  0.00000000E+00
  0.00000000E+00  0.00000000E+00  0.00000000E+00
  0.00000000E+00  0.00000000E+00  0.00000000E+00
  0.00000000E+00  0.00000000E+00  0.00000000E+00
  0.00000000E+00  0.00000000E+00  0.00000000E+00
  0.00000000E+00  0.00000000E+00  0.00000000E+00
  0.00000000E+00  0.00000000E+00  0.00000000E+00
  0.00000000E+00  0.00000000E+00  0.00000000E+00
  0.00000000E+00  0.00000000E+00  0.00000000E+00
  0.00000000E+00  0.00000000E+00  0.00000000E+00
  0.00000000E+00  0.00000000E+00  0.00000000E+00
  0.00000000E+00  0.00000000E+00  0.00000000E+00
  0.00000000E+00  0.00000000E+00  0.00000000E+00
  0.00000000E+00  0.00000000E+00  0.00000000E+00
  0.00000000E+00  0.00000000E+00  0.00000000E+00
  0.00000000E+00  0.00000000E+00  0.00000000E+00
  0.00000000E+00  0.00000000E+00  0.00000000E+00
  0.00000000E+00  0.00000000E+00  0.00000000E+00
  0.00000000E+00  0.00000000E+00  0.00000000E+00
  0.00000000E+00  0.00000000E+00  0.00000000E+00
  0.00000000E+00  0.00000000E+00  0.00000000E+00
  0.00000000E+00  0.00000000E+00  0.00000000E+00
