generated by phonopy                    
   1.00000000000000     
     0.0000000000000000    3.2413523682150904    3.2413523682151615
     3.2413523682151202    0.0000000000000000    3.2413523682151615
     3.2413523682151202    3.2413523682150904    0.0000000000000000
   Na   Sc   Mg   Zr   H 
     1     1     1     1    24
Direct
  0.2500000000000000  0.2500000000000000  0.2500000000000000
  0.7500000000000000  0.7500000000000000  0.7500000000000000
  0.0000000000000000  0.0000000000000000  0.0000000000000000
  0.5000000000000000  0.5000000000000000  0.5000000000000000
  0.1190467655657841  0.8932547176549761  0.6259254159202925
  0.8932547176549761  0.1190467655657841  0.3617731008589260
  0.6259254159202925  0.3617731008589260  0.1190467655657841
  0.3617731008589260  0.6259254159202925  0.8932547176549761
  0.6259254159202925  0.1190467655657841  0.8932547176549761
  0.3617731008589260  0.8932547176549761  0.1190467655657841
  0.1190467655657841  0.6259254159202925  0.3617731008589260
  0.8932547176549761  0.3617731008589260  0.6259254159202925
  0.8932547176549761  0.6259254159202925  0.1190467655657841
  0.1190467655657841  0.3617731008589260  0.8932547176549761
  0.3617731008589260  0.1190467655657841  0.6259254159202925
  0.6259254159202925  0.8932547176549761  0.3617731008589260
  0.1190467655657841  0.3617731008589260  0.6259254159202925
  0.3617731008589260  0.1190467655657841  0.8932547176549761
  0.6259254159202925  0.8932547176549761  0.1190467655657841
  0.8932547176549761  0.6259254159202925  0.3617731008589260
  0.6259254159202925  0.1190467655657841  0.3617731008589260
  0.8932547176549761  0.3617731008589260  0.1190467655657841
  0.1190467655657841  0.6259254159202925  0.8932547176549761
  0.3617731008589260  0.8932547176549761  0.6259254159202925
  0.3617731008589260  0.6259254159202925  0.1190467655657841
  0.1190467655657841  0.8932547176549761  0.3617731008589260
  0.8932547176549761  0.1190467655657841  0.6259254159202925
  0.6259254159202925  0.3617731008589260  0.8932547176549761
 
  0.00000000E+00  0.00000000E+00  0.00000000E+00
  0.00000000E+00  0.00000000E+00  0.00000000E+00
  0.00000000E+00  0.00000000E+00  0.00000000E+00
  0.00000000E+00  0.00000000E+00  0.00000000E+00
  0.00000000E+00  0.00000000E+00  0.00000000E+00
  0.00000000E+00  0.00000000E+00  0.00000000E+00
  0.00000000E+00  0.00000000E+00  0.00000000E+00
  0.00000000E+00  0.00000000E+00  0.00000000E+00
  0.00000000E+00  0.00000000E+00  0.00000000E+00
  0.00000000E+00  0.00000000E+00  0.00000000E+00
  0.00000000E+00  0.00000000E+00  0.00000000E+00
  0.00000000E+00  0.00000000E+00  0.00000000E+00
  0.00000000E+00  0.00000000E+00  0.00000000E+00
  0.00000000E+00  0.00000000E+00  0.00000000E+00
  0.00000000E+00  0.00000000E+00  0.00000000E+00
  0.00000000E+00  0.00000000E+00  0.00000000E+00
  0.00000000E+00  0.00000000E+00  0.00000000E+00
  0.00000000E+00  0.00000000E+00  0.00000000E+00
  0.00000000E+00  0.00000000E+00  0.00000000E+00
  0.00000000E+00  0.00000000E+00  0.00000000E+00
  0.00000000E+00  0.00000000E+00  0.00000000E+00
  0.00000000E+00  0.00000000E+00  0.00000000E+00
  0.00000000E+00  0.00000000E+00  0.00000000E+00
  0.00000000E+00  0.00000000E+00  0.00000000E+00
  0.00000000E+00  0.00000000E+00  0.00000000E+00
  0.00000000E+00  0.00000000E+00  0.00000000E+00
  0.00000000E+00  0.00000000E+00  0.00000000E+00
  0.00000000E+00  0.00000000E+00  0.00000000E+00
