POSCAR                                  
   1.00000000000000     
    10.0296331635021954   -0.0125199346888586   -0.0037831735674552
    -0.0125362507827372   10.0164594800631264   -0.0009080912451033
    -0.0025710055530196   -0.0005988040601833    6.6475267086476810
   Mg   Na   Ca   Zr   H 
     9     9     9     9   216
Direct
  0.1657748166814486  0.1727143419787609  0.2506421584182945
  0.1655343004150964  0.8381229101461969  0.7448325506212328
  0.8385092355278871  0.1653534896461935  0.2516560820571598
  0.6697607065868638  0.3283082089351197  0.5029402920002042
  0.5025659065431825  0.8375744050207174  0.7434246245465843
  0.0054193310351494  0.3297444731044195  0.0001536805561955
  0.8314732231137469  0.8380021467896839  0.7460992479235813
  0.9990749270566255  0.6658302927502575  0.9978256821435707
  0.0030831750965987  0.0051220368986762  0.9993973477168794
  0.1620933822168737  0.1637885322727897  0.7514987082568254
  0.1673650697696445  0.5033114449926614  0.7508436702943087
  0.5047812916382028  0.1651053124763067  0.7489306800382636
  0.3298846696627891  0.3311930150763445  0.9983786705444828
  0.3339307911701113  0.6709489059536864  0.5033685215988655
  0.8371281401198871  0.1634691736816194  0.7529904583647635
  0.3311274369654313  0.9988410888297281  0.5010070956117474
  0.6634261792777210  0.6664911276801462  0.5024076340599848
  0.0001080891454848  0.3304301161964815  0.5016947039256792
  0.1626167164600645  0.4916224100336066  0.2492302141100993
  0.4952288720301397  0.1648158362856407  0.2537606297283475
  0.3283637935791361  0.3311058933157867  0.5017819765518752
  0.4982020316121449  0.8353454557688238  0.2457399732314940
  0.8357688689997218  0.4960944795997051  0.2514611468045729
  0.6728444731530629  0.6676452434541531  0.9988858785411381
  0.8339365844599200  0.8354956849252702  0.2511932007614561
  0.6645399266527505  0.0009654817625488  0.5012003319023037
  0.0005900408742932  0.0074440553298345  0.5010043873689440
  0.1651705168142001  0.8351258201101786  0.2522500006484805
  0.5002267077591753  0.4986754658820658  0.2571677662715146
  0.4936121088092733  0.4984293525820789  0.7432151805246789
  0.3280274162522687  0.6623715655160964  0.9995411278093442
  0.6694742166987453  0.3309026399328729  0.9995115164399238
  0.3268778765517695  0.0112776810394735  0.9915768249618466
  0.8418691255215549  0.4964523465484305  0.7502227835940403
  0.0003981040558614  0.6648510242361354  0.5031762956895847
  0.6725524682880106  0.9976045438956689  0.9944865276827599
  0.1595518147070578  0.0860545357238109  0.0075170901515236
  0.1666978941840398  0.0859597081215284  0.4865113849408402
  0.1646769535268717  0.4178768293669748  0.9915235799669020
  0.4993881140739447  0.0890776677079401  0.9916089686423604
  0.3273372208025194  0.2502138110974599  0.2403000186315296
  0.1577064950704781  0.4188381428050221  0.5109489362074342
  0.4879571366867381  0.0875833362789535  0.5112334049786824
  0.3399063185572118  0.2514649868154635  0.7568249821503201
  0.1648204127518440  0.7515161503337779  0.9957971982594245
  0.4898224042186001  0.4133945871714815  0.9975909824975346
  0.3283153909676670  0.5831158601880659  0.2622261260750491
  0.1701411082665913  0.7488361085708419  0.5057283429228931
  0.8436951451142463  0.0857666984583290  0.9931732558970197
  0.6640669909127084  0.2487676518876896  0.2541598019559359
  0.5015217462910044  0.4119867163655542  0.5026233106944034
  0.3297550800055973  0.5853859875471699  0.7396170625510194
  0.8344858586723376  0.0829732552138083  0.5205447733246444
  0.6710990735999118  0.2491918164607156  0.7408620734788371
  0.4983810888007625  0.7503890856572255  0.9824593687875378
  0.3299833331509703  0.9197760833538240  0.2559790924109677
  0.8501882392371627  0.4125851386496890  0.0030207815638192
  0.6688547522811632  0.5859638570081458  0.2581811744963289
  0.4994723346959447  0.7478086302834868  0.5060021806166262
  0.3472309903662563  0.9162216499601286  0.7472037339608519
  0.0022443628227720  0.2486457793188421  0.2497008400122169
  0.8408807853735851  0.4145401078214590  0.5012001989745940
  0.6685714790088397  0.5857710017175464  0.7425748392130345
  0.9968782916570049  0.2502846291256304  0.7488709914660774
  0.8417916874418339  0.7510773928094352  0.9866106612587231
  0.6680876511931757  0.9159380688694725  0.2524872066339228
  0.0006940132648054  0.5808476423640982  0.2325171306443892
  0.8264094924151877  0.7480389788779434  0.5118522031431212
  0.6663571429812762  0.9109313883999306  0.7398691291818480
  0.0047618727975731  0.5838413827194131  0.7666221067267429
  0.0015104227465343  0.9179437446044574  0.2382022712281184
  0.9895929097161016  0.9172522796814420  0.7485660755508405
  0.0804471603907331  0.1727671315039316  0.9995454265117516
  0.0834827538461198  0.1722669041456228  0.5026645638790086
  0.0859507290575081  0.4889567008568889  0.9884886480836954
  0.4198564847724313  0.1735638566409605  0.9901170351649000
  0.2514785468139280  0.3304193208052197  0.2418287144573057
  0.0881689662760863  0.4875039432856312  0.5124932848241244
  0.4198721293368095  0.1592910612755674  0.5120770360609228
  0.2489105502310807  0.3373011655057709  0.7596763798723671
  0.0796997529361860  0.8364244904490903  0.9733731668275993
  0.4157376333618714  0.4902558957142062  0.9989447091490504
  0.2485646199534415  0.6609514921420114  0.2627992507005743
  0.0819479490019077  0.8383285184581410  0.5200749436660743
  0.7548887189610411  0.1653230051606442  0.0136261610897677
  0.5842199003812709  0.3266869034473103  0.2648570913107591
  0.4092152783227760  0.5042402432854658  0.4997546940351683
  0.2480138803769520  0.6721146940236906  0.7418082149504173
  0.7500644038454141  0.1693740218916489  0.4851236367192229
  0.5838566701348782  0.3283641518267615  0.7399184407946109
  0.4189994055798962  0.8390757398392594  0.9827687070890434
  0.2480230251476812  0.0055703289490836  0.2543653418018792
  0.7505975872969515  0.4979775262906614  0.0001311157703725
  0.5842413414174388  0.6690007572231025  0.2537460085304915
  0.4181792884992106  0.8407858500206942  0.5060232703177903
  0.2470777261356645  0.0024889993701791  0.7333318571880483
  0.9155295761220117  0.3215381868825347  0.2530966223200792
  0.7502192620549977  0.5031471492423378  0.5028096628931777
  0.5852997874545594  0.6799215971694750  0.7491070572570067
  0.9231757020015792  0.3194085847946866  0.7542131924853734
  0.7557686116406188  0.8323802698068405  0.9895621079521391
  0.5794592463300461  0.0017895729694573  0.2476920602850754
  0.9157672945873614  0.6683571404868047  0.2427731747561239
  0.7480780120437984  0.8280718282633899  0.5078828923463163
  0.5798450805815492  0.9968984391504492  0.7501207424965912
  0.9163377784172724  0.6804039444807444  0.7611327151352683
  0.9195132213881223  0.0084236597602541  0.2310093654061234
  0.9199717592394592  0.9935273844797265  0.7624027427253424
  0.1586159467745674  0.0064685008513266  0.1263150879896315
  0.1750447311053733  0.0002843168514772  0.6267461131432555
  0.1644601990155792  0.3263927474763406  0.1200054119955070
  0.5012577012047643  0.0010521664838663  0.1232275848373874
  0.3205642420712778  0.1599726908984351  0.3745548448349965
  0.1605021677844150  0.3220851633959327  0.6257502775839257
  0.4951536095375246  0.9991674516507487  0.6247504481262425
  0.3240802980177619  0.1759266528249839  0.8679547420969200
  0.1514609204365485  0.6631288668360327  0.1253295272470893
  0.4954606512580710  0.3309112273622574  0.1246182372201261
  0.3306699871969840  0.5071904008096766  0.3780206167419919
  0.1739532776179615  0.6726584966117457  0.6285237495462255
  0.8395490556539187  0.0033027275106221  0.1273086739878977
  0.6835870272040481  0.1698682100676194  0.3798581088669053
  0.5027142454534541  0.3240449350211350  0.6238800522751262
  0.3271415199972836  0.4900417990588934  0.8741388317638368
  0.8321850689548640  0.0134848864562045  0.6189025249152849
  0.6727797193139935  0.1663262101761447  0.8705893957869861
  0.5023888713355973  0.6651284946712863  0.1236877343060172
  0.3321966992570111  0.8350385405494265  0.3741679769993524
  0.8427179197023378  0.3256477486993745  0.1290637543314475
  0.6700277767376122  0.4931664346179616  0.3825937084779483
  0.4973264865088680  0.6773828181357473  0.6202697517619171
  0.3175501890062691  0.8373513723864789  0.8671838629236390
  0.9962088911718610  0.1740147356831727  0.3751886739141668
  0.8322764336288486  0.3146083942061892  0.6197030445890732
  0.6646580507911111  0.4974982489881441  0.8733840234923420
  0.0046462529832851  0.1641299624952026  0.8762814526773326
  0.8443848294130660  0.6666452661498212  0.1274332458860883
  0.6630164939991161  0.8279987425990853  0.3790890141127363
  0.9987819267684230  0.4912030966921108  0.3757499685517942
  0.8300672122680268  0.6742694620823926  0.6255319499108083
  0.6738238823420915  0.8338901728001673  0.8702660449210526
  0.0102332729718810  0.5011332044033168  0.8779436739842481
  0.9997402847352603  0.8355204870863062  0.3746011679938519
  0.0117501700871969  0.8333603382865320  0.8756725430519907
  0.0823973440697046  0.0140319143101593  0.2433720729020337
  0.0816977570271433  0.9977979180573442  0.7616498960454834
  0.0812387108969759  0.3231654996508695  0.2458658432565528
  0.4109768088316201  0.0008254730523518  0.2553945891078584
  0.2551762807769862  0.1631772919792311  0.5253795271827713
  0.0864153156738610  0.3347284024414279  0.7652127496958272
  0.4157756545467137  0.0042980721347163  0.7368660547519283
  0.2474162686411177  0.1783318009705255  0.9832833764224418
  0.0848050846567006  0.6626201847092474  0.2434742682401918
  0.4151826066142661  0.3296656085149792  0.2432501951339532
  0.2478698608791490  0.5040888987456853  0.5081947498070036
  0.0837727448469607  0.6736631037151284  0.7628748647153003
  0.7556964029255653  0.0060847465415321  0.2539490244627416
  0.5838466059181258  0.1692651756944699  0.5009745010926281
  0.4141190902541041  0.3160198847514764  0.7540181603727021
  0.2479524366430610  0.4895561351702895  0.9925121572800748
  0.7530202796436711  0.9945042138571480  0.7465755491636301
  0.5826819052420191  0.1622817532062300  0.0021900015995513
  0.4115306422517264  0.6709782965070588  0.2603618470472995
  0.2560016421784255  0.8315804279836030  0.5276756804362392
  0.7524067037786821  0.3276691361606225  0.2658148694064195
  0.5887037271973767  0.4994771419494057  0.5070043255260543
  0.4157421717122034  0.6833419167474375  0.7412896418407868
  0.2521258620358182  0.8341581529898718  0.9638086416702052
  0.9148117125598958  0.1725560869743816  0.4893726049101943
  0.7528400334861658  0.3273741826528891  0.7422485303788875
  0.5840253109765996  0.5024737821038414  0.9938442472584157
  0.9171340888191111  0.1655465872478104  0.0138253750391613
  0.7498609826941376  0.6639001553463686  0.2644982480832994
  0.5846352293576018  0.8296024330000336  0.5000233852852602
  0.9184252044226966  0.4868637201700494  0.4963944704239083
  0.7484701796603872  0.6780003529023588  0.7398646609100439
  0.5818742357193827  0.8322621928448939  0.9839868857868339
  0.9194081481516747  0.4879687506316372  0.0023025908850656
  0.9135888815528546  0.8396556962526276  0.5082162587603634
  0.9184668568063330  0.8473395457172543  0.9881424379028800
  0.0015930984318402  0.1729340361956702  0.1241710474713074
  0.0046021929340938  0.1725211151123602  0.6278558583212828
  0.9992021336317407  0.5058953545014049  0.1256211548587842
  0.3220118927068327  0.1744032154645794  0.1253490978631007
  0.1596837905164818  0.3222455823258770  0.3760373236249208
  0.0104205424335362  0.4918041924112160  0.6277417793624593
  0.3181079254074461  0.1603620250840052  0.6208495326903929
  0.1630323464186674  0.3291861667060232  0.8659699250550901
  0.0007931094403517  0.8219963279040670  0.1211451891878639
  0.3310162210720478  0.4903829817450145  0.1276383545812863
  0.1753425777026365  0.6616913893757328  0.3784639138885382
  0.0108412880223767  0.8393048658646549  0.6298464823347558
  0.6774916482908182  0.1673968685485789  0.1336534454026364
  0.5069143331211663  0.3284094654560974  0.3801182687768616
  0.3243950755677432  0.5074205720272431  0.6200749356661532
  0.1542037463695962  0.6741946161894816  0.8714878027207575
  0.6721103937495272  0.1685311610446476  0.6291512444515206
  0.4944772983918568  0.3281639152740183  0.8758041510875358
  0.3275369009061464  0.8368779521818084  0.1222276655682535
  0.1722854214963832  0.0153603552414268  0.3825791713203799
  0.6685142751855579  0.4985566523772960  0.1287731109790755
  0.4984033164596156  0.6716955810922229  0.3781600319682568
  0.3230443629747271  0.8358461916682103  0.6226214001911075
  0.1529349613449824  0.9987833467182199  0.8691263587213243
  0.8337725877617359  0.3237341074019255  0.3734734883407640
  0.6664557235954618  0.4929877469963131  0.6231314501889642
  0.5000735305747881  0.6650993671921555  0.8737538178439763
  0.8448140936009025  0.3190308056334104  0.8753650096434313
  0.6684569020727693  0.8321844422095168  0.1254996255878282
  0.4948777504653705  0.9985291160067717  0.3759570336589277
  0.8260441300500219  0.6652949630211751  0.3771140267966331
  0.6607545276355467  0.8360726272947900  0.6235762146830908
  0.4969097518598744  0.0051574318638572  0.8736285549398346
  0.8407402141817428  0.6727343486635533  0.8742429626967834
  0.8310873887278944  0.0086717785881731  0.3712314392467064
  0.8437763801922458  0.0059017084248580  0.8751552091831982
  0.0103861698533123  0.0857299757932495  0.2446165355283512
  0.9985574208803740  0.0884002200712217  0.7626828931526290
  0.9994903481332713  0.4129167873880704  0.2485844557437176
  0.3201869127529164  0.0867915214714614  0.2678196271017583
  0.1587595186796520  0.2558879543907224  0.5200632337008742
  0.0113832339793802  0.4155239426235511  0.7486525879986488
  0.3391734168782676  0.0842858467553640  0.7387612953060483
  0.1668478655088208  0.2504172162477545  0.9939210296030794
  0.9958767255825336  0.7483387855207724  0.2359707661978874
  0.3268309612078113  0.4118574914432500  0.2379259551064408
  0.1709834361562201  0.5849133082653637  0.5043513308097545
  0.9827249335221495  0.7523082552628892  0.7636249882596289
  0.6671443737317517  0.0852372502756538  0.2495891440542053
  0.5015637459115396  0.2495217396449547  0.5081990896016109
  0.3190199696233122  0.4132646938177942  0.7591717431977898
  0.1566801004092611  0.5844734290819886  0.9946310196272634
  0.6714168817932844  0.0893438765774235  0.7454963032682755
  0.4913961329846828  0.2505570149342589  0.9921492047755152
  0.3362393997934845  0.7478158809000917  0.2597880607381313
  0.1652163967359996  0.9191431271401171  0.5020722079568571
  0.6708437327108072  0.4150539059799812  0.2677286745308365
  0.4989396000857766  0.5887930818614890  0.5051472094396274
  0.3505984596431020  0.7508456440050040  0.7473934908459512
  0.1631250051358322  0.9173129305614225  0.0002539198106604
  0.8392013311653201  0.2492244490445401  0.5171906193645057
  0.6703094833090830  0.4153028334239934  0.7367067666086058
  0.5038433123445998  0.5842703217716689  0.9965061093291396
  0.8442846295464363  0.2498847496360810  0.9876221298967209
  0.6648671695906714  0.7489322880046743  0.2571260285985986
  0.4875205497583934  0.9148279387351437  0.5052673375840087
  0.8246174669939634  0.5839535447045066  0.5022160970911713
  0.6649072319085363  0.7447500103163875  0.7445802439531093
  0.4909962797190772  0.9157903406206529  0.9815200575277103
  0.8421769369260446  0.5821391889937360  0.9981462079863590
  0.8384128559682722  0.9135830185980609  0.5100679270895725
  0.8530510311326012  0.9147583021860655  0.9923126407312139
 
  0.00000000E+00  0.00000000E+00  0.00000000E+00
  0.00000000E+00  0.00000000E+00  0.00000000E+00
  0.00000000E+00  0.00000000E+00  0.00000000E+00
  0.00000000E+00  0.00000000E+00  0.00000000E+00
  0.00000000E+00  0.00000000E+00  0.00000000E+00
  0.00000000E+00  0.00000000E+00  0.00000000E+00
  0.00000000E+00  0.00000000E+00  0.00000000E+00
  0.00000000E+00  0.00000000E+00  0.00000000E+00
  0.00000000E+00  0.00000000E+00  0.00000000E+00
  0.00000000E+00  0.00000000E+00  0.00000000E+00
  0.00000000E+00  0.00000000E+00  0.00000000E+00
  0.00000000E+00  0.00000000E+00  0.00000000E+00
  0.00000000E+00  0.00000000E+00  0.00000000E+00
  0.00000000E+00  0.00000000E+00  0.00000000E+00
  0.00000000E+00  0.00000000E+00  0.00000000E+00
  0.00000000E+00  0.00000000E+00  0.00000000E+00
  0.00000000E+00  0.00000000E+00  0.00000000E+00
  0.00000000E+00  0.00000000E+00  0.00000000E+00
  0.00000000E+00  0.00000000E+00  0.00000000E+00
  0.00000000E+00  0.00000000E+00  0.00000000E+00
  0.00000000E+00  0.00000000E+00  0.00000000E+00
  0.00000000E+00  0.00000000E+00  0.00000000E+00
  0.00000000E+00  0.00000000E+00  0.00000000E+00
  0.00000000E+00  0.00000000E+00  0.00000000E+00
  0.00000000E+00  0.00000000E+00  0.00000000E+00
  0.00000000E+00  0.00000000E+00  0.00000000E+00
  0.00000000E+00  0.00000000E+00  0.00000000E+00
  0.00000000E+00  0.00000000E+00  0.00000000E+00
  0.00000000E+00  0.00000000E+00  0.00000000E+00
  0.00000000E+00  0.00000000E+00  0.00000000E+00
  0.00000000E+00  0.00000000E+00  0.00000000E+00
  0.00000000E+00  0.00000000E+00  0.00000000E+00
  0.00000000E+00  0.00000000E+00  0.00000000E+00
  0.00000000E+00  0.00000000E+00  0.00000000E+00
  0.00000000E+00  0.00000000E+00  0.00000000E+00
  0.00000000E+00  0.00000000E+00  0.00000000E+00
  0.00000000E+00  0.00000000E+00  0.00000000E+00
  0.00000000E+00  0.00000000E+00  0.00000000E+00
  0.00000000E+00  0.00000000E+00  0.00000000E+00
  0.00000000E+00  0.00000000E+00  0.00000000E+00
  0.00000000E+00  0.00000000E+00  0.00000000E+00
  0.00000000E+00  0.00000000E+00  0.00000000E+00
  0.00000000E+00  0.00000000E+00  0.00000000E+00
  0.00000000E+00  0.00000000E+00  0.00000000E+00
  0.00000000E+00  0.00000000E+00  0.00000000E+00
  0.00000000E+00  0.00000000E+00  0.00000000E+00
  0.00000000E+00  0.00000000E+00  0.00000000E+00
  0.00000000E+00  0.00000000E+00  0.00000000E+00
  0.00000000E+00  0.00000000E+00  0.00000000E+00
  0.00000000E+00  0.00000000E+00  0.00000000E+00
  0.00000000E+00  0.00000000E+00  0.00000000E+00
  0.00000000E+00  0.00000000E+00  0.00000000E+00
  0.00000000E+00  0.00000000E+00  0.00000000E+00
  0.00000000E+00  0.00000000E+00  0.00000000E+00
  0.00000000E+00  0.00000000E+00  0.00000000E+00
  0.00000000E+00  0.00000000E+00  0.00000000E+00
  0.00000000E+00  0.00000000E+00  0.00000000E+00
  0.00000000E+00  0.00000000E+00  0.00000000E+00
  0.00000000E+00  0.00000000E+00  0.00000000E+00
  0.00000000E+00  0.00000000E+00  0.00000000E+00
  0.00000000E+00  0.00000000E+00  0.00000000E+00
  0.00000000E+00  0.00000000E+00  0.00000000E+00
  0.00000000E+00  0.00000000E+00  0.00000000E+00
  0.00000000E+00  0.00000000E+00  0.00000000E+00
  0.00000000E+00  0.00000000E+00  0.00000000E+00
  0.00000000E+00  0.00000000E+00  0.00000000E+00
  0.00000000E+00  0.00000000E+00  0.00000000E+00
  0.00000000E+00  0.00000000E+00  0.00000000E+00
  0.00000000E+00  0.00000000E+00  0.00000000E+00
  0.00000000E+00  0.00000000E+00  0.00000000E+00
  0.00000000E+00  0.00000000E+00  0.00000000E+00
  0.00000000E+00  0.00000000E+00  0.00000000E+00
  0.00000000E+00  0.00000000E+00  0.00000000E+00
  0.00000000E+00  0.00000000E+00  0.00000000E+00
  0.00000000E+00  0.00000000E+00  0.00000000E+00
  0.00000000E+00  0.00000000E+00  0.00000000E+00
  0.00000000E+00  0.00000000E+00  0.00000000E+00
  0.00000000E+00  0.00000000E+00  0.00000000E+00
  0.00000000E+00  0.00000000E+00  0.00000000E+00
  0.00000000E+00  0.00000000E+00  0.00000000E+00
  0.00000000E+00  0.00000000E+00  0.00000000E+00
  0.00000000E+00  0.00000000E+00  0.00000000E+00
  0.00000000E+00  0.00000000E+00  0.00000000E+00
  0.00000000E+00  0.00000000E+00  0.00000000E+00
  0.00000000E+00  0.00000000E+00  0.00000000E+00
  0.00000000E+00  0.00000000E+00  0.00000000E+00
  0.00000000E+00  0.00000000E+00  0.00000000E+00
  0.00000000E+00  0.00000000E+00  0.00000000E+00
  0.00000000E+00  0.00000000E+00  0.00000000E+00
  0.00000000E+00  0.00000000E+00  0.00000000E+00
  0.00000000E+00  0.00000000E+00  0.00000000E+00
  0.00000000E+00  0.00000000E+00  0.00000000E+00
  0.00000000E+00  0.00000000E+00  0.00000000E+00
  0.00000000E+00  0.00000000E+00  0.00000000E+00
  0.00000000E+00  0.00000000E+00  0.00000000E+00
  0.00000000E+00  0.00000000E+00  0.00000000E+00
  0.00000000E+00  0.00000000E+00  0.00000000E+00
  0.00000000E+00  0.00000000E+00  0.00000000E+00
  0.00000000E+00  0.00000000E+00  0.00000000E+00
  0.00000000E+00  0.00000000E+00  0.00000000E+00
  0.00000000E+00  0.00000000E+00  0.00000000E+00
  0.00000000E+00  0.00000000E+00  0.00000000E+00
  0.00000000E+00  0.00000000E+00  0.00000000E+00
  0.00000000E+00  0.00000000E+00  0.00000000E+00
  0.00000000E+00  0.00000000E+00  0.00000000E+00
  0.00000000E+00  0.00000000E+00  0.00000000E+00
  0.00000000E+00  0.00000000E+00  0.00000000E+00
  0.00000000E+00  0.00000000E+00  0.00000000E+00
  0.00000000E+00  0.00000000E+00  0.00000000E+00
  0.00000000E+00  0.00000000E+00  0.00000000E+00
  0.00000000E+00  0.00000000E+00  0.00000000E+00
  0.00000000E+00  0.00000000E+00  0.00000000E+00
  0.00000000E+00  0.00000000E+00  0.00000000E+00
  0.00000000E+00  0.00000000E+00  0.00000000E+00
  0.00000000E+00  0.00000000E+00  0.00000000E+00
  0.00000000E+00  0.00000000E+00  0.00000000E+00
  0.00000000E+00  0.00000000E+00  0.00000000E+00
  0.00000000E+00  0.00000000E+00  0.00000000E+00
  0.00000000E+00  0.00000000E+00  0.00000000E+00
  0.00000000E+00  0.00000000E+00  0.00000000E+00
  0.00000000E+00  0.00000000E+00  0.00000000E+00
  0.00000000E+00  0.00000000E+00  0.00000000E+00
  0.00000000E+00  0.00000000E+00  0.00000000E+00
  0.00000000E+00  0.00000000E+00  0.00000000E+00
  0.00000000E+00  0.00000000E+00  0.00000000E+00
  0.00000000E+00  0.00000000E+00  0.00000000E+00
  0.00000000E+00  0.00000000E+00  0.00000000E+00
  0.00000000E+00  0.00000000E+00  0.00000000E+00
  0.00000000E+00  0.00000000E+00  0.00000000E+00
  0.00000000E+00  0.00000000E+00  0.00000000E+00
  0.00000000E+00  0.00000000E+00  0.00000000E+00
  0.00000000E+00  0.00000000E+00  0.00000000E+00
  0.00000000E+00  0.00000000E+00  0.00000000E+00
  0.00000000E+00  0.00000000E+00  0.00000000E+00
  0.00000000E+00  0.00000000E+00  0.00000000E+00
  0.00000000E+00  0.00000000E+00  0.00000000E+00
  0.00000000E+00  0.00000000E+00  0.00000000E+00
  0.00000000E+00  0.00000000E+00  0.00000000E+00
  0.00000000E+00  0.00000000E+00  0.00000000E+00
  0.00000000E+00  0.00000000E+00  0.00000000E+00
  0.00000000E+00  0.00000000E+00  0.00000000E+00
  0.00000000E+00  0.00000000E+00  0.00000000E+00
  0.00000000E+00  0.00000000E+00  0.00000000E+00
  0.00000000E+00  0.00000000E+00  0.00000000E+00
  0.00000000E+00  0.00000000E+00  0.00000000E+00
  0.00000000E+00  0.00000000E+00  0.00000000E+00
  0.00000000E+00  0.00000000E+00  0.00000000E+00
  0.00000000E+00  0.00000000E+00  0.00000000E+00
  0.00000000E+00  0.00000000E+00  0.00000000E+00
  0.00000000E+00  0.00000000E+00  0.00000000E+00
  0.00000000E+00  0.00000000E+00  0.00000000E+00
  0.00000000E+00  0.00000000E+00  0.00000000E+00
  0.00000000E+00  0.00000000E+00  0.00000000E+00
  0.00000000E+00  0.00000000E+00  0.00000000E+00
  0.00000000E+00  0.00000000E+00  0.00000000E+00
  0.00000000E+00  0.00000000E+00  0.00000000E+00
  0.00000000E+00  0.00000000E+00  0.00000000E+00
  0.00000000E+00  0.00000000E+00  0.00000000E+00
  0.00000000E+00  0.00000000E+00  0.00000000E+00
  0.00000000E+00  0.00000000E+00  0.00000000E+00
  0.00000000E+00  0.00000000E+00  0.00000000E+00
  0.00000000E+00  0.00000000E+00  0.00000000E+00
  0.00000000E+00  0.00000000E+00  0.00000000E+00
  0.00000000E+00  0.00000000E+00  0.00000000E+00
  0.00000000E+00  0.00000000E+00  0.00000000E+00
  0.00000000E+00  0.00000000E+00  0.00000000E+00
  0.00000000E+00  0.00000000E+00  0.00000000E+00
  0.00000000E+00  0.00000000E+00  0.00000000E+00
  0.00000000E+00  0.00000000E+00  0.00000000E+00
  0.00000000E+00  0.00000000E+00  0.00000000E+00
  0.00000000E+00  0.00000000E+00  0.00000000E+00
  0.00000000E+00  0.00000000E+00  0.00000000E+00
  0.00000000E+00  0.00000000E+00  0.00000000E+00
  0.00000000E+00  0.00000000E+00  0.00000000E+00
  0.00000000E+00  0.00000000E+00  0.00000000E+00
  0.00000000E+00  0.00000000E+00  0.00000000E+00
  0.00000000E+00  0.00000000E+00  0.00000000E+00
  0.00000000E+00  0.00000000E+00  0.00000000E+00
  0.00000000E+00  0.00000000E+00  0.00000000E+00
  0.00000000E+00  0.00000000E+00  0.00000000E+00
  0.00000000E+00  0.00000000E+00  0.00000000E+00
  0.00000000E+00  0.00000000E+00  0.00000000E+00
  0.00000000E+00  0.00000000E+00  0.00000000E+00
  0.00000000E+00  0.00000000E+00  0.00000000E+00
  0.00000000E+00  0.00000000E+00  0.00000000E+00
  0.00000000E+00  0.00000000E+00  0.00000000E+00
  0.00000000E+00  0.00000000E+00  0.00000000E+00
  0.00000000E+00  0.00000000E+00  0.00000000E+00
  0.00000000E+00  0.00000000E+00  0.00000000E+00
  0.00000000E+00  0.00000000E+00  0.00000000E+00
  0.00000000E+00  0.00000000E+00  0.00000000E+00
  0.00000000E+00  0.00000000E+00  0.00000000E+00
  0.00000000E+00  0.00000000E+00  0.00000000E+00
  0.00000000E+00  0.00000000E+00  0.00000000E+00
  0.00000000E+00  0.00000000E+00  0.00000000E+00
  0.00000000E+00  0.00000000E+00  0.00000000E+00
  0.00000000E+00  0.00000000E+00  0.00000000E+00
  0.00000000E+00  0.00000000E+00  0.00000000E+00
  0.00000000E+00  0.00000000E+00  0.00000000E+00
  0.00000000E+00  0.00000000E+00  0.00000000E+00
  0.00000000E+00  0.00000000E+00  0.00000000E+00
  0.00000000E+00  0.00000000E+00  0.00000000E+00
  0.00000000E+00  0.00000000E+00  0.00000000E+00
  0.00000000E+00  0.00000000E+00  0.00000000E+00
  0.00000000E+00  0.00000000E+00  0.00000000E+00
  0.00000000E+00  0.00000000E+00  0.00000000E+00
  0.00000000E+00  0.00000000E+00  0.00000000E+00
  0.00000000E+00  0.00000000E+00  0.00000000E+00
  0.00000000E+00  0.00000000E+00  0.00000000E+00
  0.00000000E+00  0.00000000E+00  0.00000000E+00
  0.00000000E+00  0.00000000E+00  0.00000000E+00
  0.00000000E+00  0.00000000E+00  0.00000000E+00
  0.00000000E+00  0.00000000E+00  0.00000000E+00
  0.00000000E+00  0.00000000E+00  0.00000000E+00
  0.00000000E+00  0.00000000E+00  0.00000000E+00
  0.00000000E+00  0.00000000E+00  0.00000000E+00
  0.00000000E+00  0.00000000E+00  0.00000000E+00
  0.00000000E+00  0.00000000E+00  0.00000000E+00
  0.00000000E+00  0.00000000E+00  0.00000000E+00
  0.00000000E+00  0.00000000E+00  0.00000000E+00
  0.00000000E+00  0.00000000E+00  0.00000000E+00
  0.00000000E+00  0.00000000E+00  0.00000000E+00
  0.00000000E+00  0.00000000E+00  0.00000000E+00
  0.00000000E+00  0.00000000E+00  0.00000000E+00
  0.00000000E+00  0.00000000E+00  0.00000000E+00
  0.00000000E+00  0.00000000E+00  0.00000000E+00
  0.00000000E+00  0.00000000E+00  0.00000000E+00
  0.00000000E+00  0.00000000E+00  0.00000000E+00
  0.00000000E+00  0.00000000E+00  0.00000000E+00
  0.00000000E+00  0.00000000E+00  0.00000000E+00
  0.00000000E+00  0.00000000E+00  0.00000000E+00
  0.00000000E+00  0.00000000E+00  0.00000000E+00
  0.00000000E+00  0.00000000E+00  0.00000000E+00
  0.00000000E+00  0.00000000E+00  0.00000000E+00
  0.00000000E+00  0.00000000E+00  0.00000000E+00
  0.00000000E+00  0.00000000E+00  0.00000000E+00
  0.00000000E+00  0.00000000E+00  0.00000000E+00
  0.00000000E+00  0.00000000E+00  0.00000000E+00
  0.00000000E+00  0.00000000E+00  0.00000000E+00
  0.00000000E+00  0.00000000E+00  0.00000000E+00
  0.00000000E+00  0.00000000E+00  0.00000000E+00
  0.00000000E+00  0.00000000E+00  0.00000000E+00
  0.00000000E+00  0.00000000E+00  0.00000000E+00
  0.00000000E+00  0.00000000E+00  0.00000000E+00
  0.00000000E+00  0.00000000E+00  0.00000000E+00
  0.00000000E+00  0.00000000E+00  0.00000000E+00
  0.00000000E+00  0.00000000E+00  0.00000000E+00
  0.00000000E+00  0.00000000E+00  0.00000000E+00
  0.00000000E+00  0.00000000E+00  0.00000000E+00
  0.00000000E+00  0.00000000E+00  0.00000000E+00
  0.00000000E+00  0.00000000E+00  0.00000000E+00
  0.00000000E+00  0.00000000E+00  0.00000000E+00
