       N       E                     dE             d eps       ncg     rms          rms(c)
DAV:   1     0.144791012866E+05    0.14479E+05   -0.26868E+05138320   0.254E+03
DAV:   2     0.272118178953E+04   -0.11758E+05   -0.10982E+05137760   0.824E+02
DAV:   3    -0.199384938757E+03   -0.29206E+04   -0.26645E+04168848   0.426E+02
DAV:   4    -0.657225017221E+03   -0.45784E+03   -0.43525E+03233248   0.235E+02
DAV:   5    -0.689440264892E+03   -0.32215E+02   -0.31036E+02231768   0.741E+01
DAV:   6    -0.691784842172E+03   -0.23446E+01   -0.22849E+01237824   0.169E+01
DAV:   7    -0.691962138979E+03   -0.17730E+00   -0.17479E+00234448   0.464E+00
DAV:   8    -0.691980471296E+03   -0.18332E-01   -0.18188E-01252792   0.136E+00
DAV:   9    -0.691982082984E+03   -0.16117E-02   -0.16052E-02243312   0.404E-01
DAV:  10    -0.691982257949E+03   -0.17497E-03   -0.17465E-03255384   0.115E-01
DAV:  11    -0.691982271753E+03   -0.13804E-04   -0.13802E-04236136   0.284E-02
DAV:  12    -0.691982273212E+03   -0.14583E-05   -0.14607E-05191952   0.767E-03
DAV:  13    -0.691982273366E+03   -0.15483E-06   -0.15527E-06147344   0.267E-03
DAV:  14    -0.691982273384E+03   -0.18037E-07   -0.18410E-07139056   0.126E-03
   1 F= -.69198227E+03 E0= -.69198227E+03  d E =0.000000E+00
