all                                     
           1
    10.029633   -0.012520   -0.003783
    -0.012536   10.016459   -0.000908
    -0.002571   -0.000599    6.647527
   Mg   Na   Ca   Zr   H 
   9   9   9   9 216
Direct configuration=     1
   0.16577482  0.17271434  0.25064216
   0.16553430  0.83812291  0.74483255
   0.83850924  0.16535349  0.25165608
   0.66976071  0.32830821  0.50294029
   0.50256591  0.83757441  0.74342462
   0.00541933  0.32974447  0.00015368
   0.83147322  0.83800215  0.74609925
   0.99907493  0.66583029  0.99782568
   0.00308318  0.00512204  0.99939735
   0.16209338  0.16378853  0.75149871
   0.16736507  0.50331144  0.75084367
   0.50478129  0.16510531  0.74893068
   0.32988467  0.33119302  0.99837867
   0.33393079  0.67094891  0.50336852
   0.83712814  0.16346917  0.75299046
   0.33112744  0.99884109  0.50100710
   0.66342618  0.66649113  0.50240763
   0.00010809  0.33043012  0.50169470
   0.16261672  0.49162241  0.24923021
   0.49522887  0.16481584  0.25376063
   0.32836379  0.33110589  0.50178198
   0.49820203  0.83534546  0.24573997
   0.83576887  0.49609448  0.25146115
   0.67284447  0.66764524  0.99888588
   0.83393658  0.83549568  0.25119320
   0.66453993  0.00096548  0.50120033
   0.00059004  0.00744406  0.50100439
   0.16517052  0.83512582  0.25225000
   0.50022671  0.49867547  0.25716777
   0.49361211  0.49842935  0.74321518
   0.32802742  0.66237157  0.99954113
   0.66947422  0.33090264  0.99951152
   0.32687788  0.01127768  0.99157682
   0.84186913  0.49645235  0.75022278
   0.00039810  0.66485102  0.50317630
   0.67255247  0.99760454  0.99448653
   0.15955181  0.08605454  0.00751709
   0.16669789  0.08595971  0.48651138
   0.16467695  0.41787683  0.99152358
   0.49938811  0.08907767  0.99160897
   0.32733722  0.25021381  0.24030002
   0.15770650  0.41883814  0.51094894
   0.48795714  0.08758334  0.51123340
   0.33990632  0.25146499  0.75682498
   0.16482041  0.75151615  0.99579720
   0.48982240  0.41339459  0.99759098
   0.32831539  0.58311586  0.26222613
   0.17014111  0.74883611  0.50572834
   0.84369515  0.08576670  0.99317326
   0.66406699  0.24876765  0.25415980
   0.50152175  0.41198672  0.50262331
   0.32975508  0.58538599  0.73961706
   0.83448586  0.08297326  0.52054477
   0.67109907  0.24919182  0.74086207
   0.49838109  0.75038909  0.98245937
   0.32998333  0.91977608  0.25597909
   0.85018824  0.41258514  0.00302078
   0.66885475  0.58596386  0.25818117
   0.49947233  0.74780863  0.50600218
   0.34723099  0.91622165  0.74720373
   0.00224436  0.24864578  0.24970084
   0.84088079  0.41454011  0.50120020
   0.66857148  0.58577100  0.74257484
   0.99687829  0.25028463  0.74887099
   0.84179169  0.75107739  0.98661066
   0.66808765  0.91593807  0.25248721
   0.00069401  0.58084764  0.23251713
   0.82640949  0.74803898  0.51185220
   0.66635714  0.91093139  0.73986913
   0.00476187  0.58384138  0.76662211
   0.00151042  0.91794374  0.23820227
   0.98959291  0.91725228  0.74856608
   0.08044716  0.17276713  0.99954543
   0.08348275  0.17226690  0.50266456
   0.08595073  0.48895670  0.98848865
   0.41985648  0.17356386  0.99011704
   0.25147855  0.33041932  0.24182871
   0.08816897  0.48750394  0.51249328
   0.41987213  0.15929106  0.51207704
   0.24891055  0.33730117  0.75967638
   0.07969975  0.83642449  0.97337317
   0.41573763  0.49025590  0.99894471
   0.24856462  0.66095149  0.26279925
   0.08194795  0.83832852  0.52007494
   0.75488872  0.16532301  0.01362616
   0.58421990  0.32668690  0.26485709
   0.40921528  0.50424024  0.49975469
   0.24801388  0.67211469  0.74180821
   0.75006440  0.16937402  0.48512364
   0.58385667  0.32836415  0.73991844
   0.41899941  0.83907574  0.98276871
   0.24802303  0.00557033  0.25436534
   0.75059759  0.49797753  0.00013112
   0.58424134  0.66900076  0.25374601
   0.41817929  0.84078585  0.50602327
   0.24707773  0.00248900  0.73333186
   0.91552958  0.32153819  0.25309662
   0.75021926  0.50314715  0.50280966
   0.58529979  0.67992160  0.74910706
   0.92317570  0.31940858  0.75421319
   0.75576861  0.83238027  0.98956211
   0.57945925  0.00178957  0.24769206
   0.91576729  0.66835714  0.24277317
   0.74807801  0.82807183  0.50788289
   0.57984508  0.99689844  0.75012074
   0.91633778  0.68040394  0.76113272
   0.91951322  0.00842366  0.23100937
   0.91997176  0.99352738  0.76240274
   0.15861595  0.00646850  0.12631509
   0.17504473  0.00028432  0.62674611
   0.16446020  0.32639275  0.12000541
   0.50125770  0.00105217  0.12322758
   0.32056424  0.15997269  0.37455484
   0.16050217  0.32208516  0.62575028
   0.49515361  0.99916745  0.62475045
   0.32408030  0.17592665  0.86795474
   0.15146092  0.66312887  0.12532953
   0.49546065  0.33091123  0.12461824
   0.33066999  0.50719040  0.37802062
   0.17395328  0.67265850  0.62852375
   0.83954906  0.00330273  0.12730867
   0.68358703  0.16986821  0.37985811
   0.50271425  0.32404494  0.62388005
   0.32714152  0.49004180  0.87413883
   0.83218507  0.01348489  0.61890252
   0.67277972  0.16632621  0.87058940
   0.50238887  0.66512849  0.12368773
   0.33219670  0.83503854  0.37416798
   0.84271792  0.32564775  0.12906375
   0.67002778  0.49316643  0.38259371
   0.49732649  0.67738282  0.62026975
   0.31755019  0.83735137  0.86718386
   0.99620889  0.17401474  0.37518867
   0.83227643  0.31460839  0.61970304
   0.66465805  0.49749825  0.87338402
   0.00464625  0.16412996  0.87628145
   0.84438483  0.66664527  0.12743325
   0.66301649  0.82799874  0.37908901
   0.99878193  0.49120310  0.37574997
   0.83006721  0.67426946  0.62553195
   0.67382388  0.83389017  0.87026604
   0.01023327  0.50113320  0.87794367
   0.99974028  0.83552049  0.37460117
   0.01175017  0.83336034  0.87567254
   0.08239734  0.01403191  0.24337207
   0.08169776  0.99779792  0.76164990
   0.08123871  0.32316550  0.24586584
   0.41097681  0.00082547  0.25539459
   0.25517628  0.16317729  0.52537953
   0.08641532  0.33472840  0.76521275
   0.41577565  0.00429807  0.73686605
   0.24741627  0.17833180  0.98328338
   0.08480508  0.66262018  0.24347427
   0.41518261  0.32966561  0.24325020
   0.24786986  0.50408890  0.50819475
   0.08377274  0.67366310  0.76287486
   0.75569640  0.00608475  0.25394902
   0.58384661  0.16926518  0.50097450
   0.41411909  0.31601988  0.75401816
   0.24795244  0.48955614  0.99251216
   0.75302028  0.99450421  0.74657555
   0.58268191  0.16228175  0.00219000
   0.41153064  0.67097830  0.26036185
   0.25600164  0.83158043  0.52767568
   0.75240670  0.32766914  0.26581487
   0.58870373  0.49947714  0.50700433
   0.41574217  0.68334192  0.74128964
   0.25212586  0.83415815  0.96380864
   0.91481171  0.17255609  0.48937260
   0.75284003  0.32737418  0.74224853
   0.58402531  0.50247378  0.99384425
   0.91713409  0.16554659  0.01382538
   0.74986098  0.66390016  0.26449825
   0.58463523  0.82960243  0.50002339
   0.91842520  0.48686372  0.49639447
   0.74847018  0.67800035  0.73986466
   0.58187424  0.83226219  0.98398689
   0.91940815  0.48796875  0.00230259
   0.91358888  0.83965570  0.50821626
   0.91846686  0.84733955  0.98814244
   0.00159310  0.17293404  0.12417105
   0.00460219  0.17252112  0.62785586
   0.99920213  0.50589535  0.12562115
   0.32201189  0.17440322  0.12534910
   0.15968379  0.32224558  0.37603732
   0.01042054  0.49180419  0.62774178
   0.31810793  0.16036203  0.62084953
   0.16303235  0.32918617  0.86596993
   0.00079311  0.82199633  0.12114519
   0.33101622  0.49038298  0.12763835
   0.17534258  0.66169139  0.37846391
   0.01084129  0.83930487  0.62984648
   0.67749165  0.16739687  0.13365345
   0.50691433  0.32840947  0.38011827
   0.32439508  0.50742057  0.62007494
   0.15420375  0.67419462  0.87148780
   0.67211039  0.16853116  0.62915124
   0.49447730  0.32816392  0.87580415
   0.32753690  0.83687795  0.12222767
   0.17228542  0.01536036  0.38257917
   0.66851428  0.49855665  0.12877311
   0.49840332  0.67169558  0.37816003
   0.32304436  0.83584619  0.62262140
   0.15293496  0.99878335  0.86912636
   0.83377259  0.32373411  0.37347349
   0.66645572  0.49298775  0.62313145
   0.50007353  0.66509937  0.87375382
   0.84481409  0.31903081  0.87536501
   0.66845690  0.83218444  0.12549963
   0.49487775  0.99852912  0.37595703
   0.82604413  0.66529496  0.37711403
   0.66075453  0.83607263  0.62357621
   0.49690975  0.00515743  0.87362855
   0.84074021  0.67273435  0.87424296
   0.83108739  0.00867178  0.37123144
   0.84377638  0.00590171  0.87515521
   0.01038617  0.08572998  0.24461654
   0.99855742  0.08840022  0.76268289
   0.99949035  0.41291679  0.24858446
   0.32018691  0.08679152  0.26781963
   0.15875952  0.25588795  0.52006323
   0.01138323  0.41552394  0.74865259
   0.33917342  0.08428585  0.73876130
   0.16684787  0.25041722  0.99392103
   0.99587673  0.74833879  0.23597077
   0.32683096  0.41185749  0.23792596
   0.17098344  0.58491331  0.50435133
   0.98272493  0.75230826  0.76362499
   0.66714437  0.08523725  0.24958914
   0.50156375  0.24952174  0.50819909
   0.31901997  0.41326469  0.75917174
   0.15668010  0.58447343  0.99463102
   0.67141688  0.08934388  0.74549630
   0.49139613  0.25055701  0.99214920
   0.33623940  0.74781588  0.25978806
   0.16521640  0.91914313  0.50207221
   0.67084373  0.41505391  0.26772867
   0.49893960  0.58879308  0.50514721
   0.35059846  0.75084564  0.74739349
   0.16312501  0.91731293  0.00025392
   0.83920133  0.24922445  0.51719062
   0.67030948  0.41530283  0.73670677
   0.50384331  0.58427032  0.99650611
   0.84428463  0.24988475  0.98762213
   0.66486717  0.74893229  0.25712603
   0.48752055  0.91482794  0.50526734
   0.82461747  0.58395354  0.50221610
   0.66490723  0.74475001  0.74458024
   0.49099628  0.91579034  0.98152006
   0.84217694  0.58213919  0.99814621
   0.83841286  0.91358302  0.51006793
   0.85305103  0.91475830  0.99231264
