generated by phonopy                    
   1.00000000000000     
     0.0000000000000000    3.2532309238821373    3.2532309238821728
     3.2532309238821511    0.0000000000000000    3.2532309238821728
     3.2532309238821511    3.2532309238821373    0.0000000000000000
   Mg   Hf   Ca   Zr   H 
     1     1     1     1    24
Direct
  0.2500000000000000  0.2500000000000000  0.2500000000000000
  0.7500000000000000  0.7500000000000000  0.7500000000000000
  0.0000000000000000  0.0000000000000000  0.0000000000000000
  0.5000000000000000  0.5000000000000000  0.5000000000000000
  0.1314825068518743  0.8895396095999075  0.6191496342991627
  0.8895396095999075  0.1314825068518743  0.3598282492490554
  0.6191496342991627  0.3598282492490554  0.1314825068518743
  0.3598282492490554  0.6191496342991627  0.8895396095999075
  0.6191496342991627  0.1314825068518743  0.8895396095999075
  0.3598282492490554  0.8895396095999075  0.1314825068518743
  0.1314825068518743  0.6191496342991627  0.3598282492490554
  0.8895396095999075  0.3598282492490554  0.6191496342991627
  0.8895396095999075  0.6191496342991627  0.1314825068518743
  0.1314825068518743  0.3598282492490554  0.8895396095999075
  0.3598282492490554  0.1314825068518743  0.6191496342991627
  0.6191496342991627  0.8895396095999075  0.3598282492490554
  0.1314825068518743  0.3598282492490554  0.6191496342991627
  0.3598282492490554  0.1314825068518743  0.8895396095999075
  0.6191496342991627  0.8895396095999075  0.1314825068518743
  0.8895396095999075  0.6191496342991627  0.3598282492490554
  0.6191496342991627  0.1314825068518743  0.3598282492490554
  0.8895396095999075  0.3598282492490554  0.1314825068518743
  0.1314825068518743  0.6191496342991627  0.8895396095999075
  0.3598282492490554  0.8895396095999075  0.6191496342991627
  0.3598282492490554  0.6191496342991627  0.1314825068518743
  0.1314825068518743  0.8895396095999075  0.3598282492490554
  0.8895396095999075  0.1314825068518743  0.6191496342991627
  0.6191496342991627  0.3598282492490554  0.8895396095999075
 
  0.00000000E+00  0.00000000E+00  0.00000000E+00
  0.00000000E+00  0.00000000E+00  0.00000000E+00
  0.00000000E+00  0.00000000E+00  0.00000000E+00
  0.00000000E+00  0.00000000E+00  0.00000000E+00
  0.00000000E+00  0.00000000E+00  0.00000000E+00
  0.00000000E+00  0.00000000E+00  0.00000000E+00
  0.00000000E+00  0.00000000E+00  0.00000000E+00
  0.00000000E+00  0.00000000E+00  0.00000000E+00
  0.00000000E+00  0.00000000E+00  0.00000000E+00
  0.00000000E+00  0.00000000E+00  0.00000000E+00
  0.00000000E+00  0.00000000E+00  0.00000000E+00
  0.00000000E+00  0.00000000E+00  0.00000000E+00
  0.00000000E+00  0.00000000E+00  0.00000000E+00
  0.00000000E+00  0.00000000E+00  0.00000000E+00
  0.00000000E+00  0.00000000E+00  0.00000000E+00
  0.00000000E+00  0.00000000E+00  0.00000000E+00
  0.00000000E+00  0.00000000E+00  0.00000000E+00
  0.00000000E+00  0.00000000E+00  0.00000000E+00
  0.00000000E+00  0.00000000E+00  0.00000000E+00
  0.00000000E+00  0.00000000E+00  0.00000000E+00
  0.00000000E+00  0.00000000E+00  0.00000000E+00
  0.00000000E+00  0.00000000E+00  0.00000000E+00
  0.00000000E+00  0.00000000E+00  0.00000000E+00
  0.00000000E+00  0.00000000E+00  0.00000000E+00
  0.00000000E+00  0.00000000E+00  0.00000000E+00
  0.00000000E+00  0.00000000E+00  0.00000000E+00
  0.00000000E+00  0.00000000E+00  0.00000000E+00
  0.00000000E+00  0.00000000E+00  0.00000000E+00
