generated by phonopy                    
   1.00000000000000     
     0.0000000000000000    3.2177107090435491    3.2177107090436481
     3.2177107090435877    0.0000000000000000    3.2177107090436481
     3.2177107090435877    3.2177107090435491    0.0000000000000000
   Na   Ca   Mg   Sc   H 
     1     1     1     1    24
Direct
  0.2500000000000000  0.2500000000000000  0.2500000000000000
  0.7500000000000000  0.7500000000000000  0.7500000000000000
  0.0000000000000000  0.0000000000000000  0.0000000000000000
  0.5000000000000000  0.5000000000000000  0.5000000000000000
  0.1245405959222978  0.8891355373083627  0.6211678432866421
  0.8891355373083627  0.1245405959222978  0.3651560234827045
  0.6211678432866421  0.3651560234827045  0.1245405959222978
  0.3651560234827045  0.6211678432866421  0.8891355373083627
  0.6211678432866421  0.1245405959222978  0.8891355373083627
  0.3651560234827045  0.8891355373083627  0.1245405959222978
  0.1245405959222978  0.6211678432866421  0.3651560234827045
  0.8891355373083627  0.3651560234827045  0.6211678432866421
  0.8891355373083627  0.6211678432866421  0.1245405959222978
  0.1245405959222978  0.3651560234827045  0.8891355373083627
  0.3651560234827045  0.1245405959222978  0.6211678432866421
  0.6211678432866421  0.8891355373083627  0.3651560234827045
  0.1245405959222978  0.3651560234827045  0.6211678432866421
  0.3651560234827045  0.1245405959222978  0.8891355373083627
  0.6211678432866421  0.8891355373083627  0.1245405959222978
  0.8891355373083627  0.6211678432866421  0.3651560234827045
  0.6211678432866421  0.1245405959222978  0.3651560234827045
  0.8891355373083627  0.3651560234827045  0.1245405959222978
  0.1245405959222978  0.6211678432866421  0.8891355373083627
  0.3651560234827045  0.8891355373083627  0.6211678432866421
  0.3651560234827045  0.6211678432866421  0.1245405959222978
  0.1245405959222978  0.8891355373083627  0.3651560234827045
  0.8891355373083627  0.1245405959222978  0.6211678432866421
  0.6211678432866421  0.3651560234827045  0.8891355373083627
 
  0.00000000E+00  0.00000000E+00  0.00000000E+00
  0.00000000E+00  0.00000000E+00  0.00000000E+00
  0.00000000E+00  0.00000000E+00  0.00000000E+00
  0.00000000E+00  0.00000000E+00  0.00000000E+00
  0.00000000E+00  0.00000000E+00  0.00000000E+00
  0.00000000E+00  0.00000000E+00  0.00000000E+00
  0.00000000E+00  0.00000000E+00  0.00000000E+00
  0.00000000E+00  0.00000000E+00  0.00000000E+00
  0.00000000E+00  0.00000000E+00  0.00000000E+00
  0.00000000E+00  0.00000000E+00  0.00000000E+00
  0.00000000E+00  0.00000000E+00  0.00000000E+00
  0.00000000E+00  0.00000000E+00  0.00000000E+00
  0.00000000E+00  0.00000000E+00  0.00000000E+00
  0.00000000E+00  0.00000000E+00  0.00000000E+00
  0.00000000E+00  0.00000000E+00  0.00000000E+00
  0.00000000E+00  0.00000000E+00  0.00000000E+00
  0.00000000E+00  0.00000000E+00  0.00000000E+00
  0.00000000E+00  0.00000000E+00  0.00000000E+00
  0.00000000E+00  0.00000000E+00  0.00000000E+00
  0.00000000E+00  0.00000000E+00  0.00000000E+00
  0.00000000E+00  0.00000000E+00  0.00000000E+00
  0.00000000E+00  0.00000000E+00  0.00000000E+00
  0.00000000E+00  0.00000000E+00  0.00000000E+00
  0.00000000E+00  0.00000000E+00  0.00000000E+00
  0.00000000E+00  0.00000000E+00  0.00000000E+00
  0.00000000E+00  0.00000000E+00  0.00000000E+00
  0.00000000E+00  0.00000000E+00  0.00000000E+00
  0.00000000E+00  0.00000000E+00  0.00000000E+00
