POSCAR                                  
   1.00000000000000     
    10.0401202490234205   -0.0125017682598736    0.0041244508243361
    -0.0125150210978422   10.0214432890268466    0.0069642369905100
     0.0027332925005477    0.0046583931370285    6.6355241252016226
   Zr   Na   Mg   Ca   H 
     9     9     9     9   216
Direct
  0.1778685001822230  0.1701556719891579  0.2508487172008448
  0.1674438363323759  0.5034113018952718  0.2444620167509705
  0.8289051032225688  0.1715367637890356  0.2503607179645274
  0.6601513544379889  0.3397548244057111  0.4986813247595908
  0.8303897491361018  0.1679773795115516  0.7512046705949736
  0.3379573672123971  0.0016108402935539  0.9934807334198154
  0.9912850203816747  0.6669761036711425  0.5003797848358233
  0.6608330084785496  0.9964301838277597  0.9997794780218234
  0.0021878623787794  0.9945428936258507  0.0022174721274523
  0.1695209116347435  0.1682087046852732  0.7513356220530959
  0.3339535099592321  0.3347707507005151  0.4969541806932430
  0.4969047354568610  0.1695378697261144  0.7503627953631731
  0.3418376058345061  0.3409035328227651 -0.0004170195885374
  0.6666947463880881  0.3387590181973090 -0.0000309305171652
  0.8266650021417968  0.5028113712331826  0.2508018235141783
  0.6676580042019705  0.6678377164857858  0.5049715730676859
  0.4982750097736823  0.8318613794166499  0.7523382899221804
  0.8307890211285488  0.8266942924518565  0.2461603660815813
  0.4992303706179596  0.1687455491432525  0.2511381906579384
  0.1664902853784877  0.8307276183077966  0.2510963169445962
  0.5077195520444431  0.5022639591321136  0.2504896381705395
  0.3338362084618808  0.6595296014509602  0.9983809156823014
  0.8285198153751884  0.5039101394701826  0.7499513363483686
  0.6690484036675176  0.6611220192237184  0.9990824240225681
  0.9984495789572261  0.3409557590391300  0.9998607665956259
  0.8292450726348835  0.8266517800898431  0.7504905776885598
  0.9977420173480568  0.6629851060521383  0.0009313415640045
  0.1645908252045805  0.4972567111873808  0.7519835752901483
  0.3407197360072528  0.6665548767312575  0.4985245544733108
  0.1642487961183424  0.8332967587402152  0.7490805147815059
  0.4992865493858534  0.4989733698653667  0.7521367627574290
  0.5015053165060462  0.8286370011353555  0.2508056000146608
  0.3355353412323193  0.0013647504010232  0.5025006932229008
  0.0054182237733769  0.3354102873038722  0.5034540091381801
  0.6651791602461004  0.9924688517859231  0.5009246628646437
  0.0004849460073948  0.9993542804959152  0.5007321004135251
  0.1673741136452936  0.0865634581731810  0.9924314268241125
  0.1695652568222225  0.0839372451027313  0.5098395683546476
  0.1695050913877254  0.4091090044818987  0.0000634999700851
  0.5003144315524023  0.0887760592628086  0.9921358204387635
  0.3466936640265091  0.2547721589382442  0.2407254342923160
  0.1752302785863104  0.4157187055471069  0.4936219217026120
  0.5026044888635354  0.0846108823662364  0.5112820863056765
  0.3357620092809279  0.2480620062530022  0.7627295615255631
  0.1753187505702624  0.7523884799041992  0.0076564361788782
  0.5074521717735044  0.4147429707811424  0.0191559316640826
  0.3357094097492103  0.5832078059768010  0.2451746558155283
  0.1718312012823527  0.7521798966461487  0.4925119377594062
  0.8352440479196018  0.0812970662026853  0.9972615903955722
  0.6547340144069420  0.2504062909186924  0.2369289165041933
  0.4962767980546735  0.4158780668501548  0.4869938136193938
  0.3345909580920192  0.5856335427374452  0.7536891588218582
  0.8303471815670912  0.0817858577266927  0.5032310281741144
  0.6583134662223958  0.2513817278799394  0.7627896719789197
  0.5068344186477747  0.7489308287485361  0.9947625339813069
  0.3286468079691914  0.9148653045319411  0.2490309738898628
  0.8347013070816992  0.4153089567819185  0.9903632931937042
  0.6712488601967376  0.5858557049297463  0.2488764296902793
  0.5077620002531238  0.7445852367919985  0.5137532499855535
  0.3371703069518557  0.9139309025137722  0.7484640684255055
  0.0055958381039921  0.2531913622173309  0.2374586976847370
  0.8325294199005586  0.4160196473380265  0.5102436969557950
  0.6705172167462237  0.5832859744451502  0.7505597967660005
  0.0071842823317456  0.2540601642205979  0.7637997444413375
  0.8262353499657856  0.7520714530517885  0.9920472417206061
  0.6723229755377421  0.9130385631599097  0.2496981596330097
  0.9955476751402579  0.5826622320839495  0.2400497237556105
  0.8220215612019374  0.7539631406286170  0.5046133306472396
  0.6656455518458053  0.9107588167158587  0.7521715400905277
  0.9920085588812431  0.5805374943141388  0.7644625448398081
  0.0020759570753078  0.9117140837532651  0.2514168023673526
  0.9888040529715353  0.9122787050398644  0.7487800217410727
  0.0850287305308283  0.1818221388070159  0.9910904856075360
  0.0857197950192587  0.1677635298435446  0.5055783548417019
  0.0806681796650264  0.4993975407914713  0.9991782921975388
  0.4223065092914615  0.1781042920738316  0.0057865951640535
  0.2606779669802728  0.3420501824399009  0.2455984133957146
  0.0825398530834249  0.5041059935628460  0.4984096489747358
  0.4184551113527545  0.1738881758680570  0.4944693830331481
  0.2508806069894440  0.3350973792283170  0.7616434099727057
  0.0844939090728334  0.8209561964216180  0.0084766939249516
  0.4163071228033761  0.5031834828149817  0.0182013517904626
  0.2519095324077864  0.6680219456882823  0.2437712451904593
  0.0824628959222401  0.8299076017135815  0.4913824191018751
  0.7455144264735195  0.1749709837426369  0.0015176182472209
  0.5817781401272553  0.3289411057034268  0.2402373273895323
  0.4139181448341162  0.4937385819902269  0.4806758579486793
  0.2486464439296330  0.6643009402732636  0.7527413901640130
  0.7457540410895814  0.1658500319174792  0.5007491183268521
  0.5813148275369651  0.3307439139921260  0.7657540704797269
  0.4160197200984678  0.8232832027268738  0.9968091969131534
  0.2508223379494499  0.9948234225083736  0.2461792708603053
  0.7512107854461763  0.5077159766222167  0.0075554377191692
  0.5837514714117493  0.6619469048582843  0.2561535937505658
  0.4182995887461565  0.8362964993243447  0.5076921015680271
  0.2475179870034141  0.0046513200931711  0.7524220591053898
  0.9161252236375450  0.3411118082310065  0.2470481373634620
  0.7520557788726135  0.5114608470247315  0.4959094195127972
  0.5850501875045873  0.6706915414991657  0.7563167278490437
  0.9157413814538236  0.3380045269661056  0.7524560412739038
  0.7510390595317367  0.8193087189915083  0.9958188492929991
  0.5800371087453980  0.0065501512909226  0.2533268940622039
  0.9082738655737793  0.6640726923137096  0.2240088056786072
  0.7509402624273410  0.8236938493393378  0.5026320741035742
  0.5813979882527346  0.9971704698139188  0.7494553339192598
  0.9123896132035605  0.6615383442992053  0.7688852607629875
  0.9156856663007547  0.9943442215918168  0.2485130314348406
  0.9147702268088838  0.9981306712064564  0.7548387294071335
  0.1687615436896324  0.9912336866607055  0.1307217564209919
  0.1681136351072611  0.0094624056802449  0.6211139596988353
  0.1710952751854961  0.3370886035409315  0.1190348715543280
  0.4998507966667411  0.0070582483806476  0.1301591563584589
  0.3469640431197343  0.1706468088129152  0.3788089070134414
  0.1762800851525311  0.3243614265959506  0.6246174586532932
  0.5003943183743669  0.0029595508251569  0.6218862485808260
  0.3332677628422861  0.1897719742999580  0.8663190699754247
  0.1615287679024890  0.6714008705686836  0.1225800117804064
  0.5064028887545358  0.3437049073796789  0.1237299663995023
  0.3512044773453940  0.5006779921597280  0.3734175030934032
  0.1694457820192913  0.6652544010425040  0.6254469124662350
  0.8314072738910229  0.9909056486489407  0.1295785776771552
  0.6586529973832104  0.1645790353761198  0.3785472831865020
  0.4827062908139192  0.3267799285585647  0.6305987601435286
  0.3324044680359999  0.5002684924395990  0.8743411142479115
  0.8323809017188196  0.9819224928930606  0.6207002145561041
  0.6583319465671852  0.1802728987632559  0.8737019200358641
  0.5057448228695887  0.6562404528561739  0.1249045555094121
  0.3291228052726742  0.8330651326654228  0.3711263209360365
  0.8260617389348053  0.3433648535808305  0.1269485309435635
  0.6654939711685084  0.5098755332831044  0.3779310042698399
  0.5082867972825025  0.6765295488627727  0.6274387950270606
  0.3350088657203293  0.8148261058911137  0.8735392485172412
  0.0000598736758702  0.1676814565710032  0.3761206427283325
  0.8360368442666631  0.3439409180872864  0.6233018588899957
  0.6677792615616034  0.4974017495080823  0.8731843621720793
  0.0049388467364112  0.1749074522899583  0.8779438189947547
  0.8392431200669340  0.6635925521959746  0.1246257407796578
  0.6716091653887737  0.8237970810544801  0.3739516365836257
  0.9792150987947253  0.4994492803041785  0.3750195998025116
  0.8266769544362175  0.6702365575339878  0.6283642477511243
  0.6634990441336074  0.8248987648329327  0.8743382469838313
  0.9926241423290981  0.5045716802764979  0.8741773250802793
  0.9917596198816587  0.8324867787860148  0.3708070728336691
  0.9943173631726704  0.8173556547269970  0.8745045226559710
  0.0848585116515905  0.0012295561607810  0.2508439658851406
  0.0827086295102103  0.0062977429862552  0.7527306589048223
  0.0808484126185072  0.3290982990275658  0.2374081993278442
  0.4174699074048286  0.0032182175348181  0.2482681921436789
  0.2555334583574882  0.1733647714302312  0.5146313812943747
  0.0808135920771212  0.3271893187854758  0.7684796156349482
  0.4184643059443538  0.0043313044383484  0.7491273600668147
  0.2526435268107023  0.1784424853887844  0.9889423711634809
  0.0820191465883941  0.6728303175015070  0.2340013632845839
  0.4194436686464608  0.3378858418317070  0.2520012689124591
  0.2518847106888929  0.4986529171177509  0.5002304030133458
  0.0825105641194864  0.6651160417812653  0.7682855377085912
  0.7503073299231613  0.9904960688290432  0.2473425920042890
  0.5806939454174422  0.1640702061145559  0.5027441898590752
  0.4169943346428989  0.3313676100359373  0.7339052563167022
  0.2517341010480815  0.4988153491920612  0.9976568578124004
  0.7495757943375876  0.9860034059047421  0.7515561688235061
  0.5820049703318215  0.1739430258547163  0.0011402411647082
  0.4198522171564555  0.6581308767924772  0.2318188278791980
  0.2486770752810886  0.8280404479230095  0.4934818599337837
  0.7486586750467068  0.3454758494664933  0.2342067102675805
  0.5816880362409182  0.5146675871261721  0.4961657555655596
  0.4187129724538748  0.6648618670655767  0.7635917473439715
  0.2492168520813574  0.8267640605376702  0.0015305273453607
  0.9212317682974113  0.1700279104544986  0.4971428738392751
  0.7502201366347829  0.3413626773613690  0.7593164101907098
  0.5830941321252540  0.5041954007846836  0.0031676918576701
  0.9215820539101353  0.1746818912639197  0.0025339052340158
  0.7491627698926407  0.6607024394826094  0.2572099572661114
  0.5868533301733522  0.8254850298823526  0.5160384199079521
  0.9164375107869090  0.4977877916645041  0.4824373301307211
  0.7501693417483968  0.6687711462879217  0.7522514547151248
  0.5789294950126271  0.8113764952090927  0.9885201729605224
  0.9155923104704097  0.5039404684201328  0.0179160540272803
  0.9159111094028168  0.8325786112706208  0.4811421093201496
  0.9137501648320869  0.8220536092481940  0.0072352119037621
  0.9984930120065935  0.1731969190455059  0.1206734310758701
  0.0088336105532974  0.1684451389561762  0.6276327104011612
  0.9758826490163813  0.5078148921790674  0.1199965687194254
  0.3432541376260824  0.1794488742027354  0.1204233400289657
  0.1734158567489708  0.3348763415470221  0.3771901907216111
  0.9911449806716549  0.5015875048173050  0.6289521110313423
  0.3301842449453018  0.1734318505302374  0.6237354175848475
  0.1814369748983670  0.3300652879845556  0.8710403972296519
  0.9935584455166400  0.8199447808407653  0.1249351247698391
  0.3532649391237629  0.5018254913631164  0.1233265276547359
  0.1682829698144528  0.6735194791797974  0.3740616757272198
  0.9875653771894914  0.8331376415543860  0.6285490187373181
  0.6595972211671614  0.1785563187505450  0.1223893722664733
  0.4944338455084036  0.3350288412393838  0.3737909018209224
  0.3322893385127164  0.4949998204048093  0.6214242732599349
  0.1602316155428090  0.6661793215153065  0.8731026723891029
  0.6568694779923523  0.1642478793143914  0.6268131162570550
  0.5062857632663849  0.3290868482424245  0.8782398284722619
  0.3323050092472251  0.8191961823521229  0.1240382092934623
  0.1678771974710527  0.9945533129324798  0.3764379772972626
  0.6674992706520461  0.5007882502527443  0.1264283545218933
  0.5138251207823464  0.6624890446846320  0.3730818997471345
  0.3397257425514557  0.8331803838328760  0.6264036382481706
  0.1705297676281118  0.0049292915583532  0.8684480626755741
  0.8362428290163557  0.3411080040538761  0.3725291273812793
  0.6656542661423869  0.5080007937311815  0.6254976706491568
  0.4914403533612503  0.6625877378897710  0.8758597020920227
  0.8311928559599864  0.3496175917930834  0.8814864395530430
  0.6715103845081665  0.8159877935819783  0.1264210760692464
  0.5014273218538662  0.0019854015831326  0.3751981211407265
  0.8232812319601650  0.6683962251468523  0.3709013881211309
  0.6587839693795687  0.8262701943552364  0.6268373995827943
  0.4995881389045929  0.0041618552468380  0.8641055152471925
  0.8407802242298724  0.6571614694529361  0.8780080594313190
  0.8329491746607554  0.9891670131343294  0.3736300737668696
  0.8318851738779486  0.9865567890655261  0.8728701265845428
  0.0048666686077993  0.0834579657462703  0.2484036461950870
  0.0040904178388038  0.0846186991738988  0.7545413100823921
  0.9967991879706847  0.4159500565264062  0.2410825298832173
  0.3410922669090002  0.0852581984584903  0.2525619736144945
  0.1755025909491253  0.2539015548088757  0.5155194082732490
  0.9849200850732894  0.4165638830178364  0.7610269927899891
  0.3356054619152596  0.0865682514064291  0.7470301229741076
  0.1732605356169676  0.2495221780002043  0.9910406872817564
  0.9999215344533338  0.7498094102539208  0.2396926165065328
  0.3387842659854794  0.4129207816740388  0.2460112657622341
  0.1711371127321880  0.5845498231614826  0.4994710192199004
  0.9906063762119137  0.7500307105814917  0.7671685271957607
  0.6597085489898344  0.0845829594559514  0.2546108738984362
  0.4941929076721204  0.2517122289707553  0.4969697263919141
  0.3310866770844123  0.4124021399229207  0.7482960434286076
  0.1644599042707747  0.5870348092667338  0.9985670288089729
  0.6593020884150227  0.0844405966182280  0.7448361806403930
  0.4991207197358749  0.2517024292161571  0.0020998990687496
  0.3286491514408305  0.7522920106445131  0.2304667346503897
  0.1667547822655722  0.9161156750754509  0.4842019849153819
  0.6658301614570462  0.4169978551522512  0.2375109562656934
  0.5092790601141419  0.5825016519074415  0.4969932501433008
  0.3338043977015320  0.7519834336766311  0.7638792303080900
  0.1709013598074256  0.9119780319500048  0.0122504442749577
  0.8339493996321838  0.2538069475719339  0.5071136571256440
  0.6723159074699750  0.4166713471170394  0.7642640455262379
  0.5143901868462804  0.5862191720327564  0.0005449540282882
  0.8366419947340931  0.2535632067798330  0.9952266618181242
  0.6696183831403635  0.7503130753193716  0.2391210472506433
  0.4971489974365065  0.9123255167049883  0.5072186662743524
  0.8217614490550722  0.5799054780906591  0.5078783005209465
  0.6650329714044716  0.7472983808770383  0.7616707717637470
  0.4973802074861265  0.9093916963623750  0.9932735138541817
  0.8191984743088284  0.5772027397783102  0.9955996950751073
  0.8345009282833740  0.9170800404950575  0.4994463730262053
  0.8301473808350227  0.9128309309252604  0.9959039289422169
 
  0.00000000E+00  0.00000000E+00  0.00000000E+00
  0.00000000E+00  0.00000000E+00  0.00000000E+00
  0.00000000E+00  0.00000000E+00  0.00000000E+00
  0.00000000E+00  0.00000000E+00  0.00000000E+00
  0.00000000E+00  0.00000000E+00  0.00000000E+00
  0.00000000E+00  0.00000000E+00  0.00000000E+00
  0.00000000E+00  0.00000000E+00  0.00000000E+00
  0.00000000E+00  0.00000000E+00  0.00000000E+00
  0.00000000E+00  0.00000000E+00  0.00000000E+00
  0.00000000E+00  0.00000000E+00  0.00000000E+00
  0.00000000E+00  0.00000000E+00  0.00000000E+00
  0.00000000E+00  0.00000000E+00  0.00000000E+00
  0.00000000E+00  0.00000000E+00  0.00000000E+00
  0.00000000E+00  0.00000000E+00  0.00000000E+00
  0.00000000E+00  0.00000000E+00  0.00000000E+00
  0.00000000E+00  0.00000000E+00  0.00000000E+00
  0.00000000E+00  0.00000000E+00  0.00000000E+00
  0.00000000E+00  0.00000000E+00  0.00000000E+00
  0.00000000E+00  0.00000000E+00  0.00000000E+00
  0.00000000E+00  0.00000000E+00  0.00000000E+00
  0.00000000E+00  0.00000000E+00  0.00000000E+00
  0.00000000E+00  0.00000000E+00  0.00000000E+00
  0.00000000E+00  0.00000000E+00  0.00000000E+00
  0.00000000E+00  0.00000000E+00  0.00000000E+00
  0.00000000E+00  0.00000000E+00  0.00000000E+00
  0.00000000E+00  0.00000000E+00  0.00000000E+00
  0.00000000E+00  0.00000000E+00  0.00000000E+00
  0.00000000E+00  0.00000000E+00  0.00000000E+00
  0.00000000E+00  0.00000000E+00  0.00000000E+00
  0.00000000E+00  0.00000000E+00  0.00000000E+00
  0.00000000E+00  0.00000000E+00  0.00000000E+00
  0.00000000E+00  0.00000000E+00  0.00000000E+00
  0.00000000E+00  0.00000000E+00  0.00000000E+00
  0.00000000E+00  0.00000000E+00  0.00000000E+00
  0.00000000E+00  0.00000000E+00  0.00000000E+00
  0.00000000E+00  0.00000000E+00  0.00000000E+00
  0.00000000E+00  0.00000000E+00  0.00000000E+00
  0.00000000E+00  0.00000000E+00  0.00000000E+00
  0.00000000E+00  0.00000000E+00  0.00000000E+00
  0.00000000E+00  0.00000000E+00  0.00000000E+00
  0.00000000E+00  0.00000000E+00  0.00000000E+00
  0.00000000E+00  0.00000000E+00  0.00000000E+00
  0.00000000E+00  0.00000000E+00  0.00000000E+00
  0.00000000E+00  0.00000000E+00  0.00000000E+00
  0.00000000E+00  0.00000000E+00  0.00000000E+00
  0.00000000E+00  0.00000000E+00  0.00000000E+00
  0.00000000E+00  0.00000000E+00  0.00000000E+00
  0.00000000E+00  0.00000000E+00  0.00000000E+00
  0.00000000E+00  0.00000000E+00  0.00000000E+00
  0.00000000E+00  0.00000000E+00  0.00000000E+00
  0.00000000E+00  0.00000000E+00  0.00000000E+00
  0.00000000E+00  0.00000000E+00  0.00000000E+00
  0.00000000E+00  0.00000000E+00  0.00000000E+00
  0.00000000E+00  0.00000000E+00  0.00000000E+00
  0.00000000E+00  0.00000000E+00  0.00000000E+00
  0.00000000E+00  0.00000000E+00  0.00000000E+00
  0.00000000E+00  0.00000000E+00  0.00000000E+00
  0.00000000E+00  0.00000000E+00  0.00000000E+00
  0.00000000E+00  0.00000000E+00  0.00000000E+00
  0.00000000E+00  0.00000000E+00  0.00000000E+00
  0.00000000E+00  0.00000000E+00  0.00000000E+00
  0.00000000E+00  0.00000000E+00  0.00000000E+00
  0.00000000E+00  0.00000000E+00  0.00000000E+00
  0.00000000E+00  0.00000000E+00  0.00000000E+00
  0.00000000E+00  0.00000000E+00  0.00000000E+00
  0.00000000E+00  0.00000000E+00  0.00000000E+00
  0.00000000E+00  0.00000000E+00  0.00000000E+00
  0.00000000E+00  0.00000000E+00  0.00000000E+00
  0.00000000E+00  0.00000000E+00  0.00000000E+00
  0.00000000E+00  0.00000000E+00  0.00000000E+00
  0.00000000E+00  0.00000000E+00  0.00000000E+00
  0.00000000E+00  0.00000000E+00  0.00000000E+00
  0.00000000E+00  0.00000000E+00  0.00000000E+00
  0.00000000E+00  0.00000000E+00  0.00000000E+00
  0.00000000E+00  0.00000000E+00  0.00000000E+00
  0.00000000E+00  0.00000000E+00  0.00000000E+00
  0.00000000E+00  0.00000000E+00  0.00000000E+00
  0.00000000E+00  0.00000000E+00  0.00000000E+00
  0.00000000E+00  0.00000000E+00  0.00000000E+00
  0.00000000E+00  0.00000000E+00  0.00000000E+00
  0.00000000E+00  0.00000000E+00  0.00000000E+00
  0.00000000E+00  0.00000000E+00  0.00000000E+00
  0.00000000E+00  0.00000000E+00  0.00000000E+00
  0.00000000E+00  0.00000000E+00  0.00000000E+00
  0.00000000E+00  0.00000000E+00  0.00000000E+00
  0.00000000E+00  0.00000000E+00  0.00000000E+00
  0.00000000E+00  0.00000000E+00  0.00000000E+00
  0.00000000E+00  0.00000000E+00  0.00000000E+00
  0.00000000E+00  0.00000000E+00  0.00000000E+00
  0.00000000E+00  0.00000000E+00  0.00000000E+00
  0.00000000E+00  0.00000000E+00  0.00000000E+00
  0.00000000E+00  0.00000000E+00  0.00000000E+00
  0.00000000E+00  0.00000000E+00  0.00000000E+00
  0.00000000E+00  0.00000000E+00  0.00000000E+00
  0.00000000E+00  0.00000000E+00  0.00000000E+00
  0.00000000E+00  0.00000000E+00  0.00000000E+00
  0.00000000E+00  0.00000000E+00  0.00000000E+00
  0.00000000E+00  0.00000000E+00  0.00000000E+00
  0.00000000E+00  0.00000000E+00  0.00000000E+00
  0.00000000E+00  0.00000000E+00  0.00000000E+00
  0.00000000E+00  0.00000000E+00  0.00000000E+00
  0.00000000E+00  0.00000000E+00  0.00000000E+00
  0.00000000E+00  0.00000000E+00  0.00000000E+00
  0.00000000E+00  0.00000000E+00  0.00000000E+00
  0.00000000E+00  0.00000000E+00  0.00000000E+00
  0.00000000E+00  0.00000000E+00  0.00000000E+00
  0.00000000E+00  0.00000000E+00  0.00000000E+00
  0.00000000E+00  0.00000000E+00  0.00000000E+00
  0.00000000E+00  0.00000000E+00  0.00000000E+00
  0.00000000E+00  0.00000000E+00  0.00000000E+00
  0.00000000E+00  0.00000000E+00  0.00000000E+00
  0.00000000E+00  0.00000000E+00  0.00000000E+00
  0.00000000E+00  0.00000000E+00  0.00000000E+00
  0.00000000E+00  0.00000000E+00  0.00000000E+00
  0.00000000E+00  0.00000000E+00  0.00000000E+00
  0.00000000E+00  0.00000000E+00  0.00000000E+00
  0.00000000E+00  0.00000000E+00  0.00000000E+00
  0.00000000E+00  0.00000000E+00  0.00000000E+00
  0.00000000E+00  0.00000000E+00  0.00000000E+00
  0.00000000E+00  0.00000000E+00  0.00000000E+00
  0.00000000E+00  0.00000000E+00  0.00000000E+00
  0.00000000E+00  0.00000000E+00  0.00000000E+00
  0.00000000E+00  0.00000000E+00  0.00000000E+00
  0.00000000E+00  0.00000000E+00  0.00000000E+00
  0.00000000E+00  0.00000000E+00  0.00000000E+00
  0.00000000E+00  0.00000000E+00  0.00000000E+00
  0.00000000E+00  0.00000000E+00  0.00000000E+00
  0.00000000E+00  0.00000000E+00  0.00000000E+00
  0.00000000E+00  0.00000000E+00  0.00000000E+00
  0.00000000E+00  0.00000000E+00  0.00000000E+00
  0.00000000E+00  0.00000000E+00  0.00000000E+00
  0.00000000E+00  0.00000000E+00  0.00000000E+00
  0.00000000E+00  0.00000000E+00  0.00000000E+00
  0.00000000E+00  0.00000000E+00  0.00000000E+00
  0.00000000E+00  0.00000000E+00  0.00000000E+00
  0.00000000E+00  0.00000000E+00  0.00000000E+00
  0.00000000E+00  0.00000000E+00  0.00000000E+00
  0.00000000E+00  0.00000000E+00  0.00000000E+00
  0.00000000E+00  0.00000000E+00  0.00000000E+00
  0.00000000E+00  0.00000000E+00  0.00000000E+00
  0.00000000E+00  0.00000000E+00  0.00000000E+00
  0.00000000E+00  0.00000000E+00  0.00000000E+00
  0.00000000E+00  0.00000000E+00  0.00000000E+00
  0.00000000E+00  0.00000000E+00  0.00000000E+00
  0.00000000E+00  0.00000000E+00  0.00000000E+00
  0.00000000E+00  0.00000000E+00  0.00000000E+00
  0.00000000E+00  0.00000000E+00  0.00000000E+00
  0.00000000E+00  0.00000000E+00  0.00000000E+00
  0.00000000E+00  0.00000000E+00  0.00000000E+00
  0.00000000E+00  0.00000000E+00  0.00000000E+00
  0.00000000E+00  0.00000000E+00  0.00000000E+00
  0.00000000E+00  0.00000000E+00  0.00000000E+00
  0.00000000E+00  0.00000000E+00  0.00000000E+00
  0.00000000E+00  0.00000000E+00  0.00000000E+00
  0.00000000E+00  0.00000000E+00  0.00000000E+00
  0.00000000E+00  0.00000000E+00  0.00000000E+00
  0.00000000E+00  0.00000000E+00  0.00000000E+00
  0.00000000E+00  0.00000000E+00  0.00000000E+00
  0.00000000E+00  0.00000000E+00  0.00000000E+00
  0.00000000E+00  0.00000000E+00  0.00000000E+00
  0.00000000E+00  0.00000000E+00  0.00000000E+00
  0.00000000E+00  0.00000000E+00  0.00000000E+00
  0.00000000E+00  0.00000000E+00  0.00000000E+00
  0.00000000E+00  0.00000000E+00  0.00000000E+00
  0.00000000E+00  0.00000000E+00  0.00000000E+00
  0.00000000E+00  0.00000000E+00  0.00000000E+00
  0.00000000E+00  0.00000000E+00  0.00000000E+00
  0.00000000E+00  0.00000000E+00  0.00000000E+00
  0.00000000E+00  0.00000000E+00  0.00000000E+00
  0.00000000E+00  0.00000000E+00  0.00000000E+00
  0.00000000E+00  0.00000000E+00  0.00000000E+00
  0.00000000E+00  0.00000000E+00  0.00000000E+00
  0.00000000E+00  0.00000000E+00  0.00000000E+00
  0.00000000E+00  0.00000000E+00  0.00000000E+00
  0.00000000E+00  0.00000000E+00  0.00000000E+00
  0.00000000E+00  0.00000000E+00  0.00000000E+00
  0.00000000E+00  0.00000000E+00  0.00000000E+00
  0.00000000E+00  0.00000000E+00  0.00000000E+00
  0.00000000E+00  0.00000000E+00  0.00000000E+00
  0.00000000E+00  0.00000000E+00  0.00000000E+00
  0.00000000E+00  0.00000000E+00  0.00000000E+00
  0.00000000E+00  0.00000000E+00  0.00000000E+00
  0.00000000E+00  0.00000000E+00  0.00000000E+00
  0.00000000E+00  0.00000000E+00  0.00000000E+00
  0.00000000E+00  0.00000000E+00  0.00000000E+00
  0.00000000E+00  0.00000000E+00  0.00000000E+00
  0.00000000E+00  0.00000000E+00  0.00000000E+00
  0.00000000E+00  0.00000000E+00  0.00000000E+00
  0.00000000E+00  0.00000000E+00  0.00000000E+00
  0.00000000E+00  0.00000000E+00  0.00000000E+00
  0.00000000E+00  0.00000000E+00  0.00000000E+00
  0.00000000E+00  0.00000000E+00  0.00000000E+00
  0.00000000E+00  0.00000000E+00  0.00000000E+00
  0.00000000E+00  0.00000000E+00  0.00000000E+00
  0.00000000E+00  0.00000000E+00  0.00000000E+00
  0.00000000E+00  0.00000000E+00  0.00000000E+00
  0.00000000E+00  0.00000000E+00  0.00000000E+00
  0.00000000E+00  0.00000000E+00  0.00000000E+00
  0.00000000E+00  0.00000000E+00  0.00000000E+00
  0.00000000E+00  0.00000000E+00  0.00000000E+00
  0.00000000E+00  0.00000000E+00  0.00000000E+00
  0.00000000E+00  0.00000000E+00  0.00000000E+00
  0.00000000E+00  0.00000000E+00  0.00000000E+00
  0.00000000E+00  0.00000000E+00  0.00000000E+00
  0.00000000E+00  0.00000000E+00  0.00000000E+00
  0.00000000E+00  0.00000000E+00  0.00000000E+00
  0.00000000E+00  0.00000000E+00  0.00000000E+00
  0.00000000E+00  0.00000000E+00  0.00000000E+00
  0.00000000E+00  0.00000000E+00  0.00000000E+00
  0.00000000E+00  0.00000000E+00  0.00000000E+00
  0.00000000E+00  0.00000000E+00  0.00000000E+00
  0.00000000E+00  0.00000000E+00  0.00000000E+00
  0.00000000E+00  0.00000000E+00  0.00000000E+00
  0.00000000E+00  0.00000000E+00  0.00000000E+00
  0.00000000E+00  0.00000000E+00  0.00000000E+00
  0.00000000E+00  0.00000000E+00  0.00000000E+00
  0.00000000E+00  0.00000000E+00  0.00000000E+00
  0.00000000E+00  0.00000000E+00  0.00000000E+00
  0.00000000E+00  0.00000000E+00  0.00000000E+00
  0.00000000E+00  0.00000000E+00  0.00000000E+00
  0.00000000E+00  0.00000000E+00  0.00000000E+00
  0.00000000E+00  0.00000000E+00  0.00000000E+00
  0.00000000E+00  0.00000000E+00  0.00000000E+00
  0.00000000E+00  0.00000000E+00  0.00000000E+00
  0.00000000E+00  0.00000000E+00  0.00000000E+00
  0.00000000E+00  0.00000000E+00  0.00000000E+00
  0.00000000E+00  0.00000000E+00  0.00000000E+00
  0.00000000E+00  0.00000000E+00  0.00000000E+00
  0.00000000E+00  0.00000000E+00  0.00000000E+00
  0.00000000E+00  0.00000000E+00  0.00000000E+00
  0.00000000E+00  0.00000000E+00  0.00000000E+00
  0.00000000E+00  0.00000000E+00  0.00000000E+00
  0.00000000E+00  0.00000000E+00  0.00000000E+00
  0.00000000E+00  0.00000000E+00  0.00000000E+00
  0.00000000E+00  0.00000000E+00  0.00000000E+00
  0.00000000E+00  0.00000000E+00  0.00000000E+00
  0.00000000E+00  0.00000000E+00  0.00000000E+00
  0.00000000E+00  0.00000000E+00  0.00000000E+00
  0.00000000E+00  0.00000000E+00  0.00000000E+00
  0.00000000E+00  0.00000000E+00  0.00000000E+00
  0.00000000E+00  0.00000000E+00  0.00000000E+00
  0.00000000E+00  0.00000000E+00  0.00000000E+00
  0.00000000E+00  0.00000000E+00  0.00000000E+00
  0.00000000E+00  0.00000000E+00  0.00000000E+00
  0.00000000E+00  0.00000000E+00  0.00000000E+00
  0.00000000E+00  0.00000000E+00  0.00000000E+00
  0.00000000E+00  0.00000000E+00  0.00000000E+00
  0.00000000E+00  0.00000000E+00  0.00000000E+00
  0.00000000E+00  0.00000000E+00  0.00000000E+00
  0.00000000E+00  0.00000000E+00  0.00000000E+00
  0.00000000E+00  0.00000000E+00  0.00000000E+00
  0.00000000E+00  0.00000000E+00  0.00000000E+00
