POSCAR                                  
   1.00000000000000     
    10.0256551492484540   -0.0040717943513309    0.0002930671442879
    -0.0040732084108296   10.0275577217061027   -0.0028189338542481
     0.0001951165742345   -0.0018173665883967    6.6337472469321161
   Zr   Na   Mg   Ca   H 
     9     9     9     9   216
Direct
  0.1783622991062390  0.1709411936107147  0.2506771948010274
  0.1683020410340444  0.5036093574358836  0.2442618156895524
  0.8274807370389976  0.1724300912523767  0.2506521942194683
  0.6592435691319378  0.3402975065394128  0.4999526317745994
  0.8305162947626620  0.1693227094094228  0.7512245526703817
  0.3381977054124951  0.0011031940652191 -0.0075631480305757
 -0.0082437078168377  0.6667396446652142  0.4999585733908784
  0.6607311491139118 -0.0050968294283013 -0.0009477243233780
  0.0018401665948378 -0.0043063817333156  0.0018567614860301
  0.1685158289430431  0.1686919733781522  0.7508320055433317
  0.3339994937642079  0.3347715728437287  0.4974883751261183
  0.4970045074605842  0.1688777009872585  0.7507472941690840
  0.3408124507341934  0.3402740774470280 -0.0003291699132503
  0.6666988902561456  0.3388696944327065  0.0000314186653611
  0.8270779980465583  0.5028109884597839  0.2510440834375152
  0.6673320566666801  0.6686332139849098  0.5033440389167610
  0.4983243069898426  0.8313724459160137  0.7516355484533901
  0.8314347469755278  0.8271042569539504  0.2466181355555783
  0.4981839725541466  0.1688437769273095  0.2515031076629759
  0.1665103482270744  0.8305107517357520  0.2513449139982172
  0.5074019717924610  0.5021942187699605  0.2495520630873682
  0.3353879721403172  0.6601732422197139 -0.0022870237694029
  0.8286434729018544  0.5041223735346504  0.7499607458990805
  0.6693945408462695  0.6613728004346361 -0.0013012413893100
 -0.0008125288748506  0.3409623827886351 -0.0008370170653836
  0.8295621133126263  0.8270618620370194  0.7503991846382833
 -0.0027329637870464  0.6624044290572786  0.0005515872066746
  0.1652664836442140  0.4973164421870389  0.7526355578639621
  0.3405845818864066  0.6664093412769599  0.4994907402179033
  0.1643811611665703  0.8331160731551299  0.7505908762950653
  0.4986464100628593  0.4986140909293228  0.7516717351293279
  0.5014529009127731  0.8278906762777191  0.2520293615355232
  0.3353660159184539  0.0006582080238557  0.5032629363738912
  0.0049884001903140  0.3358269501553673  0.5029874508073344
  0.6652193651329180 -0.0075635370195130  0.5011528599383375
  0.0006295517960695 -0.0010498118478792  0.5002247723842613
  0.1685051192711116  0.0868368431217637 -0.0076339017814319
  0.1694754273793663  0.0835523280278177  0.5072088464085229
  0.1702796596952409  0.4090272429134555  0.0002832963553038
  0.5007278308578945  0.0883261557182534 -0.0052312388369961
  0.3456093128718761  0.2544180866200272  0.2426874624357911
  0.1748981592261751  0.4155655538840133  0.4948559696282519
  0.5018651529234635  0.0838991205274045  0.5094813264324314
  0.3361787863126505  0.2461190818574545  0.7592630445594847
  0.1757528717510879  0.7529484953658487  0.0082020486099178
  0.5067849366716155  0.4151102285997965  0.0150996526406809
  0.3355842827021324  0.5828945307718935  0.2438122301143032
  0.1713592463584865  0.7521352159081545  0.4922642944103131
  0.8328823493532919  0.0814662730427189 -0.0007564692763406
  0.6541587754230600  0.2505438720490026  0.2386488792150480
  0.4952069365172636  0.4156157481143447  0.4852478097064270
  0.3348611151101834  0.5839308154769713  0.7558502976473460
  0.8311202498008133  0.0797591957649741  0.5012711858550650
  0.6565659701059110  0.2514172548918640  0.7633730132905294
  0.5039734168846404  0.7493767500730331 -0.0054265791971074
  0.3271834831944021  0.9144645290426108  0.2476750524540869
  0.8335789108484484  0.4146940195830338 -0.0072435479628069
  0.6703734651746378  0.5840248700676116  0.2499712022535273
  0.5078449206400655  0.7461898415984064  0.5124421064716218
  0.3370908827492464  0.9139517591266781  0.7491794652224529
  0.0049531372053866  0.2532740048046803  0.2368464194121609
  0.8327243892505417  0.4170774022881786  0.5090253598119842
  0.6689747077090669  0.5829344952545558  0.7471144233574842
  0.0060106109326712  0.2534334837575354  0.7642188761255138
  0.8286415114470599  0.7521116363692950 -0.0064616159607262
  0.6726317306220135  0.9133141173419281  0.2500722845271027
 -0.0056703844833756  0.5821206151811326  0.2386639618579960
  0.8239795686316803  0.7529222445887545  0.5037211992482397
  0.6666931935863225  0.9107691164673287  0.7503825459685488
 -0.0093373733245920  0.5800054735031159  0.7626777173435694
  0.0031058502821927  0.9109596591457236  0.2508377457283592
 -0.0113095306833736  0.9119370881388597  0.7482534506478185
  0.0839384208270249  0.1794976240006041 -0.0086459457369759
  0.0842746417086651  0.1677136722192753  0.5081745243066081
  0.0803188127785922  0.4996323489143873 -0.0013453621644090
  0.4227247932769455  0.1804235476737749  0.0056226131905616
  0.2600154020090691  0.3418477359123016  0.2458498892450240
  0.0830662630941071  0.5038103491211273  0.4997986615917616
  0.4185761322982002  0.1737558499215154  0.4966989860560411
  0.2486300589487722  0.3344008902462434  0.7593285915184393
  0.0842018583660347  0.8209772084722569  0.0097353457783718
  0.4167822045240867  0.5021501878945093  0.0180119278961804
  0.2514306582540074  0.6693427575550563  0.2444723726921010
  0.0828400209959771  0.8300104284559415  0.4918722345944809
  0.7450603052955096  0.1741751127390813  0.0019633353236695
  0.5807651817274385  0.3302018790990451  0.2377446401635854
  0.4145797196496751  0.4941226175859035  0.4802371140026194
  0.2478366791070061  0.6647934364819350  0.7529115383735444
  0.7461903281992275  0.1662500449167225  0.5001861247628068
  0.5809687596177328  0.3292153584647302  0.7658234081650401
  0.4161189823081729  0.8231285479445120 -0.0035895482796976
  0.2507897896350368 -0.0060468660163488  0.2461441648509087
  0.7526860004777572  0.5071989886384130  0.0047373212125828
  0.5845141155709773  0.6617808033252237  0.2521161262495682
  0.4174231102947576  0.8351043424949046  0.5080710143633683
  0.2465462140305766  0.0061278558346519  0.7506761983847502
  0.9162554456226032  0.3424830730309959  0.2456390121296579
  0.7516167930258751  0.5117940247049751  0.4971400636824357
  0.5854733921289690  0.6702009424599378  0.7553308357655830
  0.9153343986329577  0.3414524493208268  0.7519528196494232
  0.7523654026824284  0.8195478244628520 -0.0062508852545105
  0.5802405655862505  0.0057505170336092  0.2513210619539277
  0.9102218655064898  0.6633020028264215  0.2282294108490359
  0.7509516451900664  0.8245593865059174  0.5040417755535526
  0.5821482787848796 -0.0030826853704192  0.7498925219116239
  0.9130439338744774  0.6631297767293054  0.7669507672280755
  0.9156326722025806 -0.0059820884889224  0.2482264859132937
  0.9144261957447088 -0.0046804381982345  0.7540711373363626
  0.1700102256586057 -0.0052738713462259  0.1309813049712639
  0.1683276887492288  0.0082405590788536  0.6224106492930912
  0.1712336449835059  0.3375317504516402  0.1181897713884553
  0.4996431908281928  0.0052449827722085  0.1313081450430986
  0.3442997742919390  0.1694895020474633  0.3790785042921056
  0.1765842361308323  0.3260673706693089  0.6256762669760739
  0.5001619244867721  0.0029581876597125  0.6202071536130592
  0.3327463860579142  0.1886186758590087  0.8661915509663863
  0.1603045368508262  0.6697224318325893  0.1231678839450559
  0.5062450103881344  0.3429834324882992  0.1243311872239122
  0.3494082004668391  0.5000814606179819  0.3737660732132063
  0.1699342397221761  0.6651130665295600  0.6266464327523089
  0.8309312215643906 -0.0072621579535017  0.1313070666015722
  0.6578478594275934  0.1635179866547000  0.3782716894685293
  0.4856174776409430  0.3260907313990219  0.6285251980491279
  0.3324858308017289  0.5003950035938401  0.8745649783873251
  0.8330410889820177 -0.0148559077227428  0.6215659292751283
  0.6584709495722527  0.1793774221817887  0.8746915429914193
  0.5062885469499588  0.6564190751231362  0.1243107382770281
  0.3290375631597768  0.8322562611180605  0.3729205668918443
  0.8275585109021473  0.3439234491206549  0.1251473914443717
  0.6668129532948290  0.5109758134868650  0.3771746271181070
  0.5078670442592672  0.6739421175555258  0.6263345257275248
  0.3349160532252232  0.8166350353291587  0.8733992256200376
  0.0007489685308972  0.1672073289509134  0.3765523338858133
  0.8358908638296632  0.3405796944864961  0.6242302805458911
  0.6678071003499263  0.4980896882914871  0.8737501346186212
  0.0040114355241792  0.1749502633477201  0.8759241492882179
  0.8374327139601279  0.6632895894768577  0.1244694506065759
  0.6724620175015131  0.8246176831635716  0.3742746267832648
 -0.0177459645734599  0.4997331042556880  0.3747427058347323
  0.8260661920297423  0.6703566987482594  0.6283516724398776
  0.6637103426688400  0.8233057572350995  0.8731806292259522
 -0.0082738424283922  0.5051984485454145  0.8746549007712164
 -0.0056706869985397  0.8324181829333253  0.3716101505209019
 -0.0050135517739850  0.8180732857649876  0.8759865665017709
  0.0848669647903652 -0.0000824365348029  0.2503994755423661
  0.0826053557723384  0.0062058583689805  0.7524266395161231
  0.0803058480861013  0.3304052070207423  0.2383623488550118
  0.4178850348460940  0.0031037165007857  0.2486613302395149
  0.2550323751899946  0.1733385981141784  0.5156836160434453
  0.0812272516484823  0.3283332598678513  0.7678233601568650
  0.4193782570868313  0.0043533382342123  0.7490449884457393
  0.2523195463064399  0.1788394836355085 -0.0124073950192458
  0.0821724117130101  0.6724026562988445  0.2341430049943781
  0.4192050203091514  0.3381983987985556  0.2509355090846628
  0.2529445031529812  0.4976332742598770  0.5012730732844820
  0.0824914223763853  0.6651613309274602  0.7678465925144962
  0.7503138731358415 -0.0099292796084871  0.2466605376951854
  0.5818640627420277  0.1654232593363260  0.5004245784978759
  0.4157754499103778  0.3320447129465564  0.7378741566159255
  0.2519180426694199  0.4991473410891140 -0.0024867785672870
  0.7500049498703616 -0.0135917721188283  0.7520871853529625
  0.5822634647186274  0.1737856303702476  0.0028648086219187
  0.4197039858123048  0.6579382340098454  0.2335722508656093
  0.2494991232838564  0.8280365247347985  0.4955809300159852
  0.7491563157508538  0.3455528376135660  0.2359512762250294
  0.5816086647376334  0.5134164266297135  0.4948245460467297
  0.4186328347392360  0.6652448489330126  0.7619570611522690
  0.2491962786807048  0.8235357457230654  0.0032557270627973
  0.9214246447848821  0.1691106928101672  0.4958970171828372
  0.7503768690499333  0.3415665136125351  0.7595435546713147
  0.5842080635360198  0.5030745680594650  0.0027104181295882
  0.9222521007399753  0.1725980031935558  0.0034290082670643
  0.7509633856957135  0.6625814419487694  0.2558760115801108
  0.5855984402855390  0.8253853177457121  0.5158766191978353
  0.9160536203959323  0.4979037160870604  0.4860297199624274
  0.7512277922825921  0.6686551916310494  0.7514258159020255
  0.5802557151409906  0.8146848255932669 -0.0101998901101556
  0.9158342726948879  0.5039474565009764  0.0155061974798841
  0.9163145642526369  0.8320341838072817  0.4845370138398796
  0.9134569941603308  0.8226315380121125  0.0063902382039892
 -0.0009862334282218  0.1730607235841787  0.1220322079435694
  0.0091093957540958  0.1680193011509340  0.6254267309334455
 -0.0222846789965284  0.5071115496923696  0.1201598191959525
  0.3431324411897786  0.1765502216931423  0.1191066135883976
  0.1730068278724853  0.3362267855863829  0.3780339682598083
 -0.0069048625032949  0.5021562655153452  0.6282261312712935
  0.3291559708117699  0.1747867413346858  0.6242141357416087
  0.1793902837486087  0.3305655631666272  0.8710054222869773
 -0.0061234932687347  0.8184250168717524  0.1254320400578006
  0.3519889756794923  0.5025044826835025  0.1226748819091296
  0.1693577437525673  0.6740459588349375  0.3753406355631319
 -0.0110470207129003  0.8330182853545623  0.6283168052191200
  0.6576213693914071  0.1781201120313401  0.1214495255956397
  0.4939795889599928  0.3341004245779590  0.3739993460991209
  0.3313106684404799  0.4958419187231530  0.6206981995747722
  0.1596601120295574  0.6655463201005771  0.8743060465662063
  0.6580535461692575  0.1645223900152162  0.6272633020295771
  0.5050340615573575  0.3297036337527901  0.8784588070900136
  0.3324684272626489  0.8209377021901315  0.1253906843830932
  0.1679834045488454 -0.0068948496549984  0.3778945800434164
  0.6674047519874812  0.5017848456493021  0.1266169757703787
  0.5124496175228055  0.6614923953019466  0.3726602090097091
  0.3386664540658685  0.8324984377443809  0.6255938740809452
  0.1703057829222948  0.0057129766040714  0.8693932752943669
  0.8350601460622754  0.3409757545689518  0.3732843688221988
  0.6666307050423557  0.5100152144538969  0.6258273889764558
  0.4960851702535752  0.6629824378734874  0.8754377720201963
  0.8311147125409951  0.3474807804559916  0.8811352146119287
  0.6711154580125067  0.8162151643659349  0.1260158454439041
  0.5003798400103556  0.0039346049452185  0.3766263115474249
  0.8225041581685658  0.6685161584819322  0.3705017147714474
  0.6603616583939259  0.8266671305927389  0.6257770091675955
  0.4990554967127675  0.0026103274137631  0.8615729185877905
  0.8398803549058382  0.6592841642376960  0.8761375977347086
  0.8329977544292420 -0.0107267031532537  0.3769877886749142
  0.8320671462123834 -0.0083278383043616  0.8719472307748528
  0.0055604379551948  0.0833756628910927  0.2496701251953130
  0.0032392196649790  0.0847102973899922  0.7532505717181259
 -0.0052038080520940  0.4164525109900059  0.2413417112507715
  0.3404753283780023  0.0855352793716339  0.2532514318547672
  0.1747727344274765  0.2529382220232176  0.5117831236193493
 -0.0145583079366047  0.4169600027503295  0.7599679157033277
  0.3343648286639853  0.0865004927995348  0.7480767000454279
  0.1730534420232197  0.2491378962653777 -0.0074564505126794
 -0.0013987137249139  0.7506097016603279  0.2379521183323859
  0.3402360674540512  0.4129753855467810  0.2462626533562239
  0.1699370324593104  0.5845542500132747  0.4993082053960383
 -0.0091815924500258  0.7512901173491479  0.7683544589347869
  0.6597166353673597  0.0857635471267134  0.2543701639782047
  0.4912975756578541  0.2500288612023068  0.4984724563018066
  0.3325135722384999  0.4092922146128843  0.7497138297278870
  0.1679674509951773  0.5884824636740232 -0.0009681339377414
  0.6599950058985832  0.0854146665227964  0.7449691587865472
  0.4974601456708490  0.2515166781648179  0.0022933320203613
  0.3285115943622090  0.7520639798991313  0.2312167035252162
  0.1672425346037009  0.9160535816128422  0.4855937242700807
  0.6654611547848596  0.4163009387661384  0.2388333191763627
  0.5097320719650511  0.5830956405676911  0.4973069659590620
  0.3342255456829097  0.7517577521112135  0.7635746100941641
  0.1704130774991650  0.9122678491548776  0.0140522348538309
  0.8349759873131000  0.2540167557263255  0.5057596645774745
  0.6729256708244720  0.4166196735497852  0.7633356960030165
  0.5139360234131217  0.5864628662914341 -0.0003859159348729
  0.8373143314813337  0.2540407345690550 -0.0032172324316273
  0.6707821572430861  0.7500679851479634  0.2396132957766808
  0.4976090287556711  0.9135815341588320  0.5084255862685988
  0.8222888833145237  0.5810569414253494  0.5066400775918595
  0.6637908719919404  0.7471275406909373  0.7605133184967892
  0.4971469254455728  0.9094295656678646 -0.0059652080074870
  0.8215003542247274  0.5784855772437169 -0.0019058290896190
  0.8338284375842380  0.9163082691995773  0.4976630565305639
  0.8315932929382543  0.9130500807625490 -0.0017246606042469
 
  0.00000000E+00  0.00000000E+00  0.00000000E+00
  0.00000000E+00  0.00000000E+00  0.00000000E+00
  0.00000000E+00  0.00000000E+00  0.00000000E+00
  0.00000000E+00  0.00000000E+00  0.00000000E+00
  0.00000000E+00  0.00000000E+00  0.00000000E+00
  0.00000000E+00  0.00000000E+00  0.00000000E+00
  0.00000000E+00  0.00000000E+00  0.00000000E+00
  0.00000000E+00  0.00000000E+00  0.00000000E+00
  0.00000000E+00  0.00000000E+00  0.00000000E+00
  0.00000000E+00  0.00000000E+00  0.00000000E+00
  0.00000000E+00  0.00000000E+00  0.00000000E+00
  0.00000000E+00  0.00000000E+00  0.00000000E+00
  0.00000000E+00  0.00000000E+00  0.00000000E+00
  0.00000000E+00  0.00000000E+00  0.00000000E+00
  0.00000000E+00  0.00000000E+00  0.00000000E+00
  0.00000000E+00  0.00000000E+00  0.00000000E+00
  0.00000000E+00  0.00000000E+00  0.00000000E+00
  0.00000000E+00  0.00000000E+00  0.00000000E+00
  0.00000000E+00  0.00000000E+00  0.00000000E+00
  0.00000000E+00  0.00000000E+00  0.00000000E+00
  0.00000000E+00  0.00000000E+00  0.00000000E+00
  0.00000000E+00  0.00000000E+00  0.00000000E+00
  0.00000000E+00  0.00000000E+00  0.00000000E+00
  0.00000000E+00  0.00000000E+00  0.00000000E+00
  0.00000000E+00  0.00000000E+00  0.00000000E+00
  0.00000000E+00  0.00000000E+00  0.00000000E+00
  0.00000000E+00  0.00000000E+00  0.00000000E+00
  0.00000000E+00  0.00000000E+00  0.00000000E+00
  0.00000000E+00  0.00000000E+00  0.00000000E+00
  0.00000000E+00  0.00000000E+00  0.00000000E+00
  0.00000000E+00  0.00000000E+00  0.00000000E+00
  0.00000000E+00  0.00000000E+00  0.00000000E+00
  0.00000000E+00  0.00000000E+00  0.00000000E+00
  0.00000000E+00  0.00000000E+00  0.00000000E+00
  0.00000000E+00  0.00000000E+00  0.00000000E+00
  0.00000000E+00  0.00000000E+00  0.00000000E+00
  0.00000000E+00  0.00000000E+00  0.00000000E+00
  0.00000000E+00  0.00000000E+00  0.00000000E+00
  0.00000000E+00  0.00000000E+00  0.00000000E+00
  0.00000000E+00  0.00000000E+00  0.00000000E+00
  0.00000000E+00  0.00000000E+00  0.00000000E+00
  0.00000000E+00  0.00000000E+00  0.00000000E+00
  0.00000000E+00  0.00000000E+00  0.00000000E+00
  0.00000000E+00  0.00000000E+00  0.00000000E+00
  0.00000000E+00  0.00000000E+00  0.00000000E+00
  0.00000000E+00  0.00000000E+00  0.00000000E+00
  0.00000000E+00  0.00000000E+00  0.00000000E+00
  0.00000000E+00  0.00000000E+00  0.00000000E+00
  0.00000000E+00  0.00000000E+00  0.00000000E+00
  0.00000000E+00  0.00000000E+00  0.00000000E+00
  0.00000000E+00  0.00000000E+00  0.00000000E+00
  0.00000000E+00  0.00000000E+00  0.00000000E+00
  0.00000000E+00  0.00000000E+00  0.00000000E+00
  0.00000000E+00  0.00000000E+00  0.00000000E+00
  0.00000000E+00  0.00000000E+00  0.00000000E+00
  0.00000000E+00  0.00000000E+00  0.00000000E+00
  0.00000000E+00  0.00000000E+00  0.00000000E+00
  0.00000000E+00  0.00000000E+00  0.00000000E+00
  0.00000000E+00  0.00000000E+00  0.00000000E+00
  0.00000000E+00  0.00000000E+00  0.00000000E+00
  0.00000000E+00  0.00000000E+00  0.00000000E+00
  0.00000000E+00  0.00000000E+00  0.00000000E+00
  0.00000000E+00  0.00000000E+00  0.00000000E+00
  0.00000000E+00  0.00000000E+00  0.00000000E+00
  0.00000000E+00  0.00000000E+00  0.00000000E+00
  0.00000000E+00  0.00000000E+00  0.00000000E+00
  0.00000000E+00  0.00000000E+00  0.00000000E+00
  0.00000000E+00  0.00000000E+00  0.00000000E+00
  0.00000000E+00  0.00000000E+00  0.00000000E+00
  0.00000000E+00  0.00000000E+00  0.00000000E+00
  0.00000000E+00  0.00000000E+00  0.00000000E+00
  0.00000000E+00  0.00000000E+00  0.00000000E+00
  0.00000000E+00  0.00000000E+00  0.00000000E+00
  0.00000000E+00  0.00000000E+00  0.00000000E+00
  0.00000000E+00  0.00000000E+00  0.00000000E+00
  0.00000000E+00  0.00000000E+00  0.00000000E+00
  0.00000000E+00  0.00000000E+00  0.00000000E+00
  0.00000000E+00  0.00000000E+00  0.00000000E+00
  0.00000000E+00  0.00000000E+00  0.00000000E+00
  0.00000000E+00  0.00000000E+00  0.00000000E+00
  0.00000000E+00  0.00000000E+00  0.00000000E+00
  0.00000000E+00  0.00000000E+00  0.00000000E+00
  0.00000000E+00  0.00000000E+00  0.00000000E+00
  0.00000000E+00  0.00000000E+00  0.00000000E+00
  0.00000000E+00  0.00000000E+00  0.00000000E+00
  0.00000000E+00  0.00000000E+00  0.00000000E+00
  0.00000000E+00  0.00000000E+00  0.00000000E+00
  0.00000000E+00  0.00000000E+00  0.00000000E+00
  0.00000000E+00  0.00000000E+00  0.00000000E+00
  0.00000000E+00  0.00000000E+00  0.00000000E+00
  0.00000000E+00  0.00000000E+00  0.00000000E+00
  0.00000000E+00  0.00000000E+00  0.00000000E+00
  0.00000000E+00  0.00000000E+00  0.00000000E+00
  0.00000000E+00  0.00000000E+00  0.00000000E+00
  0.00000000E+00  0.00000000E+00  0.00000000E+00
  0.00000000E+00  0.00000000E+00  0.00000000E+00
  0.00000000E+00  0.00000000E+00  0.00000000E+00
  0.00000000E+00  0.00000000E+00  0.00000000E+00
  0.00000000E+00  0.00000000E+00  0.00000000E+00
  0.00000000E+00  0.00000000E+00  0.00000000E+00
  0.00000000E+00  0.00000000E+00  0.00000000E+00
  0.00000000E+00  0.00000000E+00  0.00000000E+00
  0.00000000E+00  0.00000000E+00  0.00000000E+00
  0.00000000E+00  0.00000000E+00  0.00000000E+00
  0.00000000E+00  0.00000000E+00  0.00000000E+00
  0.00000000E+00  0.00000000E+00  0.00000000E+00
  0.00000000E+00  0.00000000E+00  0.00000000E+00
  0.00000000E+00  0.00000000E+00  0.00000000E+00
  0.00000000E+00  0.00000000E+00  0.00000000E+00
  0.00000000E+00  0.00000000E+00  0.00000000E+00
  0.00000000E+00  0.00000000E+00  0.00000000E+00
  0.00000000E+00  0.00000000E+00  0.00000000E+00
  0.00000000E+00  0.00000000E+00  0.00000000E+00
  0.00000000E+00  0.00000000E+00  0.00000000E+00
  0.00000000E+00  0.00000000E+00  0.00000000E+00
  0.00000000E+00  0.00000000E+00  0.00000000E+00
  0.00000000E+00  0.00000000E+00  0.00000000E+00
  0.00000000E+00  0.00000000E+00  0.00000000E+00
  0.00000000E+00  0.00000000E+00  0.00000000E+00
  0.00000000E+00  0.00000000E+00  0.00000000E+00
  0.00000000E+00  0.00000000E+00  0.00000000E+00
  0.00000000E+00  0.00000000E+00  0.00000000E+00
  0.00000000E+00  0.00000000E+00  0.00000000E+00
  0.00000000E+00  0.00000000E+00  0.00000000E+00
  0.00000000E+00  0.00000000E+00  0.00000000E+00
  0.00000000E+00  0.00000000E+00  0.00000000E+00
  0.00000000E+00  0.00000000E+00  0.00000000E+00
  0.00000000E+00  0.00000000E+00  0.00000000E+00
  0.00000000E+00  0.00000000E+00  0.00000000E+00
  0.00000000E+00  0.00000000E+00  0.00000000E+00
  0.00000000E+00  0.00000000E+00  0.00000000E+00
  0.00000000E+00  0.00000000E+00  0.00000000E+00
  0.00000000E+00  0.00000000E+00  0.00000000E+00
  0.00000000E+00  0.00000000E+00  0.00000000E+00
  0.00000000E+00  0.00000000E+00  0.00000000E+00
  0.00000000E+00  0.00000000E+00  0.00000000E+00
  0.00000000E+00  0.00000000E+00  0.00000000E+00
  0.00000000E+00  0.00000000E+00  0.00000000E+00
  0.00000000E+00  0.00000000E+00  0.00000000E+00
  0.00000000E+00  0.00000000E+00  0.00000000E+00
  0.00000000E+00  0.00000000E+00  0.00000000E+00
  0.00000000E+00  0.00000000E+00  0.00000000E+00
  0.00000000E+00  0.00000000E+00  0.00000000E+00
  0.00000000E+00  0.00000000E+00  0.00000000E+00
  0.00000000E+00  0.00000000E+00  0.00000000E+00
  0.00000000E+00  0.00000000E+00  0.00000000E+00
  0.00000000E+00  0.00000000E+00  0.00000000E+00
  0.00000000E+00  0.00000000E+00  0.00000000E+00
  0.00000000E+00  0.00000000E+00  0.00000000E+00
  0.00000000E+00  0.00000000E+00  0.00000000E+00
  0.00000000E+00  0.00000000E+00  0.00000000E+00
  0.00000000E+00  0.00000000E+00  0.00000000E+00
  0.00000000E+00  0.00000000E+00  0.00000000E+00
  0.00000000E+00  0.00000000E+00  0.00000000E+00
  0.00000000E+00  0.00000000E+00  0.00000000E+00
  0.00000000E+00  0.00000000E+00  0.00000000E+00
  0.00000000E+00  0.00000000E+00  0.00000000E+00
  0.00000000E+00  0.00000000E+00  0.00000000E+00
  0.00000000E+00  0.00000000E+00  0.00000000E+00
  0.00000000E+00  0.00000000E+00  0.00000000E+00
  0.00000000E+00  0.00000000E+00  0.00000000E+00
  0.00000000E+00  0.00000000E+00  0.00000000E+00
  0.00000000E+00  0.00000000E+00  0.00000000E+00
  0.00000000E+00  0.00000000E+00  0.00000000E+00
  0.00000000E+00  0.00000000E+00  0.00000000E+00
  0.00000000E+00  0.00000000E+00  0.00000000E+00
  0.00000000E+00  0.00000000E+00  0.00000000E+00
  0.00000000E+00  0.00000000E+00  0.00000000E+00
  0.00000000E+00  0.00000000E+00  0.00000000E+00
  0.00000000E+00  0.00000000E+00  0.00000000E+00
  0.00000000E+00  0.00000000E+00  0.00000000E+00
  0.00000000E+00  0.00000000E+00  0.00000000E+00
  0.00000000E+00  0.00000000E+00  0.00000000E+00
  0.00000000E+00  0.00000000E+00  0.00000000E+00
  0.00000000E+00  0.00000000E+00  0.00000000E+00
  0.00000000E+00  0.00000000E+00  0.00000000E+00
  0.00000000E+00  0.00000000E+00  0.00000000E+00
  0.00000000E+00  0.00000000E+00  0.00000000E+00
  0.00000000E+00  0.00000000E+00  0.00000000E+00
  0.00000000E+00  0.00000000E+00  0.00000000E+00
  0.00000000E+00  0.00000000E+00  0.00000000E+00
  0.00000000E+00  0.00000000E+00  0.00000000E+00
  0.00000000E+00  0.00000000E+00  0.00000000E+00
  0.00000000E+00  0.00000000E+00  0.00000000E+00
  0.00000000E+00  0.00000000E+00  0.00000000E+00
  0.00000000E+00  0.00000000E+00  0.00000000E+00
  0.00000000E+00  0.00000000E+00  0.00000000E+00
  0.00000000E+00  0.00000000E+00  0.00000000E+00
  0.00000000E+00  0.00000000E+00  0.00000000E+00
  0.00000000E+00  0.00000000E+00  0.00000000E+00
  0.00000000E+00  0.00000000E+00  0.00000000E+00
  0.00000000E+00  0.00000000E+00  0.00000000E+00
  0.00000000E+00  0.00000000E+00  0.00000000E+00
  0.00000000E+00  0.00000000E+00  0.00000000E+00
  0.00000000E+00  0.00000000E+00  0.00000000E+00
  0.00000000E+00  0.00000000E+00  0.00000000E+00
  0.00000000E+00  0.00000000E+00  0.00000000E+00
  0.00000000E+00  0.00000000E+00  0.00000000E+00
  0.00000000E+00  0.00000000E+00  0.00000000E+00
  0.00000000E+00  0.00000000E+00  0.00000000E+00
  0.00000000E+00  0.00000000E+00  0.00000000E+00
  0.00000000E+00  0.00000000E+00  0.00000000E+00
  0.00000000E+00  0.00000000E+00  0.00000000E+00
  0.00000000E+00  0.00000000E+00  0.00000000E+00
  0.00000000E+00  0.00000000E+00  0.00000000E+00
  0.00000000E+00  0.00000000E+00  0.00000000E+00
  0.00000000E+00  0.00000000E+00  0.00000000E+00
  0.00000000E+00  0.00000000E+00  0.00000000E+00
  0.00000000E+00  0.00000000E+00  0.00000000E+00
  0.00000000E+00  0.00000000E+00  0.00000000E+00
  0.00000000E+00  0.00000000E+00  0.00000000E+00
  0.00000000E+00  0.00000000E+00  0.00000000E+00
  0.00000000E+00  0.00000000E+00  0.00000000E+00
  0.00000000E+00  0.00000000E+00  0.00000000E+00
  0.00000000E+00  0.00000000E+00  0.00000000E+00
  0.00000000E+00  0.00000000E+00  0.00000000E+00
  0.00000000E+00  0.00000000E+00  0.00000000E+00
  0.00000000E+00  0.00000000E+00  0.00000000E+00
  0.00000000E+00  0.00000000E+00  0.00000000E+00
  0.00000000E+00  0.00000000E+00  0.00000000E+00
  0.00000000E+00  0.00000000E+00  0.00000000E+00
  0.00000000E+00  0.00000000E+00  0.00000000E+00
  0.00000000E+00  0.00000000E+00  0.00000000E+00
  0.00000000E+00  0.00000000E+00  0.00000000E+00
  0.00000000E+00  0.00000000E+00  0.00000000E+00
  0.00000000E+00  0.00000000E+00  0.00000000E+00
  0.00000000E+00  0.00000000E+00  0.00000000E+00
  0.00000000E+00  0.00000000E+00  0.00000000E+00
  0.00000000E+00  0.00000000E+00  0.00000000E+00
  0.00000000E+00  0.00000000E+00  0.00000000E+00
  0.00000000E+00  0.00000000E+00  0.00000000E+00
  0.00000000E+00  0.00000000E+00  0.00000000E+00
  0.00000000E+00  0.00000000E+00  0.00000000E+00
  0.00000000E+00  0.00000000E+00  0.00000000E+00
  0.00000000E+00  0.00000000E+00  0.00000000E+00
  0.00000000E+00  0.00000000E+00  0.00000000E+00
  0.00000000E+00  0.00000000E+00  0.00000000E+00
  0.00000000E+00  0.00000000E+00  0.00000000E+00
  0.00000000E+00  0.00000000E+00  0.00000000E+00
  0.00000000E+00  0.00000000E+00  0.00000000E+00
  0.00000000E+00  0.00000000E+00  0.00000000E+00
  0.00000000E+00  0.00000000E+00  0.00000000E+00
  0.00000000E+00  0.00000000E+00  0.00000000E+00
  0.00000000E+00  0.00000000E+00  0.00000000E+00
  0.00000000E+00  0.00000000E+00  0.00000000E+00
  0.00000000E+00  0.00000000E+00  0.00000000E+00
  0.00000000E+00  0.00000000E+00  0.00000000E+00
  0.00000000E+00  0.00000000E+00  0.00000000E+00
  0.00000000E+00  0.00000000E+00  0.00000000E+00
  0.00000000E+00  0.00000000E+00  0.00000000E+00
  0.00000000E+00  0.00000000E+00  0.00000000E+00
  0.00000000E+00  0.00000000E+00  0.00000000E+00
