POSCAR                                  
   1.00000000000000     
    10.0407485566749735   -0.0119128348523130    0.0022088613562027
    -0.0119293917901982   10.0213725125173490    0.0065704912080592
     0.0014673375555512    0.0043962878444670    6.6352138328365697
   Zr   Na   Mg   Ca   H 
     9     9     9     9   216
Direct
  0.1780242228320077  0.1702024814852834  0.2507047219256791
  0.1672474403394517  0.5033428642631179  0.2443230259248708
  0.8292016295227640  0.1713053359854158  0.2503813709863607
  0.6604189076806009  0.3397645280698143  0.4986881877246674
  0.8305461761118877  0.1679488426894764  0.7512939345436251
  0.3380763935968787  0.0018842868615181  0.9932439140327958
  0.9910669502379008  0.6668775420274784  0.5005951545886020
  0.6606524882645459  0.9966547272062414  0.9998574773461470
  0.0021809841155829  0.9944441567831959  0.0022035424898874
  0.1696512411069051  0.1682009193927456  0.7510738769413834
  0.3340949035283742  0.3348094164915665  0.4967881781046941
  0.4972667593040399  0.1695034662821371  0.7498207589497241
  0.3419485780461287  0.3410226844634323  0.9995644557362553
  0.6669582538381533  0.3385623510749980  0.0003513249501239
  0.8263555355089665  0.5029114473704652  0.2507923146839346
  0.6677570856349604  0.6677677483868436  0.5053240082493389
  0.4980801491829467  0.8317807448069345  0.7523854590551977
  0.8305319401553035  0.8267368904344252  0.2460663914908068
  0.4991441063710269  0.1689145116167552  0.2514279923771738
  0.1664351466718230  0.8309027238477213  0.2506200200406781
  0.5077204439895624  0.5023707728603100  0.2506981198573470
  0.3332721100594185  0.6596474937544841  0.9985253630349362
  0.8281783432917109  0.5039384375894898  0.7501898422072983
  0.6688382056521576  0.6613893339141796  0.9993177135461266
  0.9981688046572401  0.3408347657795758  0.0000227476857617
  0.8290913519589012  0.8266464602507995  0.7507067893312040
  0.9984867917167932  0.6631852251209267  0.0009561005033447
  0.1641691261284848  0.4972384468659286  0.7519011400162299
  0.3408702102118113  0.6664152910029557  0.4983489185988788
  0.1642219484293861  0.8334507419831212  0.7486893973976194
  0.4988612219977995  0.4989396502828001  0.7525885858931360
  0.5013382121840735  0.8285146434915518  0.2507445213475208
  0.3356374329236900  0.0011888220680021  0.5025072351864921
  0.0057207065427676  0.3353214119215195  0.5037643643759395
  0.6653990422084775  0.9923441482093196  0.5009754657929548
  0.0006501227240818  0.9992190556985321  0.5004925892555363
  0.1672134860639858  0.0869038037091414  0.9918224855794620
  0.1696218473854429  0.0838716372790103  0.5094603807753586
  0.1694079638440940  0.4089944399061807  0.9998190076400633
  0.5004847897346565  0.0892073831863271  0.9919438823476696
  0.3464436581714097  0.2547046504765120  0.2406848387638263
  0.1755191378450647  0.4156674287249515  0.4937967369724419
  0.5027445431121862  0.0848293050791398  0.5102767372469259
  0.3361120610438206  0.2476611128377542  0.7617821727864893
  0.1751624201193849  0.7524572499611821  0.0074796402859292
  0.5075528926440924  0.4149090526006916  0.0195010185082367
  0.3351770249203767  0.5831548854950555  0.2452006704744463
  0.1720806765166643  0.7521527189119084  0.4920279902898272
  0.8350962254203864  0.0813376536746730  0.9968908154998743
  0.6547920915783862  0.2503302799359446  0.2376643262925171
  0.4966618657676278  0.4159498181046715  0.4874835395589514
  0.3339609130576591  0.5850922197927915  0.7533516978469734
  0.8305860122786441  0.0816166257878024  0.5034817840717878
  0.6580131282430486  0.2513532807901413  0.7634304971788453
  0.5078666844506756  0.7486602461819416  0.9946552845648995
  0.3285831632840157  0.9150457357942372  0.2490114567623465
  0.8345694244619253  0.4152033456028761  0.9903845214355513
  0.6706907862493878  0.5858370252441816  0.2487301968254343
  0.5077495930000850  0.7442488482632967  0.5136929274444384
  0.3369841471334851  0.9139305287616253  0.7485333955662909
  0.0055008385488762  0.2530773665826658  0.2374720869244840
  0.8328788699111911  0.4160870174538474  0.5107371712243349
  0.6699048024176193  0.5833358744202712  0.7509225642321979
  0.0083688941034907  0.2542525685610002  0.7645652407439698
  0.8259384170537203  0.7522287968149470  0.9924831250545196
  0.6721490058374897  0.9130898301362791  0.2494853591528354
  0.9955916511103098  0.5826312884354579  0.2402583183637290
  0.8222291783984019  0.7535647822542089  0.5045487090521448
  0.6653616258649748  0.9109291724915707  0.7523564354439003
  0.9917957005473426  0.5806818370427607  0.7642912514369868
  0.0020159360671315  0.9117071664945939  0.2511932837422179
  0.9883968514633139  0.9122897998407566  0.7486581917492146
  0.0854757136690765  0.1821247895517502  0.9913091258855857
  0.0860686091887288  0.1675760297118885  0.5052434103461394
  0.0804427358669955  0.4987174975025255  0.9991009456652478
  0.4222338767630873  0.1779461002759675  0.0055049594016694
  0.2609127075092843  0.3422868223796272  0.2450815970005706
  0.0825044469052258  0.5040250962989461  0.4982504212904360
  0.4184966693620780  0.1738285630734566  0.4951439888984766
  0.2510424257416730  0.3357546814719896  0.7617235123079666
  0.0845994158797296  0.8214831539032019  0.0082258087833296
  0.4161610913111602  0.5034342317376144  0.0186743801082940
  0.2518157525752187  0.6676697654828843  0.2439744430019672
  0.0825929827077516  0.8297181824050455  0.4905002374833529
  0.7453859160994725  0.1749065900005959  0.0019277521700545
  0.5818829122698546  0.3289312643915636  0.2404146730863701
  0.4137161982416302  0.4936787112014827  0.4812120285952233
  0.2484491248218887  0.6642672063734452  0.7522161028805385
  0.7460633286407869  0.1657261067765532  0.5000851614126915
  0.5816273119505624  0.3307960591700336  0.7654162976614103
  0.4153063412364233  0.8239768444756024  0.9965339962204638
  0.2510611912190583  0.9948650107744754  0.2458367550557625
  0.7511529657933593  0.5081774901330363  0.0068383290711083
  0.5838643772333967  0.6620558547355841  0.2560117074065147
  0.4184030497899514  0.8361422861816550  0.5075664152828381
  0.2473957476205655  0.0048928584092849  0.7522438438844929
  0.9160681276186082  0.3412916238293278  0.2477085621667285
  0.7522733826163801  0.5113244666087269  0.4965571694061808
  0.5848035415754396  0.6703042786678921  0.7566199704852181
  0.9157258691653354  0.3376560328390994  0.7525071926465046
  0.7511533598283791  0.8188263053624070  0.9954348122083729
  0.5798838596940854  0.0064951858197375  0.2536841945667589
  0.9083021000621301  0.6639946748852097  0.2234350346404241
  0.7510042321150578  0.8235416461139167  0.5028242812518684
  0.5815543752705352  0.9970973137902703  0.7491277450539613
  0.9120536408900151  0.6621513961043561  0.7699792253123192
  0.9156690896420656  0.9937775633217143  0.2488337057437775
  0.9148725063627552  0.9979201972067315  0.7545170620497075
  0.1687540891695321  0.9917539299692848  0.1301884483724720
  0.1681323309883780  0.0093532197053463  0.6208996654911161
  0.1713135285136573  0.3369250597675943  0.1192981977760539
  0.4998434718244198  0.0070281147297848  0.1299881793418152
  0.3465827140051800  0.1703482345136109  0.3787670949252515
  0.1766435015158478  0.3243203259825123  0.6243043714641345
  0.5005114766777083  0.0028261493156947  0.6219327427671644
  0.3334320707541778  0.1903949487906829  0.8661618350616251
  0.1617445036668528  0.6717010057122579  0.1225502074460820
  0.5065585531873467  0.3435937032219414  0.1238469692594890
  0.3515234082157335  0.5005931313023879  0.3733097243446295
  0.1695937834459897  0.6653080420907500  0.6252407133649456
  0.8311984004373372  0.9913493100746251  0.1297001948222984
  0.6591199445053917  0.1644418985965501  0.3786228099074336
  0.4831208132478935  0.3268181569658140  0.6304710880130671
  0.3318936876926770  0.5011215609847426  0.8749602342170490
  0.8324870008052443  0.9818115091376995  0.6204840241429821
  0.6586250158745628  0.1805124596016299  0.8735754962139950
  0.5044237582989481  0.6564088531156926  0.1245443512950288
  0.3290940415954893  0.8328992264794763  0.3709239876363384
  0.8267489323336861  0.3433283515100456  0.1268863871390948
  0.6654509930123282  0.5100378358070543  0.3781891058451947
  0.5085316689904644  0.6761168285188077  0.6275814620067095
  0.3348789203922067  0.8143467588324853  0.8732380602247645
  0.0002875383999026  0.1675858318819081  0.3762719564774883
  0.8364728813813258  0.3435809806556520  0.6234606608548461
  0.6674157071440021  0.4966303733844342  0.8733444117177598
  0.0045580475493878  0.1742108742181045  0.8777783763335165
  0.8397770599703733  0.6634827842575035  0.1243887683754394
  0.6717584994751604  0.8234632728766300  0.3740577181755995
  0.9789780033725179  0.4994480202877369  0.3746218494154192
  0.8268355037921040  0.6701811697282025  0.6288444341676609
  0.6635126049961286  0.8251127072216136  0.8739093830965317
  0.9918912341780270  0.5046063474268152  0.8741014641443741
  0.9914562463566270  0.8321199713439356  0.3705970373594170
  0.9942392076980440  0.8177791672170329  0.8746799827354508
  0.0851222511367524  0.0011287256781571  0.2508656438793935
  0.0825510773855669  0.0065988882406458  0.7524878794732430
  0.0807682423353882  0.3289901629548595  0.2373541629129861
  0.4173469689304810  0.0030490328807105  0.2483257634092979
  0.2556007990702795  0.1733263332132893  0.5144937990025227
  0.0807509885109070  0.3266687951007796  0.7690356401193341
  0.4188667973389784  0.0045709724312530  0.7487630208175489
  0.2529526470487511  0.1781194624843039  0.9885089505584688
  0.0819266345975294  0.6730136292769728  0.2349774385674479
  0.4195843953901743  0.3382374144476046  0.2520999708595539
  0.2516328729231176  0.4986320090842113  0.5004804405733765
  0.0824693431740116  0.6653840513666367  0.7682517457408125
  0.7502368792501954  0.9902034635105750  0.2474917274300452
  0.5809950326567375  0.1641162373264606  0.5016469740840961
  0.4173857144286544  0.3314621673205806  0.7340209785347298
  0.2515596159614759  0.4985400715031503  0.9972606566144719
  0.7498938857623045  0.9863261264636165  0.7516398919110756
  0.5818216914589627  0.1739487086616762  0.0020728644537726
  0.4198983579138940  0.6583689716808294  0.2310214686550367
  0.2487733023823182  0.8279327809727661  0.4934655176427469
  0.7487761425542629  0.3452437590872890  0.2351433137553300
  0.5817305529358094  0.5144627846255077  0.4965600357519122
  0.4185550677060945  0.6647541768937870  0.7647378663780273
  0.2490285733177018  0.8276819632689509  0.0009657963327498
  0.9216607140417068  0.1700219951468753  0.4970123151645183
  0.7502282795959232  0.3413698067279611  0.7587616985660972
  0.5831930952859068  0.5045159784347888  0.0034457934478453
  0.9219113269554100  0.1743936838974847  0.0027624826624830
  0.7491773972112910  0.6609957092501730  0.2572864448568950
  0.5868256074938429  0.8254731497626153  0.5167721806887471
  0.9165587412831613  0.4975027520892041  0.4815048265918378
  0.7499481178699128  0.6684305341066548  0.7527497245425323
  0.5785156104072584  0.8115849032718785  0.9887003488718946
  0.9154721622997002  0.5045317785430328  0.0180054989696501
  0.9159662841797100  0.8327047366015634  0.4806706717075286
  0.9138024465793535  0.8217555634156923  0.0079370469512696
  0.9986749250298601  0.1726758647388991  0.1206677232787214
  0.0086521869242588  0.1682854550342867  0.6278028351805673
  0.9754063957044110  0.5081549996783465  0.1198789950062604
  0.3439560033475502  0.1796844852316113  0.1201917837257369
  0.1734184790245976  0.3349901535872846  0.3768335232447626
  0.9901230981584490  0.5016207893556341  0.6289064265711843
  0.3302831915042361  0.1737620050196824  0.6237416325564453
  0.1817970704194778  0.3299466729253737  0.8713489341253151
  0.9931368881562364  0.8198370451746939  0.1248122950949124
  0.3531812601924003  0.5021181760748590  0.1236282858779987
  0.1686197561685319  0.6735626888332789  0.3741483658298250
  0.9874587022018062  0.8329828605145124  0.6283701215868973
  0.6594395553737229  0.1787400302020714  0.1224798821572861
  0.4942763684645399  0.3358130092299803  0.3737136322736987
  0.3321545485908999  0.4952324553822791  0.6216568910039371
  0.1610226391243970  0.6664209137962089  0.8725741416657797
  0.6574927286892560  0.1644308908345167  0.6268698048983907
  0.5060388080725531  0.3286067656210250  0.8786113919052951
  0.3318322452076288  0.8190856654057654  0.1238315686911307
  0.1681126593182682  0.9946164579084495  0.3759320454548671
  0.6671155449905513  0.5007096516803671  0.1269752185498447
  0.5140337875060155  0.6624849161156234  0.3731867028223235
  0.3395464626022004  0.8329727651565619  0.6263784533984449
  0.1705797902338730  0.0050796858525217  0.8686522980193772
  0.8369029618900683  0.3409572021960585  0.3724522482768649
  0.6653269352636855  0.5079217581689193  0.6258618244491529
  0.4899675254873941  0.6630364787313070  0.8756093914687497
  0.8312403886538533  0.3493020267793838  0.8815145000005202
  0.6712621547484829  0.8164501622929663  0.1261475004152146
  0.5015540834927990  0.0018354521931911  0.3750569792618847
  0.8228935668056963  0.6685112846295667  0.3705058314352812
  0.6585898672714734  0.8262568107745238  0.6267313665617849
  0.4996463932291846  0.0042556383747154  0.8643958169450627
  0.8417837724712598  0.6568756581520532  0.8786539925524366
  0.8330446363126427  0.9892248958606586  0.3731967706352179
  0.8318517066794300  0.9872749579077293  0.8731745727195843
  0.0049415023740096  0.0833740115313120  0.2484503999203085
  0.0046675878546409  0.0843838012274674  0.7543645913699919
  0.9966983189851106  0.4159173129094214  0.2410161513687896
  0.3412999258360969  0.0852011927470429  0.2528244987124779
  0.1758502440844225  0.2537988835647766  0.5154216557415339
  0.9843832146987168  0.4167102704693804  0.7615009764230791
  0.3357572195319349  0.0862639057743522  0.7468936026175044
  0.1725515193699678  0.2497382122396772  0.9906683512337509
  0.9999333067169616  0.7498834838900734  0.2398987940802897
  0.3383978830532683  0.4129602278330111  0.2458568129757310
  0.1711409275464817  0.5846100332365154  0.4992583705715887
  0.9906039409627994  0.7502043790052682  0.7669770482297480
  0.6597584436774895  0.0844338988831694  0.2547807711612293
  0.4940832783349123  0.2518306602214508  0.4967177501471838
  0.3305933955706593  0.4113852981823669  0.7479896161576107
  0.1641644155231816  0.5867480235860540  0.9986423194812986
  0.6591248388314028  0.0845569254681706  0.7445807469755437
  0.4995493668537137  0.2522442149697000  0.0014432449635819
  0.3281623812481627  0.7525504596851817  0.2305013135319598
  0.1669722765557751  0.9160635930579204  0.4835409393313910
  0.6661485212652565  0.4169699793249393  0.2372990003693829
  0.5093249072771684  0.5823664617777951  0.4976207890943058
  0.3332618079488512  0.7518798584059141  0.7633253013501715
  0.1711209645917009  0.9123084109209003  0.0118421926227512
  0.8343939548159227  0.2539268057194093  0.5070221994512778
  0.6719740161301431  0.4165384953223423  0.7648667762343422
  0.5151506498571905  0.5857345140021124  0.0013343022948646
  0.8370557257565352  0.2534449985468115  0.9950562049659482
  0.6694241674752703  0.7505335002302758  0.2395169405451156
  0.4973555131725860  0.9121578072395238  0.5071881290818467
  0.8220869337400600  0.5799852193832535  0.5080501104843478
  0.6650116977709217  0.7473396642870043  0.7626064780812598
  0.4972366280742904  0.9092168164188621  0.9932487753556600
  0.8182524065499237  0.5771617022411348  0.9961164473258393
  0.8346804914317048  0.9167250742079958  0.5003602515544685
  0.8301055267680795  0.9130147511948294  0.9954448296977390
 
  0.00000000E+00  0.00000000E+00  0.00000000E+00
  0.00000000E+00  0.00000000E+00  0.00000000E+00
  0.00000000E+00  0.00000000E+00  0.00000000E+00
  0.00000000E+00  0.00000000E+00  0.00000000E+00
  0.00000000E+00  0.00000000E+00  0.00000000E+00
  0.00000000E+00  0.00000000E+00  0.00000000E+00
  0.00000000E+00  0.00000000E+00  0.00000000E+00
  0.00000000E+00  0.00000000E+00  0.00000000E+00
  0.00000000E+00  0.00000000E+00  0.00000000E+00
  0.00000000E+00  0.00000000E+00  0.00000000E+00
  0.00000000E+00  0.00000000E+00  0.00000000E+00
  0.00000000E+00  0.00000000E+00  0.00000000E+00
  0.00000000E+00  0.00000000E+00  0.00000000E+00
  0.00000000E+00  0.00000000E+00  0.00000000E+00
  0.00000000E+00  0.00000000E+00  0.00000000E+00
  0.00000000E+00  0.00000000E+00  0.00000000E+00
  0.00000000E+00  0.00000000E+00  0.00000000E+00
  0.00000000E+00  0.00000000E+00  0.00000000E+00
  0.00000000E+00  0.00000000E+00  0.00000000E+00
  0.00000000E+00  0.00000000E+00  0.00000000E+00
  0.00000000E+00  0.00000000E+00  0.00000000E+00
  0.00000000E+00  0.00000000E+00  0.00000000E+00
  0.00000000E+00  0.00000000E+00  0.00000000E+00
  0.00000000E+00  0.00000000E+00  0.00000000E+00
  0.00000000E+00  0.00000000E+00  0.00000000E+00
  0.00000000E+00  0.00000000E+00  0.00000000E+00
  0.00000000E+00  0.00000000E+00  0.00000000E+00
  0.00000000E+00  0.00000000E+00  0.00000000E+00
  0.00000000E+00  0.00000000E+00  0.00000000E+00
  0.00000000E+00  0.00000000E+00  0.00000000E+00
  0.00000000E+00  0.00000000E+00  0.00000000E+00
  0.00000000E+00  0.00000000E+00  0.00000000E+00
  0.00000000E+00  0.00000000E+00  0.00000000E+00
  0.00000000E+00  0.00000000E+00  0.00000000E+00
  0.00000000E+00  0.00000000E+00  0.00000000E+00
  0.00000000E+00  0.00000000E+00  0.00000000E+00
  0.00000000E+00  0.00000000E+00  0.00000000E+00
  0.00000000E+00  0.00000000E+00  0.00000000E+00
  0.00000000E+00  0.00000000E+00  0.00000000E+00
  0.00000000E+00  0.00000000E+00  0.00000000E+00
  0.00000000E+00  0.00000000E+00  0.00000000E+00
  0.00000000E+00  0.00000000E+00  0.00000000E+00
  0.00000000E+00  0.00000000E+00  0.00000000E+00
  0.00000000E+00  0.00000000E+00  0.00000000E+00
  0.00000000E+00  0.00000000E+00  0.00000000E+00
  0.00000000E+00  0.00000000E+00  0.00000000E+00
  0.00000000E+00  0.00000000E+00  0.00000000E+00
  0.00000000E+00  0.00000000E+00  0.00000000E+00
  0.00000000E+00  0.00000000E+00  0.00000000E+00
  0.00000000E+00  0.00000000E+00  0.00000000E+00
  0.00000000E+00  0.00000000E+00  0.00000000E+00
  0.00000000E+00  0.00000000E+00  0.00000000E+00
  0.00000000E+00  0.00000000E+00  0.00000000E+00
  0.00000000E+00  0.00000000E+00  0.00000000E+00
  0.00000000E+00  0.00000000E+00  0.00000000E+00
  0.00000000E+00  0.00000000E+00  0.00000000E+00
  0.00000000E+00  0.00000000E+00  0.00000000E+00
  0.00000000E+00  0.00000000E+00  0.00000000E+00
  0.00000000E+00  0.00000000E+00  0.00000000E+00
  0.00000000E+00  0.00000000E+00  0.00000000E+00
  0.00000000E+00  0.00000000E+00  0.00000000E+00
  0.00000000E+00  0.00000000E+00  0.00000000E+00
  0.00000000E+00  0.00000000E+00  0.00000000E+00
  0.00000000E+00  0.00000000E+00  0.00000000E+00
  0.00000000E+00  0.00000000E+00  0.00000000E+00
  0.00000000E+00  0.00000000E+00  0.00000000E+00
  0.00000000E+00  0.00000000E+00  0.00000000E+00
  0.00000000E+00  0.00000000E+00  0.00000000E+00
  0.00000000E+00  0.00000000E+00  0.00000000E+00
  0.00000000E+00  0.00000000E+00  0.00000000E+00
  0.00000000E+00  0.00000000E+00  0.00000000E+00
  0.00000000E+00  0.00000000E+00  0.00000000E+00
  0.00000000E+00  0.00000000E+00  0.00000000E+00
  0.00000000E+00  0.00000000E+00  0.00000000E+00
  0.00000000E+00  0.00000000E+00  0.00000000E+00
  0.00000000E+00  0.00000000E+00  0.00000000E+00
  0.00000000E+00  0.00000000E+00  0.00000000E+00
  0.00000000E+00  0.00000000E+00  0.00000000E+00
  0.00000000E+00  0.00000000E+00  0.00000000E+00
  0.00000000E+00  0.00000000E+00  0.00000000E+00
  0.00000000E+00  0.00000000E+00  0.00000000E+00
  0.00000000E+00  0.00000000E+00  0.00000000E+00
  0.00000000E+00  0.00000000E+00  0.00000000E+00
  0.00000000E+00  0.00000000E+00  0.00000000E+00
  0.00000000E+00  0.00000000E+00  0.00000000E+00
  0.00000000E+00  0.00000000E+00  0.00000000E+00
  0.00000000E+00  0.00000000E+00  0.00000000E+00
  0.00000000E+00  0.00000000E+00  0.00000000E+00
  0.00000000E+00  0.00000000E+00  0.00000000E+00
  0.00000000E+00  0.00000000E+00  0.00000000E+00
  0.00000000E+00  0.00000000E+00  0.00000000E+00
  0.00000000E+00  0.00000000E+00  0.00000000E+00
  0.00000000E+00  0.00000000E+00  0.00000000E+00
  0.00000000E+00  0.00000000E+00  0.00000000E+00
  0.00000000E+00  0.00000000E+00  0.00000000E+00
  0.00000000E+00  0.00000000E+00  0.00000000E+00
  0.00000000E+00  0.00000000E+00  0.00000000E+00
  0.00000000E+00  0.00000000E+00  0.00000000E+00
  0.00000000E+00  0.00000000E+00  0.00000000E+00
  0.00000000E+00  0.00000000E+00  0.00000000E+00
  0.00000000E+00  0.00000000E+00  0.00000000E+00
  0.00000000E+00  0.00000000E+00  0.00000000E+00
  0.00000000E+00  0.00000000E+00  0.00000000E+00
  0.00000000E+00  0.00000000E+00  0.00000000E+00
  0.00000000E+00  0.00000000E+00  0.00000000E+00
  0.00000000E+00  0.00000000E+00  0.00000000E+00
  0.00000000E+00  0.00000000E+00  0.00000000E+00
  0.00000000E+00  0.00000000E+00  0.00000000E+00
  0.00000000E+00  0.00000000E+00  0.00000000E+00
  0.00000000E+00  0.00000000E+00  0.00000000E+00
  0.00000000E+00  0.00000000E+00  0.00000000E+00
  0.00000000E+00  0.00000000E+00  0.00000000E+00
  0.00000000E+00  0.00000000E+00  0.00000000E+00
  0.00000000E+00  0.00000000E+00  0.00000000E+00
  0.00000000E+00  0.00000000E+00  0.00000000E+00
  0.00000000E+00  0.00000000E+00  0.00000000E+00
  0.00000000E+00  0.00000000E+00  0.00000000E+00
  0.00000000E+00  0.00000000E+00  0.00000000E+00
  0.00000000E+00  0.00000000E+00  0.00000000E+00
  0.00000000E+00  0.00000000E+00  0.00000000E+00
  0.00000000E+00  0.00000000E+00  0.00000000E+00
  0.00000000E+00  0.00000000E+00  0.00000000E+00
  0.00000000E+00  0.00000000E+00  0.00000000E+00
  0.00000000E+00  0.00000000E+00  0.00000000E+00
  0.00000000E+00  0.00000000E+00  0.00000000E+00
  0.00000000E+00  0.00000000E+00  0.00000000E+00
  0.00000000E+00  0.00000000E+00  0.00000000E+00
  0.00000000E+00  0.00000000E+00  0.00000000E+00
  0.00000000E+00  0.00000000E+00  0.00000000E+00
  0.00000000E+00  0.00000000E+00  0.00000000E+00
  0.00000000E+00  0.00000000E+00  0.00000000E+00
  0.00000000E+00  0.00000000E+00  0.00000000E+00
  0.00000000E+00  0.00000000E+00  0.00000000E+00
  0.00000000E+00  0.00000000E+00  0.00000000E+00
  0.00000000E+00  0.00000000E+00  0.00000000E+00
  0.00000000E+00  0.00000000E+00  0.00000000E+00
  0.00000000E+00  0.00000000E+00  0.00000000E+00
  0.00000000E+00  0.00000000E+00  0.00000000E+00
  0.00000000E+00  0.00000000E+00  0.00000000E+00
  0.00000000E+00  0.00000000E+00  0.00000000E+00
  0.00000000E+00  0.00000000E+00  0.00000000E+00
  0.00000000E+00  0.00000000E+00  0.00000000E+00
  0.00000000E+00  0.00000000E+00  0.00000000E+00
  0.00000000E+00  0.00000000E+00  0.00000000E+00
  0.00000000E+00  0.00000000E+00  0.00000000E+00
  0.00000000E+00  0.00000000E+00  0.00000000E+00
  0.00000000E+00  0.00000000E+00  0.00000000E+00
  0.00000000E+00  0.00000000E+00  0.00000000E+00
  0.00000000E+00  0.00000000E+00  0.00000000E+00
  0.00000000E+00  0.00000000E+00  0.00000000E+00
  0.00000000E+00  0.00000000E+00  0.00000000E+00
  0.00000000E+00  0.00000000E+00  0.00000000E+00
  0.00000000E+00  0.00000000E+00  0.00000000E+00
  0.00000000E+00  0.00000000E+00  0.00000000E+00
  0.00000000E+00  0.00000000E+00  0.00000000E+00
  0.00000000E+00  0.00000000E+00  0.00000000E+00
  0.00000000E+00  0.00000000E+00  0.00000000E+00
  0.00000000E+00  0.00000000E+00  0.00000000E+00
  0.00000000E+00  0.00000000E+00  0.00000000E+00
  0.00000000E+00  0.00000000E+00  0.00000000E+00
  0.00000000E+00  0.00000000E+00  0.00000000E+00
  0.00000000E+00  0.00000000E+00  0.00000000E+00
  0.00000000E+00  0.00000000E+00  0.00000000E+00
  0.00000000E+00  0.00000000E+00  0.00000000E+00
  0.00000000E+00  0.00000000E+00  0.00000000E+00
  0.00000000E+00  0.00000000E+00  0.00000000E+00
  0.00000000E+00  0.00000000E+00  0.00000000E+00
  0.00000000E+00  0.00000000E+00  0.00000000E+00
  0.00000000E+00  0.00000000E+00  0.00000000E+00
  0.00000000E+00  0.00000000E+00  0.00000000E+00
  0.00000000E+00  0.00000000E+00  0.00000000E+00
  0.00000000E+00  0.00000000E+00  0.00000000E+00
  0.00000000E+00  0.00000000E+00  0.00000000E+00
  0.00000000E+00  0.00000000E+00  0.00000000E+00
  0.00000000E+00  0.00000000E+00  0.00000000E+00
  0.00000000E+00  0.00000000E+00  0.00000000E+00
  0.00000000E+00  0.00000000E+00  0.00000000E+00
  0.00000000E+00  0.00000000E+00  0.00000000E+00
  0.00000000E+00  0.00000000E+00  0.00000000E+00
  0.00000000E+00  0.00000000E+00  0.00000000E+00
  0.00000000E+00  0.00000000E+00  0.00000000E+00
  0.00000000E+00  0.00000000E+00  0.00000000E+00
  0.00000000E+00  0.00000000E+00  0.00000000E+00
  0.00000000E+00  0.00000000E+00  0.00000000E+00
  0.00000000E+00  0.00000000E+00  0.00000000E+00
  0.00000000E+00  0.00000000E+00  0.00000000E+00
  0.00000000E+00  0.00000000E+00  0.00000000E+00
  0.00000000E+00  0.00000000E+00  0.00000000E+00
  0.00000000E+00  0.00000000E+00  0.00000000E+00
  0.00000000E+00  0.00000000E+00  0.00000000E+00
  0.00000000E+00  0.00000000E+00  0.00000000E+00
  0.00000000E+00  0.00000000E+00  0.00000000E+00
  0.00000000E+00  0.00000000E+00  0.00000000E+00
  0.00000000E+00  0.00000000E+00  0.00000000E+00
  0.00000000E+00  0.00000000E+00  0.00000000E+00
  0.00000000E+00  0.00000000E+00  0.00000000E+00
  0.00000000E+00  0.00000000E+00  0.00000000E+00
  0.00000000E+00  0.00000000E+00  0.00000000E+00
  0.00000000E+00  0.00000000E+00  0.00000000E+00
  0.00000000E+00  0.00000000E+00  0.00000000E+00
  0.00000000E+00  0.00000000E+00  0.00000000E+00
  0.00000000E+00  0.00000000E+00  0.00000000E+00
  0.00000000E+00  0.00000000E+00  0.00000000E+00
  0.00000000E+00  0.00000000E+00  0.00000000E+00
  0.00000000E+00  0.00000000E+00  0.00000000E+00
  0.00000000E+00  0.00000000E+00  0.00000000E+00
  0.00000000E+00  0.00000000E+00  0.00000000E+00
  0.00000000E+00  0.00000000E+00  0.00000000E+00
  0.00000000E+00  0.00000000E+00  0.00000000E+00
  0.00000000E+00  0.00000000E+00  0.00000000E+00
  0.00000000E+00  0.00000000E+00  0.00000000E+00
  0.00000000E+00  0.00000000E+00  0.00000000E+00
  0.00000000E+00  0.00000000E+00  0.00000000E+00
  0.00000000E+00  0.00000000E+00  0.00000000E+00
  0.00000000E+00  0.00000000E+00  0.00000000E+00
  0.00000000E+00  0.00000000E+00  0.00000000E+00
  0.00000000E+00  0.00000000E+00  0.00000000E+00
  0.00000000E+00  0.00000000E+00  0.00000000E+00
  0.00000000E+00  0.00000000E+00  0.00000000E+00
  0.00000000E+00  0.00000000E+00  0.00000000E+00
  0.00000000E+00  0.00000000E+00  0.00000000E+00
  0.00000000E+00  0.00000000E+00  0.00000000E+00
  0.00000000E+00  0.00000000E+00  0.00000000E+00
  0.00000000E+00  0.00000000E+00  0.00000000E+00
  0.00000000E+00  0.00000000E+00  0.00000000E+00
  0.00000000E+00  0.00000000E+00  0.00000000E+00
  0.00000000E+00  0.00000000E+00  0.00000000E+00
  0.00000000E+00  0.00000000E+00  0.00000000E+00
  0.00000000E+00  0.00000000E+00  0.00000000E+00
  0.00000000E+00  0.00000000E+00  0.00000000E+00
  0.00000000E+00  0.00000000E+00  0.00000000E+00
  0.00000000E+00  0.00000000E+00  0.00000000E+00
  0.00000000E+00  0.00000000E+00  0.00000000E+00
  0.00000000E+00  0.00000000E+00  0.00000000E+00
  0.00000000E+00  0.00000000E+00  0.00000000E+00
  0.00000000E+00  0.00000000E+00  0.00000000E+00
  0.00000000E+00  0.00000000E+00  0.00000000E+00
  0.00000000E+00  0.00000000E+00  0.00000000E+00
  0.00000000E+00  0.00000000E+00  0.00000000E+00
  0.00000000E+00  0.00000000E+00  0.00000000E+00
  0.00000000E+00  0.00000000E+00  0.00000000E+00
  0.00000000E+00  0.00000000E+00  0.00000000E+00
  0.00000000E+00  0.00000000E+00  0.00000000E+00
  0.00000000E+00  0.00000000E+00  0.00000000E+00
  0.00000000E+00  0.00000000E+00  0.00000000E+00
  0.00000000E+00  0.00000000E+00  0.00000000E+00
  0.00000000E+00  0.00000000E+00  0.00000000E+00
  0.00000000E+00  0.00000000E+00  0.00000000E+00
  0.00000000E+00  0.00000000E+00  0.00000000E+00
  0.00000000E+00  0.00000000E+00  0.00000000E+00
  0.00000000E+00  0.00000000E+00  0.00000000E+00
  0.00000000E+00  0.00000000E+00  0.00000000E+00
