       N       E                     dE             d eps       ncg     rms          rms(c)
DAV:   1     0.135119998507E+05    0.13512E+05   -0.25235E+05 15976   0.240E+03
DAV:   2     0.228061313111E+04   -0.11231E+05   -0.10535E+05 15960   0.798E+02
DAV:   3    -0.475593652202E+03   -0.27562E+04   -0.25219E+04 20512   0.410E+02
DAV:   4    -0.884483144334E+03   -0.40889E+03   -0.38586E+03 26872   0.217E+02
DAV:   5    -0.911021952606E+03   -0.26539E+02   -0.25789E+02 26560   0.695E+01    0.213E+02
DAV:   6    -0.696817717594E+03    0.21420E+03   -0.29444E+02 29528   0.878E+01    0.809E+01
DAV:   7    -0.692933272309E+03    0.38844E+01   -0.27607E+02 27120   0.441E+01    0.470E+01
DAV:   8    -0.691675868706E+03    0.12574E+01   -0.34922E+01 27328   0.194E+01    0.180E+01
DAV:   9    -0.691312710785E+03    0.36316E+00   -0.41494E+00 26024   0.763E+00    0.911E+00
DAV:  10    -0.691214727642E+03    0.97983E-01   -0.68282E-01 26784   0.379E+00    0.690E+00
DAV:  11    -0.691182800890E+03    0.31927E-01   -0.13692E-01 26016   0.138E+00    0.413E+00
DAV:  12    -0.691180041198E+03    0.27597E-02   -0.58116E-02 26336   0.864E-01    0.660E-01
DAV:  13    -0.691178012484E+03    0.20287E-02   -0.15253E-02 26304   0.522E-01    0.269E-01
DAV:  14    -0.691178024539E+03   -0.12055E-04   -0.23952E-03 25960   0.170E-01    0.118E-01
DAV:  15    -0.691178018968E+03    0.55713E-05   -0.20772E-04 27984   0.544E-02    0.879E-02
DAV:  16    -0.691178016788E+03    0.21799E-05   -0.35679E-05 27240   0.243E-02    0.349E-02
DAV:  17    -0.691178009066E+03    0.77225E-05   -0.82175E-06 23680   0.165E-02    0.177E-02
DAV:  18    -0.691178007613E+03    0.14532E-05   -0.13738E-06 14848   0.743E-03    0.636E-03
DAV:  19    -0.691178007704E+03   -0.91190E-07   -0.69983E-07 13608   0.471E-03
   1 F= 0.14224754E+03 E0= 0.14225336E+03  d E =0.142248E+03
