opt                                     
           1
    10.040749   -0.011913    0.002209
    -0.011929   10.021373    0.006570
     0.001467    0.004396    6.635214
   Zr   Na   Mg   Ca   H 
   9   9   9   9 216
Direct configuration=     1
   0.17802422  0.17020248  0.25070472
   0.16724744  0.50334286  0.24432303
   0.82920163  0.17130534  0.25038137
   0.66041891  0.33976453  0.49868819
   0.83054618  0.16794884  0.75129393
   0.33807639  0.00188429  0.99324391
   0.99106695  0.66687754  0.50059515
   0.66065249  0.99665473  0.99985748
   0.00218098  0.99444416  0.00220354
   0.16965124  0.16820092  0.75107388
   0.33409490  0.33480942  0.49678818
   0.49726676  0.16950347  0.74982076
   0.34194858  0.34102268  0.99956446
   0.66695825  0.33856235  0.00035132
   0.82635554  0.50291145  0.25079231
   0.66775709  0.66776775  0.50532401
   0.49808015  0.83178074  0.75238546
   0.83053194  0.82673689  0.24606639
   0.49914411  0.16891451  0.25142799
   0.16643515  0.83090272  0.25062002
   0.50772044  0.50237077  0.25069812
   0.33327211  0.65964749  0.99852536
   0.82817834  0.50393844  0.75018984
   0.66883821  0.66138933  0.99931771
   0.99816880  0.34083477  0.00002275
   0.82909135  0.82664646  0.75070679
   0.99848679  0.66318523  0.00095610
   0.16416913  0.49723845  0.75190114
   0.34087021  0.66641529  0.49834892
   0.16422195  0.83345074  0.74868940
   0.49886122  0.49893965  0.75258859
   0.50133821  0.82851464  0.25074452
   0.33563743  0.00118882  0.50250724
   0.00572071  0.33532141  0.50376436
   0.66539904  0.99234415  0.50097547
   0.00065012  0.99921906  0.50049259
   0.16721349  0.08690380  0.99182249
   0.16962185  0.08387164  0.50946038
   0.16940796  0.40899444  0.99981901
   0.50048479  0.08920738  0.99194388
   0.34644366  0.25470465  0.24068484
   0.17551914  0.41566743  0.49379674
   0.50274454  0.08482931  0.51027674
   0.33611206  0.24766111  0.76178217
   0.17516242  0.75245725  0.00747964
   0.50755289  0.41490905  0.01950102
   0.33517702  0.58315489  0.24520067
   0.17208068  0.75215272  0.49202799
   0.83509623  0.08133765  0.99689082
   0.65479209  0.25033028  0.23766433
   0.49666187  0.41594982  0.48748354
   0.33396091  0.58509222  0.75335170
   0.83058601  0.08161663  0.50348178
   0.65801313  0.25135328  0.76343050
   0.50786668  0.74866025  0.99465528
   0.32858316  0.91504574  0.24901146
   0.83456942  0.41520335  0.99038452
   0.67069079  0.58583703  0.24873020
   0.50774959  0.74424885  0.51369293
   0.33698415  0.91393053  0.74853340
   0.00550084  0.25307737  0.23747209
   0.83287887  0.41608702  0.51073717
   0.66990480  0.58333587  0.75092256
   0.00836889  0.25425257  0.76456524
   0.82593842  0.75222880  0.99248313
   0.67214901  0.91308983  0.24948536
   0.99559165  0.58263129  0.24025832
   0.82222918  0.75356478  0.50454871
   0.66536163  0.91092917  0.75235644
   0.99179570  0.58068184  0.76429125
   0.00201594  0.91170717  0.25119328
   0.98839685  0.91228980  0.74865819
   0.08547571  0.18212479  0.99130913
   0.08606861  0.16757603  0.50524341
   0.08044274  0.49871750  0.99910095
   0.42223388  0.17794610  0.00550496
   0.26091271  0.34228682  0.24508160
   0.08250445  0.50402510  0.49825042
   0.41849667  0.17382856  0.49514399
   0.25104243  0.33575468  0.76172351
   0.08459942  0.82148315  0.00822581
   0.41616109  0.50343423  0.01867438
   0.25181575  0.66766977  0.24397444
   0.08259298  0.82971818  0.49050024
   0.74538592  0.17490659  0.00192775
   0.58188291  0.32893126  0.24041467
   0.41371620  0.49367871  0.48121203
   0.24844912  0.66426721  0.75221610
   0.74606333  0.16572611  0.50008516
   0.58162731  0.33079606  0.76541630
   0.41530634  0.82397684  0.99653400
   0.25106119  0.99486501  0.24583676
   0.75115297  0.50817749  0.00683833
   0.58386438  0.66205585  0.25601171
   0.41840305  0.83614229  0.50756642
   0.24739575  0.00489286  0.75224384
   0.91606813  0.34129162  0.24770856
   0.75227338  0.51132447  0.49655717
   0.58480354  0.67030428  0.75661997
   0.91572587  0.33765603  0.75250719
   0.75115336  0.81882631  0.99543481
   0.57988386  0.00649519  0.25368419
   0.90830210  0.66399467  0.22343503
   0.75100423  0.82354165  0.50282428
   0.58155438  0.99709731  0.74912775
   0.91205364  0.66215140  0.76997923
   0.91566909  0.99377756  0.24883371
   0.91487251  0.99792020  0.75451706
   0.16875409  0.99175393  0.13018845
   0.16813233  0.00935322  0.62089967
   0.17131353  0.33692506  0.11929820
   0.49984347  0.00702811  0.12998818
   0.34658271  0.17034823  0.37876709
   0.17664350  0.32432033  0.62430437
   0.50051148  0.00282615  0.62193274
   0.33343207  0.19039495  0.86616184
   0.16174450  0.67170101  0.12255021
   0.50655855  0.34359370  0.12384697
   0.35152341  0.50059313  0.37330972
   0.16959378  0.66530804  0.62524071
   0.83119840  0.99134931  0.12970019
   0.65911994  0.16444190  0.37862281
   0.48312081  0.32681816  0.63047109
   0.33189369  0.50112156  0.87496023
   0.83248700  0.98181151  0.62048402
   0.65862502  0.18051246  0.87357550
   0.50442376  0.65640885  0.12454435
   0.32909404  0.83289923  0.37092399
   0.82674893  0.34332835  0.12688639
   0.66545099  0.51003784  0.37818911
   0.50853167  0.67611683  0.62758146
   0.33487892  0.81434676  0.87323806
   0.00028754  0.16758583  0.37627196
   0.83647288  0.34358098  0.62346066
   0.66741571  0.49663037  0.87334441
   0.00455805  0.17421087  0.87777838
   0.83977706  0.66348278  0.12438877
   0.67175850  0.82346327  0.37405772
   0.97897800  0.49944802  0.37462185
   0.82683550  0.67018117  0.62884443
   0.66351260  0.82511271  0.87390938
   0.99189123  0.50460635  0.87410146
   0.99145625  0.83211997  0.37059704
   0.99423921  0.81777917  0.87467998
   0.08512225  0.00112873  0.25086564
   0.08255108  0.00659889  0.75248788
   0.08076824  0.32899016  0.23735416
   0.41734697  0.00304903  0.24832576
   0.25560080  0.17332633  0.51449380
   0.08075099  0.32666880  0.76903564
   0.41886680  0.00457097  0.74876302
   0.25295265  0.17811946  0.98850895
   0.08192663  0.67301363  0.23497744
   0.41958440  0.33823741  0.25209997
   0.25163287  0.49863201  0.50048044
   0.08246934  0.66538405  0.76825175
   0.75023688  0.99020346  0.24749173
   0.58099503  0.16411624  0.50164697
   0.41738571  0.33146217  0.73402098
   0.25155962  0.49854007  0.99726066
   0.74989389  0.98632613  0.75163989
   0.58182169  0.17394871  0.00207286
   0.41989836  0.65836897  0.23102147
   0.24877330  0.82793278  0.49346552
   0.74877614  0.34524376  0.23514331
   0.58173055  0.51446278  0.49656004
   0.41855507  0.66475418  0.76473787
   0.24902857  0.82768196  0.00096580
   0.92166071  0.17002200  0.49701232
   0.75022828  0.34136981  0.75876170
   0.58319310  0.50451598  0.00344579
   0.92191133  0.17439368  0.00276248
   0.74917740  0.66099571  0.25728644
   0.58682561  0.82547315  0.51677218
   0.91655874  0.49750275  0.48150483
   0.74994812  0.66843053  0.75274972
   0.57851561  0.81158490  0.98870035
   0.91547216  0.50453178  0.01800550
   0.91596628  0.83270474  0.48067067
   0.91380245  0.82175556  0.00793705
   0.99867493  0.17267586  0.12066772
   0.00865219  0.16828546  0.62780284
   0.97540640  0.50815500  0.11987900
   0.34395600  0.17968449  0.12019178
   0.17341848  0.33499015  0.37683352
   0.99012310  0.50162079  0.62890643
   0.33028319  0.17376201  0.62374163
   0.18179707  0.32994667  0.87134893
   0.99313689  0.81983705  0.12481230
   0.35318126  0.50211818  0.12362829
   0.16861976  0.67356269  0.37414837
   0.98745870  0.83298286  0.62837012
   0.65943956  0.17874003  0.12247988
   0.49427637  0.33581301  0.37371363
   0.33215455  0.49523246  0.62165689
   0.16102264  0.66642091  0.87257414
   0.65749273  0.16443089  0.62686980
   0.50603881  0.32860677  0.87861139
   0.33183225  0.81908567  0.12383157
   0.16811266  0.99461646  0.37593205
   0.66711554  0.50070965  0.12697522
   0.51403379  0.66248492  0.37318670
   0.33954646  0.83297277  0.62637845
   0.17057979  0.00507969  0.86865230
   0.83690296  0.34095720  0.37245225
   0.66532694  0.50792176  0.62586182
   0.48996753  0.66303648  0.87560939
   0.83124039  0.34930203  0.88151450
   0.67126215  0.81645016  0.12614750
   0.50155408  0.00183545  0.37505698
   0.82289357  0.66851128  0.37050583
   0.65858987  0.82625681  0.62673137
   0.49964639  0.00425564  0.86439582
   0.84178377  0.65687566  0.87865399
   0.83304464  0.98922490  0.37319677
   0.83185171  0.98727496  0.87317457
   0.00494150  0.08337401  0.24845040
   0.00466759  0.08438380  0.75436459
   0.99669832  0.41591731  0.24101615
   0.34129993  0.08520119  0.25282450
   0.17585024  0.25379888  0.51542166
   0.98438321  0.41671027  0.76150098
   0.33575722  0.08626391  0.74689360
   0.17255152  0.24973821  0.99066835
   0.99993331  0.74988348  0.23989879
   0.33839788  0.41296023  0.24585681
   0.17114093  0.58461003  0.49925837
   0.99060394  0.75020438  0.76697705
   0.65975844  0.08443390  0.25478077
   0.49408328  0.25183066  0.49671775
   0.33059340  0.41138530  0.74798962
   0.16416442  0.58674802  0.99864232
   0.65912484  0.08455693  0.74458075
   0.49954937  0.25224421  0.00144324
   0.32816238  0.75255046  0.23050131
   0.16697228  0.91606359  0.48354094
   0.66614852  0.41696998  0.23729900
   0.50932491  0.58236646  0.49762079
   0.33326181  0.75187986  0.76332530
   0.17112096  0.91230841  0.01184219
   0.83439395  0.25392681  0.50702220
   0.67197402  0.41653850  0.76486678
   0.51515065  0.58573451  0.00133430
   0.83705573  0.25344500  0.99505620
   0.66942417  0.75053350  0.23951694
   0.49735551  0.91215781  0.50718813
   0.82208693  0.57998522  0.50805011
   0.66501170  0.74733966  0.76260648
   0.49723663  0.90921682  0.99324878
   0.81825241  0.57716170  0.99611645
   0.83468049  0.91672507  0.50036025
   0.83010553  0.91301475  0.99544483
