generated by phonopy                    
   1.00000000000000     
     0.0000000000000000    3.4112665984534969    3.4112665984536097
     3.4112665984535413    0.0000000000000000    3.4112665984536097
     3.4112665984535413    3.4112665984534969    0.0000000000000000
   Sr   Y    Zr   Th   H 
     1     1     1     1    24
Direct
  0.2500000000000000  0.2500000000000000  0.2500000000000000
  0.7500000000000000  0.7500000000000000  0.7500000000000000
  0.0000000000000000  0.0000000000000000  0.0000000000000000
  0.5000000000000000  0.5000000000000000  0.5000000000000000
  0.1158855867022837  0.8813339535249227  0.6328845434868313
  0.8813339535249227  0.1158855867022837  0.3698959162859623
  0.6328845434868313  0.3698959162859623  0.1158855867022837
  0.3698959162859623  0.6328845434868313  0.8813339535249227
  0.6328845434868313  0.1158855867022837  0.8813339535249227
  0.3698959162859623  0.8813339535249227  0.1158855867022837
  0.1158855867022837  0.6328845434868313  0.3698959162859623
  0.8813339535249227  0.3698959162859623  0.6328845434868313
  0.8813339535249227  0.6328845434868313  0.1158855867022837
  0.1158855867022837  0.3698959162859623  0.8813339535249227
  0.3698959162859623  0.1158855867022837  0.6328845434868313
  0.6328845434868313  0.8813339535249227  0.3698959162859623
  0.1158855867022837  0.3698959162859623  0.6328845434868313
  0.3698959162859623  0.1158855867022837  0.8813339535249227
  0.6328845434868313  0.8813339535249227  0.1158855867022837
  0.8813339535249227  0.6328845434868313  0.3698959162859623
  0.6328845434868313  0.1158855867022837  0.3698959162859623
  0.8813339535249227  0.3698959162859623  0.1158855867022837
  0.1158855867022837  0.6328845434868313  0.8813339535249227
  0.3698959162859623  0.8813339535249227  0.6328845434868313
  0.3698959162859623  0.6328845434868313  0.1158855867022837
  0.1158855867022837  0.8813339535249227  0.3698959162859623
  0.8813339535249227  0.1158855867022837  0.6328845434868313
  0.6328845434868313  0.3698959162859623  0.8813339535249227
 
  0.00000000E+00  0.00000000E+00  0.00000000E+00
  0.00000000E+00  0.00000000E+00  0.00000000E+00
  0.00000000E+00  0.00000000E+00  0.00000000E+00
  0.00000000E+00  0.00000000E+00  0.00000000E+00
  0.00000000E+00  0.00000000E+00  0.00000000E+00
  0.00000000E+00  0.00000000E+00  0.00000000E+00
  0.00000000E+00  0.00000000E+00  0.00000000E+00
  0.00000000E+00  0.00000000E+00  0.00000000E+00
  0.00000000E+00  0.00000000E+00  0.00000000E+00
  0.00000000E+00  0.00000000E+00  0.00000000E+00
  0.00000000E+00  0.00000000E+00  0.00000000E+00
  0.00000000E+00  0.00000000E+00  0.00000000E+00
  0.00000000E+00  0.00000000E+00  0.00000000E+00
  0.00000000E+00  0.00000000E+00  0.00000000E+00
  0.00000000E+00  0.00000000E+00  0.00000000E+00
  0.00000000E+00  0.00000000E+00  0.00000000E+00
  0.00000000E+00  0.00000000E+00  0.00000000E+00
  0.00000000E+00  0.00000000E+00  0.00000000E+00
  0.00000000E+00  0.00000000E+00  0.00000000E+00
  0.00000000E+00  0.00000000E+00  0.00000000E+00
  0.00000000E+00  0.00000000E+00  0.00000000E+00
  0.00000000E+00  0.00000000E+00  0.00000000E+00
  0.00000000E+00  0.00000000E+00  0.00000000E+00
  0.00000000E+00  0.00000000E+00  0.00000000E+00
  0.00000000E+00  0.00000000E+00  0.00000000E+00
  0.00000000E+00  0.00000000E+00  0.00000000E+00
  0.00000000E+00  0.00000000E+00  0.00000000E+00
  0.00000000E+00  0.00000000E+00  0.00000000E+00
