generated by phonopy                    
   1.00000000000000     
     0.0000000000000000    3.3556624517787261    3.3556624517788154
     3.3556624517787621    0.0000000000000000    3.3556624517788154
     3.3556624517787621    3.3556624517787261    0.0000000000000000
   K    Hf   Ca   Zr   H 
     1     1     1     1    24
Direct
  0.2500000000000000  0.2500000000000000  0.2500000000000000
  0.7500000000000000  0.7500000000000000  0.7500000000000000
  0.0000000000000000  0.0000000000000000  0.0000000000000000
  0.5000000000000000  0.5000000000000000  0.5000000000000000
  0.1247184928292455  0.8836387255277600  0.6249248069061295
  0.8836387255277600  0.1247184928292455  0.3667179747368579
  0.6249248069061295  0.3667179747368579  0.1247184928292455
  0.3667179747368579  0.6249248069061295  0.8836387255277600
  0.6249248069061295  0.1247184928292455  0.8836387255277600
  0.3667179747368579  0.8836387255277600  0.1247184928292455
  0.1247184928292455  0.6249248069061295  0.3667179747368579
  0.8836387255277600  0.3667179747368579  0.6249248069061295
  0.8836387255277600  0.6249248069061295  0.1247184928292455
  0.1247184928292455  0.3667179747368579  0.8836387255277600
  0.3667179747368579  0.1247184928292455  0.6249248069061295
  0.6249248069061295  0.8836387255277600  0.3667179747368579
  0.1247184928292455  0.3667179747368579  0.6249248069061295
  0.3667179747368579  0.1247184928292455  0.8836387255277600
  0.6249248069061295  0.8836387255277600  0.1247184928292455
  0.8836387255277600  0.6249248069061295  0.3667179747368579
  0.6249248069061295  0.1247184928292455  0.3667179747368579
  0.8836387255277600  0.3667179747368579  0.1247184928292455
  0.1247184928292455  0.6249248069061295  0.8836387255277600
  0.3667179747368579  0.8836387255277600  0.6249248069061295
  0.3667179747368579  0.6249248069061295  0.1247184928292455
  0.1247184928292455  0.8836387255277600  0.3667179747368579
  0.8836387255277600  0.1247184928292455  0.6249248069061295
  0.6249248069061295  0.3667179747368579  0.8836387255277600
 
  0.00000000E+00  0.00000000E+00  0.00000000E+00
  0.00000000E+00  0.00000000E+00  0.00000000E+00
  0.00000000E+00  0.00000000E+00  0.00000000E+00
  0.00000000E+00  0.00000000E+00  0.00000000E+00
  0.00000000E+00  0.00000000E+00  0.00000000E+00
  0.00000000E+00  0.00000000E+00  0.00000000E+00
  0.00000000E+00  0.00000000E+00  0.00000000E+00
  0.00000000E+00  0.00000000E+00  0.00000000E+00
  0.00000000E+00  0.00000000E+00  0.00000000E+00
  0.00000000E+00  0.00000000E+00  0.00000000E+00
  0.00000000E+00  0.00000000E+00  0.00000000E+00
  0.00000000E+00  0.00000000E+00  0.00000000E+00
  0.00000000E+00  0.00000000E+00  0.00000000E+00
  0.00000000E+00  0.00000000E+00  0.00000000E+00
  0.00000000E+00  0.00000000E+00  0.00000000E+00
  0.00000000E+00  0.00000000E+00  0.00000000E+00
  0.00000000E+00  0.00000000E+00  0.00000000E+00
  0.00000000E+00  0.00000000E+00  0.00000000E+00
  0.00000000E+00  0.00000000E+00  0.00000000E+00
  0.00000000E+00  0.00000000E+00  0.00000000E+00
  0.00000000E+00  0.00000000E+00  0.00000000E+00
  0.00000000E+00  0.00000000E+00  0.00000000E+00
  0.00000000E+00  0.00000000E+00  0.00000000E+00
  0.00000000E+00  0.00000000E+00  0.00000000E+00
  0.00000000E+00  0.00000000E+00  0.00000000E+00
  0.00000000E+00  0.00000000E+00  0.00000000E+00
  0.00000000E+00  0.00000000E+00  0.00000000E+00
  0.00000000E+00  0.00000000E+00  0.00000000E+00
