POSCAR                                  
   1.00000000000000     
    10.0249189152799190   -0.0113651289367070   -0.0014241980738140
    -0.0113707136001773   10.0140701607231719    0.0033490917654406
    -0.0010091501819417    0.0022223402218392    6.6401504874107724
   Mg   Na   Ca   Zr   H 
     9     9     9     9   216
Direct
  0.1660743522177197  0.1723614207584756  0.2519574838112962
  0.1665822387605743  0.8359165820667827  0.7464310220362598
  0.8375102831321265  0.1660875060392628  0.2531150145954250
  0.6693422731908788  0.3292753710867345  0.5017829035194435
  0.4987406586217581  0.8374555629310096  0.7448337303576450
  0.0054029699990144  0.3294327581050269 -0.0004280603857762
  0.8349414632837393  0.8383902343474890  0.7472669330687598
 -0.0003722728680250  0.6651151170344517 -0.0014881823683246
  0.0026558395984031  0.0052521082054998  0.0001578453839843
  0.1636482677564964  0.1658258940425601  0.7501707990269304
  0.1671705110286160  0.5004415542996997  0.7501122544878197
  0.5017149855372844  0.1644206913520950  0.7490865258148135
  0.3291922272297714  0.3311202316640319 -0.0008158008563839
  0.3335474916696846  0.6704196592642934  0.5026867564747459
  0.8377951807037216  0.1625711591786020  0.7502807426719207
  0.3315242682145235 -0.0010366717397430  0.5010179352691524
  0.6642027266309734  0.6674699549385190  0.5016152455588943
  0.0002604366657460  0.3299659998275791  0.5025157604587568
  0.1630237159145033  0.4915941183395774  0.2489224909052128
  0.4977492930677675  0.1648789433071538  0.2539458254364472
  0.3287100290118689  0.3308848179688982  0.5018841117556279
  0.4994704445378850  0.8357559727805014  0.2479876758372389
  0.8361524008286271  0.4969248665606050  0.2504510324182485
  0.6732993430501796  0.6680979710687889 -0.0017872176860480
  0.8335514308284382  0.8352748343073548  0.2513642798500694
  0.6636738227790507  0.0013805730834414  0.5024299673166898
  0.0000523434029069  0.0078553997295166  0.5021762793513354
  0.1657323625202882  0.8368363650117763  0.2546151071220719
  0.5000582062198992  0.4989543068996103  0.2578552267090851
  0.4926332231364096  0.4987371060471998  0.7427959795756711
  0.3282265461683883  0.6629194757825352 -0.0021165159599341
  0.6694213706932398  0.3301938047675223 -0.0028289184221200
  0.3255641736815741  0.0113886398954178 -0.0073204275487656
  0.8427536115535407  0.4949743898570643  0.7485766769292437
  0.0004698823786478  0.6660287508484060  0.5031293817866705
  0.6727135921624027 -0.0022120948167495 -0.0066023505564787
  0.1573831365891614  0.0865349047017787  0.0055676188969446
  0.1679614363855066  0.0834015939026417  0.4920442206219439
  0.1645090960039350  0.4164276472796326 -0.0089863010488938
  0.4979245041303108  0.0877721801991270 -0.0082178519366395
  0.3293440889208675  0.2500236368981987  0.2412379705484186
  0.1575466100555536  0.4167277269389261  0.5119485568795191
  0.4900469266792567  0.0866479684973276  0.5104815889053077
  0.3340151267469069  0.2519866191652869  0.7586105388815638
  0.1633554112870780  0.7515108974591839 -0.0088680007977996
  0.4905263877047994  0.4130805667413953 -0.0025975132263715
  0.3273195440732549  0.5834738642093711  0.2619200590904867
  0.1721291194955601  0.7493451229241267  0.5091716228007841
  0.8437563488312824  0.0859322587732108 -0.0059394008633077
  0.6683428962704678  0.2483626559810244  0.2559237940364000
  0.5020330647624003  0.4123834757829282  0.5025268126044867
  0.3271082824969375  0.5850123355192518  0.7392689890922243
  0.8325667835561193  0.0844985433390143  0.5091384904913128
  0.6692692315346013  0.2489733459113753  0.7416762169832762
  0.4987260455097356  0.7507906424275167 -0.0146239960783229
  0.3315445164014752  0.9192770327002296  0.2567214123130120
  0.8486082980937728  0.4126247546499779  0.0023656863548489
  0.6705325734451058  0.5862248993683555  0.2582009464913238
  0.4989676658575805  0.7476159927935947  0.5045093096564351
  0.3338658990115000  0.9148957780386722  0.7444373980195782
  0.0007977480501010  0.2485733944589494  0.2506778487875921
  0.8397815747682301  0.4139864251092468  0.4982620514883039
  0.6693477812267860  0.5871974633466958  0.7420809715320412
 -0.0014464573848399  0.2499725234403835  0.7495853871021065
  0.8418567435831248  0.7506521751613520 -0.0151399057383632
  0.6681935199006613  0.9162144243171303  0.2524083654819502
  0.0015265459893125  0.5817421595739257  0.2337818142662547
  0.8264646062658962  0.7482935488074622  0.5139725127753467
  0.6688178706863424  0.9110647008752196  0.7433228857093028
  0.0056509031750146  0.5825723555336129  0.7678125076912191
  0.0003880912929900  0.9178971872350522  0.2431207715622739
  0.0003098181890389  0.9153684317638197  0.7511407079505501
  0.0796540840493508  0.1709760478916487 -0.0000228664790692
  0.0834754685728794  0.1729089263620374  0.5003647644170052
  0.0864039968291881  0.4898344982850362 -0.0101487393899456
  0.4185619398781973  0.1728098177024344 -0.0083244521476971
  0.2512303258249747  0.3296084569045911  0.2410459728078836
  0.0879217046985827  0.4893955482552038  0.5106611782106005
  0.4195455452876843  0.1602940950155812  0.5108551844636157
  0.2492675213587351  0.3329626460553547  0.7586572300120844
  0.0811380111868958  0.8385458801960501 -0.0169348444366395
  0.4158497229946572  0.4901955347123740 -0.0007093889106573
  0.2491572863226227  0.6606060621873443  0.2629295382649320
  0.0825640273921238  0.8368684446857686  0.5148464031040643
  0.7554318570766840  0.1655767528352903  0.0022224147034907
  0.5842678736346754  0.3278119816498155  0.2604225549857140
  0.4085974528753815  0.5048478422258450  0.4992999234630360
  0.2478665086993797  0.6694470475308557  0.7411865477918452
  0.7491909824945905  0.1695930614448929  0.5004608446043834
  0.5828074895851501  0.3286613495697348  0.7382347574499464
  0.4184087853939411  0.8397624172081121 -0.0141380134225300
  0.2484432048456241  0.0068722139291719  0.2575647042597879
  0.7505075134830568  0.4981194709115047 -0.0009863831467243
  0.5840589550811897  0.6696191630012683  0.2532414415873124
  0.4156072842659386  0.8390843546674306  0.5067927249619992
  0.2479878189301981  0.0035233918773899  0.7357286598140453
  0.9154384918807349  0.3227651756212441  0.2526068656321171
  0.7498149838308610  0.4996149123063765  0.5026010537851779
  0.5851431454635680  0.6779833489733577  0.7483258949223504
  0.9225628339545653  0.3182083937145822  0.7548485779726243
  0.7559980712814349  0.8328589193649508 -0.0120931034569003
  0.5807280938928792  0.0014481331513195  0.2459963053845015
  0.9154152354685140  0.6684171567285240  0.2439153971077654
  0.7485525700183925  0.8304225998999869  0.5122234274528651
  0.5788745574271119 -0.0035949271463120  0.7507459388582319
  0.9156568311416734  0.6758928213108502  0.7576177437499797
  0.9187731792028608  0.0089625039837216  0.2333906003787044
  0.9196359749626611 -0.0042791892407880  0.7635841197037384
  0.1589857963919609  0.0067187152184862  0.1275033122202909
  0.1721129502513227  0.0002785307637362  0.6250378582525504
  0.1638538799127298  0.3266216325770468  0.1224747198689428
  0.4996987661482319  0.0012755042820060  0.1240053434263942
  0.3222593549985688  0.1602550245331740  0.3759095684092877
  0.1609250789882381  0.3271495248233273  0.6255134153086209
  0.4929448868192129 -0.0017523842736768  0.6260715663408755
  0.3282761767077569  0.1754015943569649  0.8682970477989445
  0.1533894786834697  0.6638940813972504  0.1244653302032483
  0.4944327367982499  0.3311365424927387  0.1243498355785614
  0.3310261144578298  0.5073582546954317  0.3781343916204521
  0.1722942576890343  0.6692290789539102  0.6278151534128701
  0.8388075135623041  0.0036324825166391  0.1276489423413836
  0.6790225727744506  0.1720472037029031  0.3771460862485750
  0.5025113534608350  0.3241457395996937  0.6240857657384428
  0.3258855832447660  0.4888499145575340  0.8731987004272680
  0.8317870445629283  0.0081283391788200  0.6192504214249155
  0.6714601222653658  0.1655403908690508  0.8663952871534032
  0.5022449921458600  0.6657850733040179  0.1247799302877232
  0.3347221107991003  0.8343512320169606  0.3778749321467857
  0.8422490824536288  0.3262727503640220  0.1285606258647077
  0.6692349358297016  0.4954580633582942  0.3805130348337089
  0.4962737439864266  0.6774674758433377  0.6214935770841632
  0.3226190065135791  0.8384834041839704  0.8710576833248349
  0.0001357326748154  0.1746134876217903  0.3743956660408989
  0.8333047258206180  0.3167060259702004  0.6190516206277136
  0.6645913831949325  0.4986123127996016  0.8713101105851229
  0.0048027880194342  0.1646167636136084  0.8770232405553671
  0.8450803850288683  0.6669281916003382  0.1256556948103645
  0.6651138892190838  0.8294193971157818  0.3788263205599674
 -0.0013481910936930  0.4892708182032475  0.3745472370033945
  0.8293261699356775  0.6747002698943598  0.6253280994692244
  0.6720243504498138  0.8336542398284852  0.8679137162574704
  0.0100444805786081  0.5027482149594488  0.8760972923546374
 -0.0010463702564224  0.8365287398910443  0.3751237897033519
  0.0075998766955169  0.8299181375925914  0.8761278554195550
  0.0818869880660138  0.0143421681046818  0.2439846353243463
  0.0816402918703712  0.0009055249460912  0.7610224431615791
  0.0815326292543440  0.3243888530795194  0.2476215554377714
  0.4129242049311133  0.0013546712824460  0.2547656150477667
  0.2548010380246014  0.1639791921701806  0.5182939134483061
  0.0868852380621446  0.3320751589357814  0.7608905126331985
  0.4160602574791554  0.0026275056488461  0.7398312142854708
  0.2445697442657940  0.1785714993062470 -0.0074197839886084
  0.0850595309826945  0.6629582831471681  0.2416907412456208
  0.4161381942241029  0.3289476337551737  0.2423485793695493
  0.2469097701338605  0.5044822687250665  0.5070059643032775
  0.0845173477459938  0.6700321799138541  0.7595665551762396
  0.7548607737335609  0.0049583562774684  0.2539872477615179
  0.5836792235511490  0.1698671933458363  0.5061409968949476
  0.4154845130537254  0.3187949056335264  0.7565102817398802
  0.2478260046255983  0.4904629397609930 -0.0074724648569732
  0.7532762112835825 -0.0034802117129518  0.7449227511700337
  0.5828706183326086  0.1630478800487839 -0.0021291841909555
  0.4132843046135527  0.6708418005631939  0.2603906707055124
  0.2524169323689385  0.8307985772373936  0.5185792816888263
  0.7521002910567631  0.3294105618026798  0.2618571818087585
  0.5896297239048234  0.5013263838505750  0.5068442984238262
  0.4158968540100082  0.6793206539061701  0.7405576523647270
  0.2499580970643720  0.8345319445602634 -0.0213120719171986
  0.9143168303064653  0.1728385983381602  0.4931179141336701
  0.7520507738452862  0.3275011160916885  0.7395326506840170
  0.5831903121017683  0.5030084392397771 -0.0064552594707165
  0.9169178990208187  0.1643546724260712  0.0093747220576101
  0.7495969433859275  0.6638172823514710  0.2621718163950845
  0.5842116424728117  0.8305834573829407  0.5100081237750338
  0.9180637544029888  0.4872816349642905  0.4947396677869151
  0.7480598913990794  0.6764054192362083  0.7397111147591295
  0.5811310343804598  0.8327386826895536 -0.0175514594726681
  0.9197570402773491  0.4862761442446117  0.0023412261360878
  0.9141371426288112  0.8398146928663311  0.5063973713879368
  0.9201171424461572  0.8496709292808996 -0.0082366747233930
  0.0028730774490264  0.1739014379584122  0.1250856864077853
  0.0037998907712062  0.1722585161622729  0.6279404680598747
 -0.0004659802391067  0.5040996384345570  0.1252129255051387
  0.3243544134054519  0.1750203363279707  0.1263461008490623
  0.1593566047297240  0.3234526153196381  0.3769687449349655
  0.0108238104072529  0.4914167216254413  0.6266389186470320
  0.3218048158343331  0.1596571557108943  0.6197580312790857
  0.1623592162018354  0.3299052076745476  0.8689050892987441
  0.0003262423421609  0.8227331910106402  0.1204650295389636
  0.3318893660579936  0.4900867261665498  0.1286829923649217
  0.1735781166859099  0.6619604871667049  0.3771902813457262
  0.0077748856736778  0.8397379218236054  0.6318434247395806
  0.6767156770815121  0.1662187335999914  0.1307728541841742
  0.5073226695886998  0.3287381792030641  0.3792588642748353
  0.3239396394071822  0.5071576091930311  0.6197946805645604
  0.1553075009846994  0.6695584549109860  0.8725994139782278
  0.6716776430108129  0.1703975970259377  0.6242862974338262
  0.4906411947040363  0.3272055804746014  0.8748436609416166
  0.3299562290513640  0.8367012695604237  0.1240296115776841
  0.1716798512441438  0.0154706955057294  0.3828515450611209
  0.6687026847724000  0.4986897864432661  0.1291068032515318
  0.4982932921213836  0.6727808005855185  0.3815489293994277
  0.3312735314874350  0.8360652268351596  0.6223876494295651
  0.1550667878687949 -0.0005423236543925  0.8694324579064386
  0.8340407207561862  0.3250085278032708  0.3735392771824100
  0.6660193463306979  0.4964611661834744  0.6221677749798489
  0.5013867472850164  0.6668696946254730  0.8722212823102614
  0.8440612721007785  0.3204898376285516  0.8734903296344959
  0.6676479520565348  0.8327045849814951  0.1266040859177502
  0.4936977142207598 -0.0013982137685380  0.3789597563922521
  0.8279542308739422  0.6659242131818620  0.3770723912710381
  0.6578411503156436  0.8341689824677322  0.6219289581952385
  0.4961550734571411  0.0041849468940722  0.8738799345823491
  0.8422850682619218  0.6742008709167399  0.8736031626967243
  0.8304654931392910  0.0084837945030285  0.3730991147940063
  0.8446289484602539  0.0031875525928644  0.8721416880442989
  0.0084502284615035  0.0856770076984779  0.2439947705913875
  0.0020916361796917  0.0870001027224564  0.7613975812245252
 -0.0006855041310492  0.4134766000431707  0.2519063432103648
  0.3221450130205750  0.0864339589437415  0.2657832814752641
  0.1607012745627624  0.2516034889611898  0.5084956924042715
  0.0110333161298627  0.4156849486037094  0.7487861841335294
  0.3322728897365039  0.0846257292428151  0.7373360422123533
  0.1674302349894107  0.2497246304858839 -0.0055354797383033
 -0.0029704596570286  0.7496610972862170  0.2323051566144752
  0.3277965087084201  0.4123078508862422  0.2380015172638620
  0.1709672283205226  0.5841822579055530  0.5049230402396325
 -0.0107040845403138  0.7514855730577443  0.7679755538372930
  0.6724907679067272  0.0863731059675003  0.2485474373632223
  0.5006830599887069  0.2495016461014239  0.5087264592443085
  0.3204259831086462  0.4139140551415849  0.7602583232366221
  0.1570413697923478  0.5834646616345360 -0.0070808600335640
  0.6703167635230792  0.0886953915608861  0.7478816918197569
  0.4922553239460313  0.2511216173173252 -0.0069470765907918
  0.3367697221771374  0.7482526140408461  0.2593471938797501
  0.1665509503012070  0.9189669623141358  0.5100568663637316
  0.6709295162056034  0.4151643767805950  0.2631420653612944
  0.4998377099694139  0.5894050910311270  0.5041410777436461
  0.3423186567791708  0.7500360349503733  0.7469775152519956
  0.1615003654882477  0.9169959140266123 -0.0054185251761434
  0.8380878891375573  0.2494756489087022  0.5118549956229917
  0.6692059017868311  0.4163598095332663  0.7378891829388501
  0.5041158840420018  0.5848066742270590 -0.0018851967022475
  0.8438404530192452  0.2485948968901779 -0.0087272255987215
  0.6645139377552204  0.7500034428023553  0.2574690632730136
  0.4905465649451781  0.9162091861188629  0.5037705383460571
  0.8260545193210672  0.5847709859206814  0.5017752843688355
  0.6670585904371625  0.7470601424061022  0.7446286610709927
  0.4918764650844930  0.9159337851912722 -0.0157683860531657
  0.8423846569869133  0.5826978046400123 -0.0034469407954235
  0.8369592419079415  0.9138417957960149  0.5112415100803788
  0.8512658355080999  0.9146143635411019 -0.0054091081791312
 
  0.00000000E+00  0.00000000E+00  0.00000000E+00
  0.00000000E+00  0.00000000E+00  0.00000000E+00
  0.00000000E+00  0.00000000E+00  0.00000000E+00
  0.00000000E+00  0.00000000E+00  0.00000000E+00
  0.00000000E+00  0.00000000E+00  0.00000000E+00
  0.00000000E+00  0.00000000E+00  0.00000000E+00
  0.00000000E+00  0.00000000E+00  0.00000000E+00
  0.00000000E+00  0.00000000E+00  0.00000000E+00
  0.00000000E+00  0.00000000E+00  0.00000000E+00
  0.00000000E+00  0.00000000E+00  0.00000000E+00
  0.00000000E+00  0.00000000E+00  0.00000000E+00
  0.00000000E+00  0.00000000E+00  0.00000000E+00
  0.00000000E+00  0.00000000E+00  0.00000000E+00
  0.00000000E+00  0.00000000E+00  0.00000000E+00
  0.00000000E+00  0.00000000E+00  0.00000000E+00
  0.00000000E+00  0.00000000E+00  0.00000000E+00
  0.00000000E+00  0.00000000E+00  0.00000000E+00
  0.00000000E+00  0.00000000E+00  0.00000000E+00
  0.00000000E+00  0.00000000E+00  0.00000000E+00
  0.00000000E+00  0.00000000E+00  0.00000000E+00
  0.00000000E+00  0.00000000E+00  0.00000000E+00
  0.00000000E+00  0.00000000E+00  0.00000000E+00
  0.00000000E+00  0.00000000E+00  0.00000000E+00
  0.00000000E+00  0.00000000E+00  0.00000000E+00
  0.00000000E+00  0.00000000E+00  0.00000000E+00
  0.00000000E+00  0.00000000E+00  0.00000000E+00
  0.00000000E+00  0.00000000E+00  0.00000000E+00
  0.00000000E+00  0.00000000E+00  0.00000000E+00
  0.00000000E+00  0.00000000E+00  0.00000000E+00
  0.00000000E+00  0.00000000E+00  0.00000000E+00
  0.00000000E+00  0.00000000E+00  0.00000000E+00
  0.00000000E+00  0.00000000E+00  0.00000000E+00
  0.00000000E+00  0.00000000E+00  0.00000000E+00
  0.00000000E+00  0.00000000E+00  0.00000000E+00
  0.00000000E+00  0.00000000E+00  0.00000000E+00
  0.00000000E+00  0.00000000E+00  0.00000000E+00
  0.00000000E+00  0.00000000E+00  0.00000000E+00
  0.00000000E+00  0.00000000E+00  0.00000000E+00
  0.00000000E+00  0.00000000E+00  0.00000000E+00
  0.00000000E+00  0.00000000E+00  0.00000000E+00
  0.00000000E+00  0.00000000E+00  0.00000000E+00
  0.00000000E+00  0.00000000E+00  0.00000000E+00
  0.00000000E+00  0.00000000E+00  0.00000000E+00
  0.00000000E+00  0.00000000E+00  0.00000000E+00
  0.00000000E+00  0.00000000E+00  0.00000000E+00
  0.00000000E+00  0.00000000E+00  0.00000000E+00
  0.00000000E+00  0.00000000E+00  0.00000000E+00
  0.00000000E+00  0.00000000E+00  0.00000000E+00
  0.00000000E+00  0.00000000E+00  0.00000000E+00
  0.00000000E+00  0.00000000E+00  0.00000000E+00
  0.00000000E+00  0.00000000E+00  0.00000000E+00
  0.00000000E+00  0.00000000E+00  0.00000000E+00
  0.00000000E+00  0.00000000E+00  0.00000000E+00
  0.00000000E+00  0.00000000E+00  0.00000000E+00
  0.00000000E+00  0.00000000E+00  0.00000000E+00
  0.00000000E+00  0.00000000E+00  0.00000000E+00
  0.00000000E+00  0.00000000E+00  0.00000000E+00
  0.00000000E+00  0.00000000E+00  0.00000000E+00
  0.00000000E+00  0.00000000E+00  0.00000000E+00
  0.00000000E+00  0.00000000E+00  0.00000000E+00
  0.00000000E+00  0.00000000E+00  0.00000000E+00
  0.00000000E+00  0.00000000E+00  0.00000000E+00
  0.00000000E+00  0.00000000E+00  0.00000000E+00
  0.00000000E+00  0.00000000E+00  0.00000000E+00
  0.00000000E+00  0.00000000E+00  0.00000000E+00
  0.00000000E+00  0.00000000E+00  0.00000000E+00
  0.00000000E+00  0.00000000E+00  0.00000000E+00
  0.00000000E+00  0.00000000E+00  0.00000000E+00
  0.00000000E+00  0.00000000E+00  0.00000000E+00
  0.00000000E+00  0.00000000E+00  0.00000000E+00
  0.00000000E+00  0.00000000E+00  0.00000000E+00
  0.00000000E+00  0.00000000E+00  0.00000000E+00
  0.00000000E+00  0.00000000E+00  0.00000000E+00
  0.00000000E+00  0.00000000E+00  0.00000000E+00
  0.00000000E+00  0.00000000E+00  0.00000000E+00
  0.00000000E+00  0.00000000E+00  0.00000000E+00
  0.00000000E+00  0.00000000E+00  0.00000000E+00
  0.00000000E+00  0.00000000E+00  0.00000000E+00
  0.00000000E+00  0.00000000E+00  0.00000000E+00
  0.00000000E+00  0.00000000E+00  0.00000000E+00
  0.00000000E+00  0.00000000E+00  0.00000000E+00
  0.00000000E+00  0.00000000E+00  0.00000000E+00
  0.00000000E+00  0.00000000E+00  0.00000000E+00
  0.00000000E+00  0.00000000E+00  0.00000000E+00
  0.00000000E+00  0.00000000E+00  0.00000000E+00
  0.00000000E+00  0.00000000E+00  0.00000000E+00
  0.00000000E+00  0.00000000E+00  0.00000000E+00
  0.00000000E+00  0.00000000E+00  0.00000000E+00
  0.00000000E+00  0.00000000E+00  0.00000000E+00
  0.00000000E+00  0.00000000E+00  0.00000000E+00
  0.00000000E+00  0.00000000E+00  0.00000000E+00
  0.00000000E+00  0.00000000E+00  0.00000000E+00
  0.00000000E+00  0.00000000E+00  0.00000000E+00
  0.00000000E+00  0.00000000E+00  0.00000000E+00
  0.00000000E+00  0.00000000E+00  0.00000000E+00
  0.00000000E+00  0.00000000E+00  0.00000000E+00
  0.00000000E+00  0.00000000E+00  0.00000000E+00
  0.00000000E+00  0.00000000E+00  0.00000000E+00
  0.00000000E+00  0.00000000E+00  0.00000000E+00
  0.00000000E+00  0.00000000E+00  0.00000000E+00
  0.00000000E+00  0.00000000E+00  0.00000000E+00
  0.00000000E+00  0.00000000E+00  0.00000000E+00
  0.00000000E+00  0.00000000E+00  0.00000000E+00
  0.00000000E+00  0.00000000E+00  0.00000000E+00
  0.00000000E+00  0.00000000E+00  0.00000000E+00
  0.00000000E+00  0.00000000E+00  0.00000000E+00
  0.00000000E+00  0.00000000E+00  0.00000000E+00
  0.00000000E+00  0.00000000E+00  0.00000000E+00
  0.00000000E+00  0.00000000E+00  0.00000000E+00
  0.00000000E+00  0.00000000E+00  0.00000000E+00
  0.00000000E+00  0.00000000E+00  0.00000000E+00
  0.00000000E+00  0.00000000E+00  0.00000000E+00
  0.00000000E+00  0.00000000E+00  0.00000000E+00
  0.00000000E+00  0.00000000E+00  0.00000000E+00
  0.00000000E+00  0.00000000E+00  0.00000000E+00
  0.00000000E+00  0.00000000E+00  0.00000000E+00
  0.00000000E+00  0.00000000E+00  0.00000000E+00
  0.00000000E+00  0.00000000E+00  0.00000000E+00
  0.00000000E+00  0.00000000E+00  0.00000000E+00
  0.00000000E+00  0.00000000E+00  0.00000000E+00
  0.00000000E+00  0.00000000E+00  0.00000000E+00
  0.00000000E+00  0.00000000E+00  0.00000000E+00
  0.00000000E+00  0.00000000E+00  0.00000000E+00
  0.00000000E+00  0.00000000E+00  0.00000000E+00
  0.00000000E+00  0.00000000E+00  0.00000000E+00
  0.00000000E+00  0.00000000E+00  0.00000000E+00
  0.00000000E+00  0.00000000E+00  0.00000000E+00
  0.00000000E+00  0.00000000E+00  0.00000000E+00
  0.00000000E+00  0.00000000E+00  0.00000000E+00
  0.00000000E+00  0.00000000E+00  0.00000000E+00
  0.00000000E+00  0.00000000E+00  0.00000000E+00
  0.00000000E+00  0.00000000E+00  0.00000000E+00
  0.00000000E+00  0.00000000E+00  0.00000000E+00
  0.00000000E+00  0.00000000E+00  0.00000000E+00
  0.00000000E+00  0.00000000E+00  0.00000000E+00
  0.00000000E+00  0.00000000E+00  0.00000000E+00
  0.00000000E+00  0.00000000E+00  0.00000000E+00
  0.00000000E+00  0.00000000E+00  0.00000000E+00
  0.00000000E+00  0.00000000E+00  0.00000000E+00
  0.00000000E+00  0.00000000E+00  0.00000000E+00
  0.00000000E+00  0.00000000E+00  0.00000000E+00
  0.00000000E+00  0.00000000E+00  0.00000000E+00
  0.00000000E+00  0.00000000E+00  0.00000000E+00
  0.00000000E+00  0.00000000E+00  0.00000000E+00
  0.00000000E+00  0.00000000E+00  0.00000000E+00
  0.00000000E+00  0.00000000E+00  0.00000000E+00
  0.00000000E+00  0.00000000E+00  0.00000000E+00
  0.00000000E+00  0.00000000E+00  0.00000000E+00
  0.00000000E+00  0.00000000E+00  0.00000000E+00
  0.00000000E+00  0.00000000E+00  0.00000000E+00
  0.00000000E+00  0.00000000E+00  0.00000000E+00
  0.00000000E+00  0.00000000E+00  0.00000000E+00
  0.00000000E+00  0.00000000E+00  0.00000000E+00
  0.00000000E+00  0.00000000E+00  0.00000000E+00
  0.00000000E+00  0.00000000E+00  0.00000000E+00
  0.00000000E+00  0.00000000E+00  0.00000000E+00
  0.00000000E+00  0.00000000E+00  0.00000000E+00
  0.00000000E+00  0.00000000E+00  0.00000000E+00
  0.00000000E+00  0.00000000E+00  0.00000000E+00
  0.00000000E+00  0.00000000E+00  0.00000000E+00
  0.00000000E+00  0.00000000E+00  0.00000000E+00
  0.00000000E+00  0.00000000E+00  0.00000000E+00
  0.00000000E+00  0.00000000E+00  0.00000000E+00
  0.00000000E+00  0.00000000E+00  0.00000000E+00
  0.00000000E+00  0.00000000E+00  0.00000000E+00
  0.00000000E+00  0.00000000E+00  0.00000000E+00
  0.00000000E+00  0.00000000E+00  0.00000000E+00
  0.00000000E+00  0.00000000E+00  0.00000000E+00
  0.00000000E+00  0.00000000E+00  0.00000000E+00
  0.00000000E+00  0.00000000E+00  0.00000000E+00
  0.00000000E+00  0.00000000E+00  0.00000000E+00
  0.00000000E+00  0.00000000E+00  0.00000000E+00
  0.00000000E+00  0.00000000E+00  0.00000000E+00
  0.00000000E+00  0.00000000E+00  0.00000000E+00
  0.00000000E+00  0.00000000E+00  0.00000000E+00
  0.00000000E+00  0.00000000E+00  0.00000000E+00
  0.00000000E+00  0.00000000E+00  0.00000000E+00
  0.00000000E+00  0.00000000E+00  0.00000000E+00
  0.00000000E+00  0.00000000E+00  0.00000000E+00
  0.00000000E+00  0.00000000E+00  0.00000000E+00
  0.00000000E+00  0.00000000E+00  0.00000000E+00
  0.00000000E+00  0.00000000E+00  0.00000000E+00
  0.00000000E+00  0.00000000E+00  0.00000000E+00
  0.00000000E+00  0.00000000E+00  0.00000000E+00
  0.00000000E+00  0.00000000E+00  0.00000000E+00
  0.00000000E+00  0.00000000E+00  0.00000000E+00
  0.00000000E+00  0.00000000E+00  0.00000000E+00
  0.00000000E+00  0.00000000E+00  0.00000000E+00
  0.00000000E+00  0.00000000E+00  0.00000000E+00
  0.00000000E+00  0.00000000E+00  0.00000000E+00
  0.00000000E+00  0.00000000E+00  0.00000000E+00
  0.00000000E+00  0.00000000E+00  0.00000000E+00
  0.00000000E+00  0.00000000E+00  0.00000000E+00
  0.00000000E+00  0.00000000E+00  0.00000000E+00
  0.00000000E+00  0.00000000E+00  0.00000000E+00
  0.00000000E+00  0.00000000E+00  0.00000000E+00
  0.00000000E+00  0.00000000E+00  0.00000000E+00
  0.00000000E+00  0.00000000E+00  0.00000000E+00
  0.00000000E+00  0.00000000E+00  0.00000000E+00
  0.00000000E+00  0.00000000E+00  0.00000000E+00
  0.00000000E+00  0.00000000E+00  0.00000000E+00
  0.00000000E+00  0.00000000E+00  0.00000000E+00
  0.00000000E+00  0.00000000E+00  0.00000000E+00
  0.00000000E+00  0.00000000E+00  0.00000000E+00
  0.00000000E+00  0.00000000E+00  0.00000000E+00
  0.00000000E+00  0.00000000E+00  0.00000000E+00
  0.00000000E+00  0.00000000E+00  0.00000000E+00
  0.00000000E+00  0.00000000E+00  0.00000000E+00
  0.00000000E+00  0.00000000E+00  0.00000000E+00
  0.00000000E+00  0.00000000E+00  0.00000000E+00
  0.00000000E+00  0.00000000E+00  0.00000000E+00
  0.00000000E+00  0.00000000E+00  0.00000000E+00
  0.00000000E+00  0.00000000E+00  0.00000000E+00
  0.00000000E+00  0.00000000E+00  0.00000000E+00
  0.00000000E+00  0.00000000E+00  0.00000000E+00
  0.00000000E+00  0.00000000E+00  0.00000000E+00
  0.00000000E+00  0.00000000E+00  0.00000000E+00
  0.00000000E+00  0.00000000E+00  0.00000000E+00
  0.00000000E+00  0.00000000E+00  0.00000000E+00
  0.00000000E+00  0.00000000E+00  0.00000000E+00
  0.00000000E+00  0.00000000E+00  0.00000000E+00
  0.00000000E+00  0.00000000E+00  0.00000000E+00
  0.00000000E+00  0.00000000E+00  0.00000000E+00
  0.00000000E+00  0.00000000E+00  0.00000000E+00
  0.00000000E+00  0.00000000E+00  0.00000000E+00
  0.00000000E+00  0.00000000E+00  0.00000000E+00
  0.00000000E+00  0.00000000E+00  0.00000000E+00
  0.00000000E+00  0.00000000E+00  0.00000000E+00
  0.00000000E+00  0.00000000E+00  0.00000000E+00
  0.00000000E+00  0.00000000E+00  0.00000000E+00
  0.00000000E+00  0.00000000E+00  0.00000000E+00
  0.00000000E+00  0.00000000E+00  0.00000000E+00
  0.00000000E+00  0.00000000E+00  0.00000000E+00
  0.00000000E+00  0.00000000E+00  0.00000000E+00
  0.00000000E+00  0.00000000E+00  0.00000000E+00
  0.00000000E+00  0.00000000E+00  0.00000000E+00
  0.00000000E+00  0.00000000E+00  0.00000000E+00
  0.00000000E+00  0.00000000E+00  0.00000000E+00
  0.00000000E+00  0.00000000E+00  0.00000000E+00
  0.00000000E+00  0.00000000E+00  0.00000000E+00
  0.00000000E+00  0.00000000E+00  0.00000000E+00
  0.00000000E+00  0.00000000E+00  0.00000000E+00
  0.00000000E+00  0.00000000E+00  0.00000000E+00
  0.00000000E+00  0.00000000E+00  0.00000000E+00
  0.00000000E+00  0.00000000E+00  0.00000000E+00
  0.00000000E+00  0.00000000E+00  0.00000000E+00
  0.00000000E+00  0.00000000E+00  0.00000000E+00
  0.00000000E+00  0.00000000E+00  0.00000000E+00
  0.00000000E+00  0.00000000E+00  0.00000000E+00
  0.00000000E+00  0.00000000E+00  0.00000000E+00
  0.00000000E+00  0.00000000E+00  0.00000000E+00
  0.00000000E+00  0.00000000E+00  0.00000000E+00
