POSCAR                                  
   1.00000000000000     
    10.0290095798039758   -0.0129820269062127   -0.0028859414854515
    -0.0129957220094366   10.0173790790144714   -0.0004270099842688
    -0.0019758252091400   -0.0002787499042153    6.6473095627084113
   Mg   Na   Ca   Zr   H 
     9     9     9     9   216
Direct
  0.1658327953819047  0.1727652485024402  0.2508786653995553
  0.1655203170657157  0.8381896307609817  0.7447419647089683
  0.8384564636380382  0.1653554576558641  0.2520469163183882
  0.6697159308230172  0.3282063850256757  0.5029031160274234
  0.5023663088184250  0.8376886888192179  0.7433298087569712
  0.0053711580705257  0.3297362689660879  0.0001599147499646
  0.8315675109527241  0.8381123438874331  0.7459580819391707
  0.9991444365004063  0.6656498201970270  0.9975749147917288
  0.0031266243417664  0.0052863968641706 -0.0004789030144588
  0.1621989305526471  0.1639064841283939  0.7517842192454135
  0.1673428295920769  0.5035174335086556  0.7508663727023309
  0.5047721279233740  0.1651676747439024  0.7490248993718200
  0.3299599194191997  0.3312315852348728  0.9984440118683543
  0.3339059346427456  0.6708791282836629  0.5032467966653231
  0.8371140653574912  0.1633793619526553  0.7531630567708624
  0.3311205528328088  0.9988705760996467  0.5009360420287968
  0.6634043384346092  0.6664857058845927  0.5024161724832457
  0.0000327056707886  0.3303926584823654  0.5016791700078581
  0.1627323995026220  0.4916058008147466  0.2490797185387504
  0.4953218210916560  0.1647924453347502  0.2538244192590142
  0.3283502620718995  0.3311063156229747  0.5018655107566038
  0.4981697529752103  0.8354253897481693  0.2455181904159203
  0.8357491532338808  0.4960380281685322  0.2515124176448248
  0.6728310047706272  0.6676439626927769  0.9988909692346900
  0.8339917912526206  0.8353453028385854  0.2511182287746022
  0.6645147843800062  0.0008391849898345  0.5012374218899783
  0.0005363609982204  0.0073998267196811  0.5008909673146910
  0.1651307678754266  0.8352375339748129  0.2522571956540387
  0.5002149343162889  0.4987097513108942  0.2572555771562703
  0.4936734274983134  0.4984922671301619  0.7430905339691315
  0.3281317280260521  0.6623811272392418  0.9993299141900571
  0.6695170882650480  0.3308836154487803  0.9996754031825309
  0.3268535928671945  0.0113607253505842  0.9914783120064715
  0.8417703957473786  0.4963508871184111  0.7500670491536038
  0.0004190163451054  0.6648009586879309  0.5031673104571743
  0.6726441470642153  0.9975327589920840  0.9944381994794089
  0.1595311524370847  0.0862319247923637  0.0078176327906602
  0.1667263104422957  0.0860746966418689  0.4866307035163237
  0.1650748395939476  0.4177841441265643  0.9914331676650765
  0.4995457360723309  0.0890654050253778  0.9914833576519481
  0.3274189837848646  0.2501971309164452  0.2402377758306031
  0.1577369200965698  0.4189144736231117  0.5107513227161303
  0.4880361625054531  0.0876867324529003  0.5114140193355419
  0.3399519524630810  0.2514575366817016  0.7569154434101940
  0.1647684394112591  0.7515197285897224  0.9959065943866175
  0.4898595856990672  0.4133714688935125  0.9977482076478256
  0.3282537739092458  0.5831194585564967  0.2622584164983754
  0.1702264169784089  0.7489007475231143  0.5053283529771803
  0.8435878221806155  0.0857843826282410  0.9934846179102920
  0.6641295020104874  0.2487758755063853  0.2542707748700834
  0.5012984632380221  0.4120695407713065  0.5026858652822370
  0.3298862802386356  0.5855787603194655  0.7395085123846488
  0.8343280483075195  0.0828873907398139  0.5205418187681388
  0.6710291672293540  0.2492325319676528  0.7408207348666921
  0.4983232313907532  0.7505250327083285  0.9824379883935488
  0.3299904179136575  0.9199031048230349  0.2555820063484399
  0.8502319574458250  0.4124659436032133  0.0029380771899555
  0.6690259850104279  0.5859722587398248  0.2581939627604783
  0.4994036164266846  0.7478261358107212  0.5052961885391695
  0.3468586488320432  0.9162933967709388  0.7471740365712840
  0.0022199040726172  0.2486736276622866  0.2502203901432402
  0.8406471396031578  0.4143041908965327  0.5011307686264160
  0.6686185622248608  0.5857606008647205  0.7425861263664997
  0.9968669451958270  0.2503739811203270  0.7493501569327480
  0.8419561861294486  0.7509728879595010  0.9863516280466398
  0.6681098763374720  0.9160163102996478  0.2525146668714619
  0.0007021369096726  0.5808182993110228  0.2325258061099514
  0.8264308928280635  0.7480558703420310  0.5116357416455370
  0.6661762435467261  0.9107646367754655  0.7399098771437631
  0.0046434087419366  0.5837007213515412  0.7665349029313889
  0.0014810394310036  0.9178189788292443  0.2382062427301271
 -0.0100221170502892  0.9171343248709168  0.7483550200443578
  0.0803066651392984  0.1727424332678535  0.0001494774897056
  0.0834338039678389  0.1721715868550694  0.5031210687537544
  0.0858760889010771  0.4887458688346673  0.9883519531509923
  0.4198476565940040  0.1735921873407326  0.9901998251699464
  0.2515939602782915  0.3305124495638782  0.2419545954966653
  0.0880922541839051  0.4875119956649057  0.5124438395469288
  0.4197762803095502  0.1592883767568363  0.5122012957014777
  0.2491004308577581  0.3376821306139164  0.7597903427378236
  0.0796093534351690  0.8366317053383900  0.9730192495112262
  0.4158886598854584  0.4901981954632891  0.9987369151656499
  0.2487175948052127  0.6609258863597125  0.2626484415270423
  0.0818200942039389  0.8381429273136286  0.5203298488252076
  0.7548110319576898  0.1653090092169660  0.0139232620085039
  0.5841722761781866  0.3267854392471455  0.2649615412287764
  0.4091148428480190  0.5042095245346925  0.4997670965986896
  0.2479747924976993  0.6723249141943259  0.7414910946300970
  0.7499997167969742  0.1693640460127687  0.4855897498071699
  0.5838110016229311  0.3284276497401872  0.7402084978097190
  0.4189295870035375  0.8390572489775970  0.9826170196010077
  0.2478025879077707  0.0056789366044448  0.2544137255190709
  0.7506965482228743  0.4979265333023912  0.0000596778123765
  0.5840362810532329  0.6690767963970851  0.2538263636123271
  0.4181528849670022  0.8409230674399394  0.5062741531704625
  0.2469818430011727  0.0025661262369401  0.7333082858192222
  0.9156148831474351  0.3214587109650743  0.2527962740715930
  0.7502006682380915  0.5032996916655944  0.5026743017459694
  0.5853282300289406  0.6803368619325517  0.7492521275477204
  0.9234054974584170  0.3190500527678529  0.7541998786774851
  0.7559676164516612  0.8322296591057707  0.9893150390530895
  0.5795181406121833  0.0018743864067515  0.2477339681435483
  0.9158167423817635  0.6681837050510481  0.2425290426675203
  0.7481967180414602  0.8280331835417583  0.5080184728875367
  0.5798929733128754  0.9967629476975676  0.7501240164713903
  0.9161108348289200  0.6800348255024086  0.7609891096441950
  0.9194615979810501  0.0084668857517745  0.2309546561608137
  0.9200601294658555  0.9937115259974395  0.7626354643004802
  0.1587855888552295  0.0065728753988357  0.1263149810941009
  0.1750618889216429  0.0003098797662110  0.6267144919023238
  0.1643529305940877  0.3263791148450997  0.1200524337002695
  0.5011143031737104  0.0010903302337259  0.1232528666365249
  0.3205667690946489  0.1599573192078610  0.3745252559364639
  0.1601602135648987  0.3220165765377603  0.6257752332746354
  0.4951947828731726  0.9994135411578304  0.6249366999186943
  0.3242698115287929  0.1759893032848314  0.8678634430031363
  0.1513545853342801  0.6632737293556845  0.1251858355367952
  0.4954373241836601  0.3309168136821544  0.1245011287145663
  0.3307419773496735  0.5071384535722010  0.3780363086928443
  0.1739959978360195  0.6728119116120044  0.6284226696548975
  0.8396716940480279  0.0031834843409071  0.1275224323909099
  0.6833497369225819  0.1697219321240689  0.3800892853526481
  0.5028460236124155  0.3241869614000001  0.6238866277373737
  0.3273906658407690  0.4901318411800776  0.8743243877605441
  0.8321588478058293  0.0133311226565597  0.6188875673954121
  0.6726563612849020  0.1663748821243017  0.8706918647621292
  0.5023491912912720  0.6651589612018939  0.1235709622945529
  0.3322092494422741  0.8348546553227379  0.3743356384672958
  0.8427020800789630  0.3257342550362062  0.1293371590758774
  0.6699659270254225  0.4935251645197111  0.3824463731256043
  0.4972205854267114  0.6774299856943297  0.6203034311878606
  0.3174490757386761  0.8371728468151902  0.8672952475571640
 -0.0034642637573314  0.1740795462691859  0.3751685070489615
  0.8321956026219012  0.3146580123122357  0.6199258663819144
  0.6646169676794558  0.4973288620615946  0.8734897726349448
  0.0045287236088380  0.1641076085527566  0.8764882287222359
  0.8444287827791629  0.6665409499320758  0.1272972196566957
  0.6628826530320603  0.8279043826457134  0.3788998879609132
  0.9988212973177449  0.4908594742075553  0.3755530000125575
  0.8299415903901121  0.6741775425907174  0.6256500745492406
  0.6740526818404916  0.8339528127926762  0.8702007022066580
  0.0102319869091652  0.5007350433217818  0.8780596583245062
  0.9999095949766722  0.8354871137669708  0.3744226973866622
  0.0115814403159300  0.8332154343794673  0.8755234275058708
  0.0822991115704865  0.0141450530560717  0.2434857552761082
  0.0817061547313902 -0.0018910190354259  0.7614875957923323
  0.0813917104578171  0.3231482411630209  0.2454529044299165
  0.4110082290707268  0.0009553126458004  0.2552854606714115
  0.2550645304136624  0.1631679327648830  0.5252967159344868
  0.0866708224100346  0.3348399471362458  0.7653029583463510
  0.4157229489053801  0.0044197599256129  0.7368072471356576
  0.2473447908542271  0.1784569491105383  0.9833983017139558
  0.0848060737528586  0.6626698966038158  0.2432482504577557
  0.4153225858054566  0.3296747222369834  0.2432295248327679
  0.2477497668637743  0.5039437802688247  0.5083691663083640
  0.0837428751545663  0.6738448298417743  0.7627820468387320
  0.7556848552358219  0.0060113091811783  0.2538111758028221
  0.5837348456247361  0.1690925840066656  0.5012177898189044
  0.4142016014481098  0.3160447172951421  0.7541072455267710
  0.2480401171278433  0.4893741430874274  0.9922715093213420
  0.7529855935851835  0.9943824802501039  0.7466063172777864
  0.5827245940827803  0.1622170022716792  0.0022313320377525
  0.4116065594677172  0.6709438633302064  0.2603326217458422
  0.2559949373971854  0.8315099878421427  0.5274830748498512
  0.7523942878062799  0.3273905047801605  0.2658306344348141
  0.5888993451878701  0.4990950783972350  0.5069030119824752
  0.4159363387845807  0.6832150267761665  0.7407371489738501
  0.2518683491205256  0.8342146375979489  0.9638855838442193
  0.9147986243564284  0.1726287134212313  0.4898792737621170
  0.7528058204708872  0.3274052274541501  0.7423685012995271
  0.5840019626948717  0.5024709844064280  0.9937594126354939
  0.9171125794915177  0.1655870761139459  0.0140054735791342
  0.7497591638061873  0.6638558219010351  0.2644609225334184
  0.5846123434969647  0.8293870743700241  0.4998555166127683
  0.9184336482358461  0.4870277699502896  0.4963729170998726
  0.7484011687421697  0.6786430285485865  0.7398247481741554
  0.5819053438002647  0.8323315388896345  0.9835655580010996
  0.9193730514702855  0.4880677010903501  0.0022520347975690
  0.9135638376411712  0.8395185594767715  0.5081231910480564
  0.9186398202510515  0.8474212369827475  0.9879857610028134
  0.0016938044150429  0.1731604257096953  0.1243362068760032
  0.0048708619730681  0.1724207634451304  0.6278383195729678
  0.9991815117208127  0.5057636678741110  0.1256645379335895
  0.3221620598321003  0.1744973038918798  0.1254600729617170
  0.1597025094278894  0.3221455212145364  0.3762024827830284
  0.0105197748129534  0.4914316641695912  0.6276908688019217
  0.3181146409035313  0.1604572590785539  0.6206798855493297
  0.1628682877247355  0.3293165080009531  0.8660539946801040
  0.0007777216768384  0.8217649711250063  0.1207291881391346
  0.3312673496968835  0.4906768497189770  0.1276316690034540
  0.1752992395641660  0.6617531107983484  0.3783776723485562
  0.0105834302681080  0.8392934457767476  0.6299525350995279
  0.6775100122565273  0.1672588705116849  0.1335382129941380
  0.5068200258154411  0.3283111177659699  0.3800986504002219
  0.3243249614021834  0.5073068738354950  0.6200426396628399
  0.1543210312845773  0.6741800038308761  0.8714580775132885
  0.6720989496553909  0.1685040358097528  0.6292937041893157
  0.4944899763374419  0.3282974790705510  0.8757466671412739
  0.3275045089390838  0.8368896540704358  0.1221815017037439
  0.1723070264882477  0.0154554392272322  0.3828273281832106
  0.6684186083037833  0.4985895511726136  0.1289143466455616
  0.4984261419957051  0.6719790322111218  0.3784927478239526
  0.3230139411559723  0.8358329715316222  0.6224004473604989
  0.1527619369091253 -0.0012152828984263  0.8688306539123738
  0.8337809432143475  0.3236427525200088  0.3737854717589643
  0.6666076270779847  0.4926928417739926  0.6229750491913361
  0.5001585356177412  0.6651241706245073  0.8736582491647306
  0.8448124196763903  0.3190642053771425  0.8754915449703861
  0.6684923874961624  0.8321593397189004  0.1254464326495628
  0.4948378888020407  0.9985407120702382  0.3761115236183235
  0.8262673894111926  0.6652449788300787  0.3771652964550309
  0.6604700689102494  0.8360053942160649  0.6233787736368049
  0.4967892153477648  0.0053684582685493  0.8737280732201772
  0.8407277430032196  0.6723161546475217  0.8742511048202151
  0.8310522888390606  0.0085649800628434  0.3713661583778870
  0.8441701465914579  0.0057831955597422  0.8749433203731833
  0.0102854290911459  0.0857960603442198  0.2445556486807724
 -0.0011647781342973  0.0885657086567208  0.7622996822497019
  0.9995212734568852  0.4129689060007865  0.2486325397518418
  0.3202866790965627  0.0868762245241854  0.2676988036382638
  0.1587075480705527  0.2560611750623242  0.5206619802616987
  0.0112424125927177  0.4155842900190896  0.7484121957512500
  0.3388830662385174  0.0843871798269781  0.7388196195795085
  0.1669661289530427  0.2505170507731751  0.9937453342609808
  0.9960120008743749  0.7483283946611754  0.2357873895409155
  0.3269217217602352  0.4117515960600800  0.2381459879832095
  0.1710795917521902  0.5848987430750073  0.5039573546640912
  0.9823274048979452  0.7521880469282322  0.7637323361619215
  0.6673653521199536  0.0852167970639783  0.2496789235441573
  0.5015942463767774  0.2496295779475401  0.5083280032010637
  0.3187774503429406  0.4132221801454529  0.7591385526309766
  0.1568530814959555  0.5844750674475451  0.9947946522050014
  0.6713931229339225  0.0894856846787772  0.7454375044841838
  0.4914229085133118  0.2505991364672044  0.9923242973131325
  0.3361210492210330  0.7479642455914256  0.2597075327037623
  0.1650518122699555  0.9192744966286824  0.5022281575161127
  0.6708276776627825  0.4149680146746518  0.2678436342324556
  0.4988864457484284  0.5887457595783163  0.5049402753113268
  0.3506723383702914  0.7508175553336641  0.7474210411059751
  0.1629900046184312  0.9173774795774166  0.0002454998788811
  0.8391846659356629  0.2490594533622686  0.5174802715181412
  0.6703373686062878  0.4151963138291724  0.7368349247848739
  0.5039764865275206  0.5842766452217185  0.9967888750353423
  0.8443205127430327  0.2498394377041400  0.9879821459471873
  0.6648982299154087  0.7489029470243012  0.2571660158509386
  0.4873421268291378  0.9148021741633444  0.5050267231002997
  0.8244556543171169  0.5838821923308462  0.5022305230477196
  0.6649220139805120  0.7446082746978968  0.7445714664843608
  0.4910739455115495  0.9158281113213572  0.9812627189858323
  0.8421688531189672  0.5820248975433048  0.9982053208483578
  0.8382826947605835  0.9135629365423557  0.5096125912272065
  0.8530881755693704  0.9147681921993929  0.9924268776698209
 
  0.00000000E+00  0.00000000E+00  0.00000000E+00
  0.00000000E+00  0.00000000E+00  0.00000000E+00
  0.00000000E+00  0.00000000E+00  0.00000000E+00
  0.00000000E+00  0.00000000E+00  0.00000000E+00
  0.00000000E+00  0.00000000E+00  0.00000000E+00
  0.00000000E+00  0.00000000E+00  0.00000000E+00
  0.00000000E+00  0.00000000E+00  0.00000000E+00
  0.00000000E+00  0.00000000E+00  0.00000000E+00
  0.00000000E+00  0.00000000E+00  0.00000000E+00
  0.00000000E+00  0.00000000E+00  0.00000000E+00
  0.00000000E+00  0.00000000E+00  0.00000000E+00
  0.00000000E+00  0.00000000E+00  0.00000000E+00
  0.00000000E+00  0.00000000E+00  0.00000000E+00
  0.00000000E+00  0.00000000E+00  0.00000000E+00
  0.00000000E+00  0.00000000E+00  0.00000000E+00
  0.00000000E+00  0.00000000E+00  0.00000000E+00
  0.00000000E+00  0.00000000E+00  0.00000000E+00
  0.00000000E+00  0.00000000E+00  0.00000000E+00
  0.00000000E+00  0.00000000E+00  0.00000000E+00
  0.00000000E+00  0.00000000E+00  0.00000000E+00
  0.00000000E+00  0.00000000E+00  0.00000000E+00
  0.00000000E+00  0.00000000E+00  0.00000000E+00
  0.00000000E+00  0.00000000E+00  0.00000000E+00
  0.00000000E+00  0.00000000E+00  0.00000000E+00
  0.00000000E+00  0.00000000E+00  0.00000000E+00
  0.00000000E+00  0.00000000E+00  0.00000000E+00
  0.00000000E+00  0.00000000E+00  0.00000000E+00
  0.00000000E+00  0.00000000E+00  0.00000000E+00
  0.00000000E+00  0.00000000E+00  0.00000000E+00
  0.00000000E+00  0.00000000E+00  0.00000000E+00
  0.00000000E+00  0.00000000E+00  0.00000000E+00
  0.00000000E+00  0.00000000E+00  0.00000000E+00
  0.00000000E+00  0.00000000E+00  0.00000000E+00
  0.00000000E+00  0.00000000E+00  0.00000000E+00
  0.00000000E+00  0.00000000E+00  0.00000000E+00
  0.00000000E+00  0.00000000E+00  0.00000000E+00
  0.00000000E+00  0.00000000E+00  0.00000000E+00
  0.00000000E+00  0.00000000E+00  0.00000000E+00
  0.00000000E+00  0.00000000E+00  0.00000000E+00
  0.00000000E+00  0.00000000E+00  0.00000000E+00
  0.00000000E+00  0.00000000E+00  0.00000000E+00
  0.00000000E+00  0.00000000E+00  0.00000000E+00
  0.00000000E+00  0.00000000E+00  0.00000000E+00
  0.00000000E+00  0.00000000E+00  0.00000000E+00
  0.00000000E+00  0.00000000E+00  0.00000000E+00
  0.00000000E+00  0.00000000E+00  0.00000000E+00
  0.00000000E+00  0.00000000E+00  0.00000000E+00
  0.00000000E+00  0.00000000E+00  0.00000000E+00
  0.00000000E+00  0.00000000E+00  0.00000000E+00
  0.00000000E+00  0.00000000E+00  0.00000000E+00
  0.00000000E+00  0.00000000E+00  0.00000000E+00
  0.00000000E+00  0.00000000E+00  0.00000000E+00
  0.00000000E+00  0.00000000E+00  0.00000000E+00
  0.00000000E+00  0.00000000E+00  0.00000000E+00
  0.00000000E+00  0.00000000E+00  0.00000000E+00
  0.00000000E+00  0.00000000E+00  0.00000000E+00
  0.00000000E+00  0.00000000E+00  0.00000000E+00
  0.00000000E+00  0.00000000E+00  0.00000000E+00
  0.00000000E+00  0.00000000E+00  0.00000000E+00
  0.00000000E+00  0.00000000E+00  0.00000000E+00
  0.00000000E+00  0.00000000E+00  0.00000000E+00
  0.00000000E+00  0.00000000E+00  0.00000000E+00
  0.00000000E+00  0.00000000E+00  0.00000000E+00
  0.00000000E+00  0.00000000E+00  0.00000000E+00
  0.00000000E+00  0.00000000E+00  0.00000000E+00
  0.00000000E+00  0.00000000E+00  0.00000000E+00
  0.00000000E+00  0.00000000E+00  0.00000000E+00
  0.00000000E+00  0.00000000E+00  0.00000000E+00
  0.00000000E+00  0.00000000E+00  0.00000000E+00
  0.00000000E+00  0.00000000E+00  0.00000000E+00
  0.00000000E+00  0.00000000E+00  0.00000000E+00
  0.00000000E+00  0.00000000E+00  0.00000000E+00
  0.00000000E+00  0.00000000E+00  0.00000000E+00
  0.00000000E+00  0.00000000E+00  0.00000000E+00
  0.00000000E+00  0.00000000E+00  0.00000000E+00
  0.00000000E+00  0.00000000E+00  0.00000000E+00
  0.00000000E+00  0.00000000E+00  0.00000000E+00
  0.00000000E+00  0.00000000E+00  0.00000000E+00
  0.00000000E+00  0.00000000E+00  0.00000000E+00
  0.00000000E+00  0.00000000E+00  0.00000000E+00
  0.00000000E+00  0.00000000E+00  0.00000000E+00
  0.00000000E+00  0.00000000E+00  0.00000000E+00
  0.00000000E+00  0.00000000E+00  0.00000000E+00
  0.00000000E+00  0.00000000E+00  0.00000000E+00
  0.00000000E+00  0.00000000E+00  0.00000000E+00
  0.00000000E+00  0.00000000E+00  0.00000000E+00
  0.00000000E+00  0.00000000E+00  0.00000000E+00
  0.00000000E+00  0.00000000E+00  0.00000000E+00
  0.00000000E+00  0.00000000E+00  0.00000000E+00
  0.00000000E+00  0.00000000E+00  0.00000000E+00
  0.00000000E+00  0.00000000E+00  0.00000000E+00
  0.00000000E+00  0.00000000E+00  0.00000000E+00
  0.00000000E+00  0.00000000E+00  0.00000000E+00
  0.00000000E+00  0.00000000E+00  0.00000000E+00
  0.00000000E+00  0.00000000E+00  0.00000000E+00
  0.00000000E+00  0.00000000E+00  0.00000000E+00
  0.00000000E+00  0.00000000E+00  0.00000000E+00
  0.00000000E+00  0.00000000E+00  0.00000000E+00
  0.00000000E+00  0.00000000E+00  0.00000000E+00
  0.00000000E+00  0.00000000E+00  0.00000000E+00
  0.00000000E+00  0.00000000E+00  0.00000000E+00
  0.00000000E+00  0.00000000E+00  0.00000000E+00
  0.00000000E+00  0.00000000E+00  0.00000000E+00
  0.00000000E+00  0.00000000E+00  0.00000000E+00
  0.00000000E+00  0.00000000E+00  0.00000000E+00
  0.00000000E+00  0.00000000E+00  0.00000000E+00
  0.00000000E+00  0.00000000E+00  0.00000000E+00
  0.00000000E+00  0.00000000E+00  0.00000000E+00
  0.00000000E+00  0.00000000E+00  0.00000000E+00
  0.00000000E+00  0.00000000E+00  0.00000000E+00
  0.00000000E+00  0.00000000E+00  0.00000000E+00
  0.00000000E+00  0.00000000E+00  0.00000000E+00
  0.00000000E+00  0.00000000E+00  0.00000000E+00
  0.00000000E+00  0.00000000E+00  0.00000000E+00
  0.00000000E+00  0.00000000E+00  0.00000000E+00
  0.00000000E+00  0.00000000E+00  0.00000000E+00
  0.00000000E+00  0.00000000E+00  0.00000000E+00
  0.00000000E+00  0.00000000E+00  0.00000000E+00
  0.00000000E+00  0.00000000E+00  0.00000000E+00
  0.00000000E+00  0.00000000E+00  0.00000000E+00
  0.00000000E+00  0.00000000E+00  0.00000000E+00
  0.00000000E+00  0.00000000E+00  0.00000000E+00
  0.00000000E+00  0.00000000E+00  0.00000000E+00
  0.00000000E+00  0.00000000E+00  0.00000000E+00
  0.00000000E+00  0.00000000E+00  0.00000000E+00
  0.00000000E+00  0.00000000E+00  0.00000000E+00
  0.00000000E+00  0.00000000E+00  0.00000000E+00
  0.00000000E+00  0.00000000E+00  0.00000000E+00
  0.00000000E+00  0.00000000E+00  0.00000000E+00
  0.00000000E+00  0.00000000E+00  0.00000000E+00
  0.00000000E+00  0.00000000E+00  0.00000000E+00
  0.00000000E+00  0.00000000E+00  0.00000000E+00
  0.00000000E+00  0.00000000E+00  0.00000000E+00
  0.00000000E+00  0.00000000E+00  0.00000000E+00
  0.00000000E+00  0.00000000E+00  0.00000000E+00
  0.00000000E+00  0.00000000E+00  0.00000000E+00
  0.00000000E+00  0.00000000E+00  0.00000000E+00
  0.00000000E+00  0.00000000E+00  0.00000000E+00
  0.00000000E+00  0.00000000E+00  0.00000000E+00
  0.00000000E+00  0.00000000E+00  0.00000000E+00
  0.00000000E+00  0.00000000E+00  0.00000000E+00
  0.00000000E+00  0.00000000E+00  0.00000000E+00
  0.00000000E+00  0.00000000E+00  0.00000000E+00
  0.00000000E+00  0.00000000E+00  0.00000000E+00
  0.00000000E+00  0.00000000E+00  0.00000000E+00
  0.00000000E+00  0.00000000E+00  0.00000000E+00
  0.00000000E+00  0.00000000E+00  0.00000000E+00
  0.00000000E+00  0.00000000E+00  0.00000000E+00
  0.00000000E+00  0.00000000E+00  0.00000000E+00
  0.00000000E+00  0.00000000E+00  0.00000000E+00
  0.00000000E+00  0.00000000E+00  0.00000000E+00
  0.00000000E+00  0.00000000E+00  0.00000000E+00
  0.00000000E+00  0.00000000E+00  0.00000000E+00
  0.00000000E+00  0.00000000E+00  0.00000000E+00
  0.00000000E+00  0.00000000E+00  0.00000000E+00
  0.00000000E+00  0.00000000E+00  0.00000000E+00
  0.00000000E+00  0.00000000E+00  0.00000000E+00
  0.00000000E+00  0.00000000E+00  0.00000000E+00
  0.00000000E+00  0.00000000E+00  0.00000000E+00
  0.00000000E+00  0.00000000E+00  0.00000000E+00
  0.00000000E+00  0.00000000E+00  0.00000000E+00
  0.00000000E+00  0.00000000E+00  0.00000000E+00
  0.00000000E+00  0.00000000E+00  0.00000000E+00
  0.00000000E+00  0.00000000E+00  0.00000000E+00
  0.00000000E+00  0.00000000E+00  0.00000000E+00
  0.00000000E+00  0.00000000E+00  0.00000000E+00
  0.00000000E+00  0.00000000E+00  0.00000000E+00
  0.00000000E+00  0.00000000E+00  0.00000000E+00
  0.00000000E+00  0.00000000E+00  0.00000000E+00
  0.00000000E+00  0.00000000E+00  0.00000000E+00
  0.00000000E+00  0.00000000E+00  0.00000000E+00
  0.00000000E+00  0.00000000E+00  0.00000000E+00
  0.00000000E+00  0.00000000E+00  0.00000000E+00
  0.00000000E+00  0.00000000E+00  0.00000000E+00
  0.00000000E+00  0.00000000E+00  0.00000000E+00
  0.00000000E+00  0.00000000E+00  0.00000000E+00
  0.00000000E+00  0.00000000E+00  0.00000000E+00
  0.00000000E+00  0.00000000E+00  0.00000000E+00
  0.00000000E+00  0.00000000E+00  0.00000000E+00
  0.00000000E+00  0.00000000E+00  0.00000000E+00
  0.00000000E+00  0.00000000E+00  0.00000000E+00
  0.00000000E+00  0.00000000E+00  0.00000000E+00
  0.00000000E+00  0.00000000E+00  0.00000000E+00
  0.00000000E+00  0.00000000E+00  0.00000000E+00
  0.00000000E+00  0.00000000E+00  0.00000000E+00
  0.00000000E+00  0.00000000E+00  0.00000000E+00
  0.00000000E+00  0.00000000E+00  0.00000000E+00
  0.00000000E+00  0.00000000E+00  0.00000000E+00
  0.00000000E+00  0.00000000E+00  0.00000000E+00
  0.00000000E+00  0.00000000E+00  0.00000000E+00
  0.00000000E+00  0.00000000E+00  0.00000000E+00
  0.00000000E+00  0.00000000E+00  0.00000000E+00
  0.00000000E+00  0.00000000E+00  0.00000000E+00
  0.00000000E+00  0.00000000E+00  0.00000000E+00
  0.00000000E+00  0.00000000E+00  0.00000000E+00
  0.00000000E+00  0.00000000E+00  0.00000000E+00
  0.00000000E+00  0.00000000E+00  0.00000000E+00
  0.00000000E+00  0.00000000E+00  0.00000000E+00
  0.00000000E+00  0.00000000E+00  0.00000000E+00
  0.00000000E+00  0.00000000E+00  0.00000000E+00
  0.00000000E+00  0.00000000E+00  0.00000000E+00
  0.00000000E+00  0.00000000E+00  0.00000000E+00
  0.00000000E+00  0.00000000E+00  0.00000000E+00
  0.00000000E+00  0.00000000E+00  0.00000000E+00
  0.00000000E+00  0.00000000E+00  0.00000000E+00
  0.00000000E+00  0.00000000E+00  0.00000000E+00
  0.00000000E+00  0.00000000E+00  0.00000000E+00
  0.00000000E+00  0.00000000E+00  0.00000000E+00
  0.00000000E+00  0.00000000E+00  0.00000000E+00
  0.00000000E+00  0.00000000E+00  0.00000000E+00
  0.00000000E+00  0.00000000E+00  0.00000000E+00
  0.00000000E+00  0.00000000E+00  0.00000000E+00
  0.00000000E+00  0.00000000E+00  0.00000000E+00
  0.00000000E+00  0.00000000E+00  0.00000000E+00
  0.00000000E+00  0.00000000E+00  0.00000000E+00
  0.00000000E+00  0.00000000E+00  0.00000000E+00
  0.00000000E+00  0.00000000E+00  0.00000000E+00
  0.00000000E+00  0.00000000E+00  0.00000000E+00
  0.00000000E+00  0.00000000E+00  0.00000000E+00
  0.00000000E+00  0.00000000E+00  0.00000000E+00
  0.00000000E+00  0.00000000E+00  0.00000000E+00
  0.00000000E+00  0.00000000E+00  0.00000000E+00
  0.00000000E+00  0.00000000E+00  0.00000000E+00
  0.00000000E+00  0.00000000E+00  0.00000000E+00
  0.00000000E+00  0.00000000E+00  0.00000000E+00
  0.00000000E+00  0.00000000E+00  0.00000000E+00
  0.00000000E+00  0.00000000E+00  0.00000000E+00
  0.00000000E+00  0.00000000E+00  0.00000000E+00
  0.00000000E+00  0.00000000E+00  0.00000000E+00
  0.00000000E+00  0.00000000E+00  0.00000000E+00
  0.00000000E+00  0.00000000E+00  0.00000000E+00
  0.00000000E+00  0.00000000E+00  0.00000000E+00
  0.00000000E+00  0.00000000E+00  0.00000000E+00
  0.00000000E+00  0.00000000E+00  0.00000000E+00
  0.00000000E+00  0.00000000E+00  0.00000000E+00
  0.00000000E+00  0.00000000E+00  0.00000000E+00
  0.00000000E+00  0.00000000E+00  0.00000000E+00
  0.00000000E+00  0.00000000E+00  0.00000000E+00
  0.00000000E+00  0.00000000E+00  0.00000000E+00
  0.00000000E+00  0.00000000E+00  0.00000000E+00
  0.00000000E+00  0.00000000E+00  0.00000000E+00
  0.00000000E+00  0.00000000E+00  0.00000000E+00
  0.00000000E+00  0.00000000E+00  0.00000000E+00
  0.00000000E+00  0.00000000E+00  0.00000000E+00
  0.00000000E+00  0.00000000E+00  0.00000000E+00
  0.00000000E+00  0.00000000E+00  0.00000000E+00
  0.00000000E+00  0.00000000E+00  0.00000000E+00
  0.00000000E+00  0.00000000E+00  0.00000000E+00
  0.00000000E+00  0.00000000E+00  0.00000000E+00
  0.00000000E+00  0.00000000E+00  0.00000000E+00
  0.00000000E+00  0.00000000E+00  0.00000000E+00
  0.00000000E+00  0.00000000E+00  0.00000000E+00
