       N       E                     dE             d eps       ncg     rms          rms(c)
DAV:   1     0.134546587421E+05    0.13455E+05   -0.25048E+05 15992   0.240E+03
DAV:   2     0.226000987216E+04   -0.11195E+05   -0.10498E+05 15960   0.795E+02
DAV:   3    -0.480937326200E+03   -0.27409E+04   -0.25081E+04 20600   0.409E+02
DAV:   4    -0.882903622062E+03   -0.40197E+03   -0.37982E+03 26840   0.215E+02
DAV:   5    -0.908965169380E+03   -0.26062E+02   -0.25348E+02 26640   0.684E+01    0.214E+02
DAV:   6    -0.697937292893E+03    0.21103E+03   -0.32169E+02 30120   0.868E+01    0.821E+01
DAV:   7    -0.693497684990E+03    0.44396E+01   -0.26788E+02 27216   0.439E+01    0.468E+01
DAV:   8    -0.692249868987E+03    0.12478E+01   -0.35360E+01 27248   0.196E+01    0.183E+01
DAV:   9    -0.691877525597E+03    0.37234E+00   -0.42799E+00 25680   0.770E+00    0.941E+00
DAV:  10    -0.691790908888E+03    0.86617E-01   -0.60984E-01 26912   0.333E+00    0.742E+00
DAV:  11    -0.691756344558E+03    0.34564E-01   -0.15018E-01 26528   0.155E+00    0.301E+00
DAV:  12    -0.691753264339E+03    0.30802E-02   -0.56684E-02 25712   0.877E-01    0.493E-01
DAV:  13    -0.691752250123E+03    0.10142E-02   -0.11935E-02 25408   0.473E-01    0.191E-01
DAV:  14    -0.691752249998E+03    0.12448E-06   -0.18292E-03 26456   0.168E-01    0.128E-01
DAV:  15    -0.691752265180E+03   -0.15181E-04   -0.29017E-04 29104   0.691E-02    0.760E-02
DAV:  16    -0.691752261409E+03    0.37706E-05   -0.58688E-05 26760   0.289E-02    0.260E-02
DAV:  17    -0.691752254640E+03    0.67695E-05   -0.81881E-06 21160   0.146E-02    0.122E-02
DAV:  18    -0.691752253745E+03    0.89498E-06   -0.15413E-06 15048   0.737E-03
   1 F= 0.14188679E+03 E0= 0.14188651E+03  d E =0.141887E+03
