POSCAR                                  
   1.00000000000000     
    10.0296331635021954   -0.0125199346888586   -0.0037831735674552
    -0.0125362507827372   10.0164594800631264   -0.0009080912451033
    -0.0025710055530196   -0.0005988040601833    6.6475267086476810
   Mg   Na   Ca   Zr   H 
     9     9     9     9   216
Direct
  0.1657748166814504  0.1727143419787626  0.2506421584182918
  0.1655343004150974  0.8381229101461998  0.7448325506212299
  0.8385092355278878  0.1653534896461964  0.2516560820571569
  0.6697607065868610  0.3283082089351209  0.5029402920002030
  0.5025659065431796  0.8375744050207140  0.7434246245465813
  0.0054193310351515  0.3297444731044177  0.0001536805561980
  0.8314732231137505  0.8380021467896813  0.7460992479235791
  0.9990749270566268  0.6658302927502598  0.9978256821435675
  0.0030831750965955  0.0051220368986732  0.9993973477168779
  0.1620933822168748  0.1637885322727873  0.7514987082568253
  0.1673650697696444  0.5033114449926632  0.7508436702943059
  0.5047812916382056  0.1651053124763034  0.7489306800382669
  0.3298846696627877  0.3311930150763444  0.9983786705444834
  0.3339307911701109  0.6709489059536842  0.5033685215988677
  0.8371281401198846  0.1634691736816192  0.7529904583647667
  0.3311274369654321  0.9988410888297283  0.5010070956117484
  0.6634261792777202  0.6664911276801462  0.5024076340599835
  0.0001080891454840  0.3304301161964812  0.5016947039256762
  0.1626167164600640  0.4916224100336087  0.2492302141100999
  0.4952288720301381  0.1648158362856402  0.2537606297283486
  0.3283637935791348  0.3311058933157880  0.5017819765518741
  0.4982020316121455  0.8353454557688252  0.2457399732314975
  0.8357688689997200  0.4960944795997066  0.2514611468045719
  0.6728444731530653  0.6676452434541559  0.9988858785411394
  0.8339365844599206  0.8354956849252727  0.2511932007614555
  0.6645399266527512  0.0009654817625490  0.5012003319023018
  0.0005900408742949  0.0074440553298333  0.5010043873689465
  0.1651705168142009  0.8351258201101807  0.2522500006484831
  0.5002267077591739  0.4986754658820680  0.2571677662715127
  0.4936121088092742  0.4984293525820769  0.7432151805246777
  0.3280274162522683  0.6623715655160980  0.9995411278093475
  0.6694742166987424  0.3309026399328743  0.9995115164399255
  0.3268778765517681  0.0112776810394769  0.9915768249618435
  0.8418691255215575  0.4964523465484285  0.7502227835940396
  0.0003981040558623  0.6648510242361374  0.5031762956895862
  0.6725524682880134  0.9976045438956719  0.9944865276827589
  0.1595518147070564  0.0860545357238137  0.0075170901515238
  0.1666978941840373  0.0859597081215281  0.4865113849408387
  0.1646769535268750  0.4178768293669744  0.9915235799669013
  0.4993881140739422  0.0890776677079383  0.9916089686423617
  0.3273372208025183  0.2502138110974587  0.2403000186315262
  0.1577064950704805  0.4188381428050218  0.5109489362074322
  0.4879571366867400  0.0875833362789568  0.5112334049786804
  0.3399063185572125  0.2514649868154666  0.7568249821503218
  0.1648204127518461  0.7515161503337808  0.9957971982594237
  0.4898224042186034  0.4133945871714779  0.9975909824975377
  0.3283153909676653  0.5831158601880627  0.2622261260750488
  0.1701411082665943  0.7488361085708435  0.5057283429228909
  0.8436951451142495  0.0857666984583289  0.9931732558970192
  0.6640669909127057  0.2487676518876878  0.2541598019559335
  0.5015217462910021  0.4119867163655531  0.5026233106944035
  0.3297550800056000  0.5853859875471732  0.7396170625510188
  0.8344858586723349  0.0829732552138069  0.5205447733246457
  0.6710990735999109  0.2491918164607150  0.7408620734788337
  0.4983810888007610  0.7503890856572285  0.9824593687875410
  0.3299833331509721  0.9197760833538242  0.2559790924109653
  0.8501882392371639  0.4125851386496870  0.0030207815638177
  0.6688547522811624  0.5859638570081427  0.2581811744963300
  0.4994723346959433  0.7478086302834893  0.5060021806166288
  0.3472309903662558  0.9162216499601261  0.7472037339608536
  0.0022443628227688  0.2486457793188417  0.2497008400122166
  0.8408807853735870  0.4145401078214606  0.5012001989745908
  0.6685714790088396  0.5857710017175455  0.7425748392130310
  0.9968782916570039  0.2502846291256276  0.7488709914660782
  0.8417916874418336  0.7510773928094345  0.9866106612587237
  0.6680876511931763  0.9159380688694703  0.2524872066339239
  0.0006940132648033  0.5808476423640968  0.2325171306443902
  0.8264094924151859  0.7480389788779430  0.5118522031431195
  0.6663571429812765  0.9109313883999306  0.7398691291818467
  0.0047618727975711  0.5838413827194116  0.7666221067267456
  0.0015104227465378  0.9179437446044540  0.2382022712281214
  0.9895929097161040  0.9172522796814423  0.7485660755508400
  0.0804471603907351  0.1727671315039286 -0.0004545734882481
  0.0834827538461172  0.1722669041456198  0.5026645638790117
  0.0859507290575103  0.4889567008568909  0.9884886480836929
  0.4198564847724311  0.1735638566409576  0.9901170351648995
  0.2514785468139247  0.3304193208052194  0.2418287144573054
  0.0881689662760868  0.4875039432856333  0.5124932848241276
  0.4198721293368082  0.1592910612755683  0.5120770360609195
  0.2489105502310805  0.3373011655057720  0.7596763798723639
  0.0796997529361876  0.8364244904490874  0.9733731668275962
  0.4157376333618713  0.4902558957142092  0.9989447091490473
  0.2485646199534442  0.6609514921420110  0.2627992507005774
  0.0819479490019091  0.8383285184581403  0.5200749436660724
  0.7548887189610411  0.1653230051606474  0.0136261610897682
  0.5842199003812693  0.3266869034473101  0.2648570913107613
  0.4092152783227748  0.5042402432854689  0.4997546940351680
  0.2480138803769505  0.6721146940236929  0.7418082149504193
  0.7500644038454153  0.1693740218916499  0.4851236367192197
  0.5838566701348785  0.3283641518267587  0.7399184407946138
  0.4189994055798991  0.8390757398392589  0.9827687070890464
  0.2480230251476832  0.0055703289490847  0.2543653418018761
  0.7505975872969547  0.4979775262906596  0.0001311157703709
  0.5842413414174392  0.6690007572231021  0.2537460085304940
  0.4181792884992127  0.8407858500206951  0.5060232703177934
  0.2470777261356662  0.0024889993701815  0.7333318571880465
  0.9155295761220108  0.3215381868825357  0.2530966223200815
  0.7502192620550004  0.5031471492423411  0.5028096628931812
  0.5852997874545599  0.6799215971694738  0.7491070572570094
  0.9231757020015801  0.3194085847946838  0.7542131924853713
  0.7557686116406188  0.8323802698068381  0.9895621079521381
  0.5794592463300451  0.0017895729694542  0.2476920602850775
  0.9157672945873633  0.6683571404868031  0.2427731747561214
  0.7480780120437993  0.8280718282633868  0.5078828923463172
  0.5798450805815484  0.9968984391504505  0.7501207424965878
  0.9163377784172753  0.6804039444807458  0.7611327151352666
  0.9195132213881240  0.0084236597602539  0.2310093654061263
  0.9199717592394624  0.9935273844797247  0.7624027427253400
  0.1586159467745684  0.0064685008513256  0.1263150879896316
  0.1750447311053699  0.0002843168514797  0.6267461131432555
  0.1644601990155777  0.3263927474763420  0.1200054119955079
  0.5012577012047621  0.0010521664838664  0.1232275848373882
  0.3205642420712789  0.1599726908984365  0.3745548448349999
  0.1605021677844136  0.3220851633959334  0.6257502775839290
  0.4951536095375269  0.9991674516507514  0.6247504481262446
  0.3240802980177589  0.1759266528249825  0.8679547420969229
  0.1514609204365468  0.6631288668360314  0.1253295272470870
  0.4954606512580697  0.3309112273622546  0.1246182372201268
  0.3306699871969874  0.5071904008096767  0.3780206167419901
  0.1739532776179640  0.6726584966117488  0.6285237495462273
  0.8395490556539165  0.0033027275106218  0.1273086739879003
  0.6835870272040500  0.1698682100676170  0.3798581088669048
  0.5027142454534536  0.3240449350211361  0.6238800522751295
  0.3271415199972822  0.4900417990588933  0.8741388317638391
  0.8321850689548665  0.0134848864562055  0.6189025249152845
  0.6727797193139970  0.1663262101761458  0.8705893957869837
  0.5023888713355942  0.6651284946712870  0.1236877343060172
  0.3321966992570124  0.8350385405494261  0.3741679769993556
  0.8427179197023398  0.3256477486993717  0.1290637543314449
  0.6700277767376130  0.4931664346179583  0.3825937084779467
  0.4973264865088707  0.6773828181357464  0.6202697517619143
  0.3175501890062720  0.8373513723864822  0.8671838629236371
  0.9962088911718640  0.1740147356831760  0.3751886739141685
  0.8322764336288492  0.3146083942061886  0.6197030445890752
  0.6646580507911136  0.4974982489881412  0.8733840234923451
  0.0046462529832881  0.1641299624952026  0.8762814526773305
  0.8443848294130646  0.6666452661498206  0.1274332458860911
  0.6630164939991143  0.8279987425990863  0.3790890141127397
  0.9987819267684223  0.4912030966921084  0.3757499685517958
  0.8300672122680297  0.6742694620823916  0.6255319499108085
  0.6738238823420910  0.8338901728001693  0.8702660449210498
  0.0102332729718793  0.5011332044033157  0.8779436739842464
  0.9997402847352579  0.8355204870863094  0.3746011679938497
  0.0117501700871967  0.8333603382865317  0.8756725430519930
  0.0823973440697012  0.0140319143101612  0.2433720729020332
  0.0816977570271449  0.9977979180573442  0.7616498960454804
  0.0812387108969732  0.3231654996508725  0.2458658432565553
  0.4109768088316222  0.0008254730523518  0.2553945891078571
  0.2551762807769858  0.1631772919792333  0.5253795271827723
  0.0864153156738611  0.3347284024414258  0.7652127496958288
  0.4157756545467169  0.0042980721347149  0.7368660547519300
  0.2474162686411183  0.1783318009705261  0.9832833764224408
  0.0848050846566971  0.6626201847092442  0.2434742682401884
  0.4151826066142631  0.3296656085149757  0.2432501951339559
  0.2478698608791493  0.5040888987456834  0.5081947498070052
  0.0837727448469593  0.6736631037151314  0.7628748647152999
  0.7556964029255653  0.0060847465415343  0.2539490244627399
  0.5838466059181229  0.1692651756944701  0.5009745010926282
  0.4141190902541008  0.3160198847514751  0.7540181603726990
  0.2479524366430617  0.4895561351702881  0.9925121572800720
  0.7530202796436680  0.9945042138571448  0.7465755491636268
  0.5826819052420199  0.1622817532062321  0.0021900015995519
  0.4115306422517292  0.6709782965070569  0.2603618470473027
  0.2560016421784244  0.8315804279836045  0.5276756804362406
  0.7524067037786805  0.3276691361606246  0.2658148694064186
  0.5887037271973782  0.4994771419494051  0.5070043255260542
  0.4157421717122028  0.6833419167474376  0.7412896418407895
  0.2521258620358209  0.8341581529898704  0.9638086416702044
  0.9148117125598941  0.1725560869743802  0.4893726049101945
  0.7528400334861637  0.3273741826528860  0.7422485303788909
  0.5840253109766029  0.5024737821038404  0.9938442472584169
  0.9171340888191080  0.1655465872478127  0.0138253750391619
  0.7498609826941393  0.6639001553463695  0.2644982480832976
  0.5846352293575999  0.8296024330000327  0.5000233852852575
  0.9184252044226979  0.4868637201700504  0.4963944704239098
  0.7484701796603892  0.6780003529023589  0.7398646609100429
  0.5818742357193797  0.8322621928448942  0.9839868857868370
  0.9194081481516732  0.4879687506316355  0.0023025908850647
  0.9135888815528568  0.8396556962526295  0.5082162587603608
  0.9184668568063356  0.8473395457172527  0.9881424379028773
  0.0015930984318391  0.1729340361956697  0.1241710474713084
  0.0046021929340973  0.1725211151123586  0.6278558583212802
  0.9992021336317435  0.5058953545014061  0.1256211548587861
  0.3220118927068337  0.1744032154645825  0.1253490978631031
  0.1596837905164784  0.3222455823258751  0.3760373236249225
  0.0104205424335370  0.4918041924112141  0.6277417793624628
  0.3181079254074465  0.1603620250840039  0.6208495326903947
  0.1630323464186663  0.3291861667060252  0.8659699250550907
  0.0007931094403548  0.8219963279040697  0.1211451891878666
  0.3310162210720478  0.4903829817450114  0.1276383545812861
  0.1753425777026351  0.6616913893757318  0.3784639138885413
  0.0108412880223787  0.8393048658646532  0.6298464823347576
  0.6774916482908191  0.1673968685485812  0.1336534454026369
  0.5069143331211656  0.3284094654560975  0.3801182687768609
  0.3243950755677413  0.5074205720272432  0.6200749356661526
  0.1542037463695931  0.6741946161894823  0.8714878027207574
  0.6721103937495300  0.1685311610446458  0.6291512444515216
  0.4944772983918568  0.3281639152740210  0.8758041510875357
  0.3275369009061465  0.8368779521818062  0.1222276655682555
  0.1722854214963849  0.0153603552414284  0.3825791713203811
  0.6685142751855601  0.4985566523772973  0.1287731109790751
  0.4984033164596175  0.6716955810922257  0.3781600319682557
  0.3230443629747273  0.8358461916682124  0.6226214001911041
  0.1529349613449830  0.9987833467182168  0.8691263587213259
  0.8337725877617342  0.3237341074019272  0.3734734883407616
  0.6664557235954631  0.4929877469963120  0.6231314501889657
  0.5000735305747900  0.6650993671921567  0.8737538178439799
  0.8448140936009019  0.3190308056334086  0.8753650096434321
  0.6684569020727702  0.8321844422095136  0.1254996255878253
  0.4948777504653698  0.9985291160067697  0.3759570336589296
  0.8260441300500251  0.6652949630211719  0.3771140267966296
  0.6607545276355480  0.8360726272947876  0.6235762146830941
  0.4969097518598758  0.0051574318638605  0.8736285549398374
  0.8407402141817408  0.6727343486635512  0.8742429626967857
  0.8310873887278937  0.0086717785881749  0.3712314392467079
  0.8437763801922449  0.0059017084248547  0.8751552091831966
  0.0103861698533122  0.0857299757932490  0.2446165355283521
  0.9985574208803722  0.0884002200712238  0.7626828931526286
  0.9994903481332700  0.4129167873880675  0.2485844557437207
  0.3201869127529179  0.0867915214714606  0.2678196271017586
  0.1587595186796517  0.2558879543907229  0.5200632337008754
  0.0113832339793812  0.4155239426235488  0.7486525879986452
  0.3391734168782696  0.0842858467553651  0.7387612953060501
  0.1668478655088242  0.2504172162477522  0.9939210296030803
  0.9958767255825345  0.7483387855207749  0.2359707661978858
  0.3268309612078092  0.4118574914432473  0.2379259551064425
  0.1709834361562230  0.5849133082653603  0.5043513308097515
  0.9827249335221482  0.7523082552628859  0.7636249882596313
  0.6671443737317508  0.0852372502756572  0.2495891440542035
  0.5015637459115416  0.2495217396449537  0.5081990896016085
  0.3190199696233094  0.4132646938177912  0.7591717431977876
  0.1566801004092577  0.5844734290819903  0.9946310196272603
  0.6714168817932847  0.0893438765774269  0.7454963032682762
  0.4913961329846801  0.2505570149342618  0.9921492047755123
  0.3362393997934854  0.7478158809000888  0.2597880607381298
  0.1652163967359969  0.9191431271401179  0.5020722079568581
  0.6708437327108049  0.4150539059799796  0.2677286745308394
  0.4989396000857783  0.5887930818614896  0.5051472094396241
  0.3505984596431036  0.7508456440050041  0.7473934908459534
  0.1631250051358310  0.9173129305614197  0.0002539198106621
  0.8392013311653226  0.2492244490445406  0.5171906193645044
  0.6703094833090811  0.4153028334239940  0.7367067666086026
  0.5038433123445979  0.5842703217716714  0.9965061093291367
  0.8442846295464369  0.2498847496360843  0.9876221298967244
  0.6648671695906739  0.7489322880046773  0.2571260285985971
  0.4875205497583921  0.9148279387351468  0.5052673375840115
  0.8246174669939614  0.5839535447045057  0.5022160970911737
  0.6649072319085388  0.7447500103163853  0.7445802439531064
  0.4909962797190795  0.9157903406206562  0.9815200575277090
  0.8421769369260467  0.5821391889937346  0.9981462079863620
  0.8384128559682701  0.9135830185980574  0.5100679270895692
  0.8530510311325997  0.9147583021860662  0.9923126407312169
 
  0.00000000E+00  0.00000000E+00  0.00000000E+00
  0.00000000E+00  0.00000000E+00  0.00000000E+00
  0.00000000E+00  0.00000000E+00  0.00000000E+00
  0.00000000E+00  0.00000000E+00  0.00000000E+00
  0.00000000E+00  0.00000000E+00  0.00000000E+00
  0.00000000E+00  0.00000000E+00  0.00000000E+00
  0.00000000E+00  0.00000000E+00  0.00000000E+00
  0.00000000E+00  0.00000000E+00  0.00000000E+00
  0.00000000E+00  0.00000000E+00  0.00000000E+00
  0.00000000E+00  0.00000000E+00  0.00000000E+00
  0.00000000E+00  0.00000000E+00  0.00000000E+00
  0.00000000E+00  0.00000000E+00  0.00000000E+00
  0.00000000E+00  0.00000000E+00  0.00000000E+00
  0.00000000E+00  0.00000000E+00  0.00000000E+00
  0.00000000E+00  0.00000000E+00  0.00000000E+00
  0.00000000E+00  0.00000000E+00  0.00000000E+00
  0.00000000E+00  0.00000000E+00  0.00000000E+00
  0.00000000E+00  0.00000000E+00  0.00000000E+00
  0.00000000E+00  0.00000000E+00  0.00000000E+00
  0.00000000E+00  0.00000000E+00  0.00000000E+00
  0.00000000E+00  0.00000000E+00  0.00000000E+00
  0.00000000E+00  0.00000000E+00  0.00000000E+00
  0.00000000E+00  0.00000000E+00  0.00000000E+00
  0.00000000E+00  0.00000000E+00  0.00000000E+00
  0.00000000E+00  0.00000000E+00  0.00000000E+00
  0.00000000E+00  0.00000000E+00  0.00000000E+00
  0.00000000E+00  0.00000000E+00  0.00000000E+00
  0.00000000E+00  0.00000000E+00  0.00000000E+00
  0.00000000E+00  0.00000000E+00  0.00000000E+00
  0.00000000E+00  0.00000000E+00  0.00000000E+00
  0.00000000E+00  0.00000000E+00  0.00000000E+00
  0.00000000E+00  0.00000000E+00  0.00000000E+00
  0.00000000E+00  0.00000000E+00  0.00000000E+00
  0.00000000E+00  0.00000000E+00  0.00000000E+00
  0.00000000E+00  0.00000000E+00  0.00000000E+00
  0.00000000E+00  0.00000000E+00  0.00000000E+00
  0.00000000E+00  0.00000000E+00  0.00000000E+00
  0.00000000E+00  0.00000000E+00  0.00000000E+00
  0.00000000E+00  0.00000000E+00  0.00000000E+00
  0.00000000E+00  0.00000000E+00  0.00000000E+00
  0.00000000E+00  0.00000000E+00  0.00000000E+00
  0.00000000E+00  0.00000000E+00  0.00000000E+00
  0.00000000E+00  0.00000000E+00  0.00000000E+00
  0.00000000E+00  0.00000000E+00  0.00000000E+00
  0.00000000E+00  0.00000000E+00  0.00000000E+00
  0.00000000E+00  0.00000000E+00  0.00000000E+00
  0.00000000E+00  0.00000000E+00  0.00000000E+00
  0.00000000E+00  0.00000000E+00  0.00000000E+00
  0.00000000E+00  0.00000000E+00  0.00000000E+00
  0.00000000E+00  0.00000000E+00  0.00000000E+00
  0.00000000E+00  0.00000000E+00  0.00000000E+00
  0.00000000E+00  0.00000000E+00  0.00000000E+00
  0.00000000E+00  0.00000000E+00  0.00000000E+00
  0.00000000E+00  0.00000000E+00  0.00000000E+00
  0.00000000E+00  0.00000000E+00  0.00000000E+00
  0.00000000E+00  0.00000000E+00  0.00000000E+00
  0.00000000E+00  0.00000000E+00  0.00000000E+00
  0.00000000E+00  0.00000000E+00  0.00000000E+00
  0.00000000E+00  0.00000000E+00  0.00000000E+00
  0.00000000E+00  0.00000000E+00  0.00000000E+00
  0.00000000E+00  0.00000000E+00  0.00000000E+00
  0.00000000E+00  0.00000000E+00  0.00000000E+00
  0.00000000E+00  0.00000000E+00  0.00000000E+00
  0.00000000E+00  0.00000000E+00  0.00000000E+00
  0.00000000E+00  0.00000000E+00  0.00000000E+00
  0.00000000E+00  0.00000000E+00  0.00000000E+00
  0.00000000E+00  0.00000000E+00  0.00000000E+00
  0.00000000E+00  0.00000000E+00  0.00000000E+00
  0.00000000E+00  0.00000000E+00  0.00000000E+00
  0.00000000E+00  0.00000000E+00  0.00000000E+00
  0.00000000E+00  0.00000000E+00  0.00000000E+00
  0.00000000E+00  0.00000000E+00  0.00000000E+00
  0.00000000E+00  0.00000000E+00  0.00000000E+00
  0.00000000E+00  0.00000000E+00  0.00000000E+00
  0.00000000E+00  0.00000000E+00  0.00000000E+00
  0.00000000E+00  0.00000000E+00  0.00000000E+00
  0.00000000E+00  0.00000000E+00  0.00000000E+00
  0.00000000E+00  0.00000000E+00  0.00000000E+00
  0.00000000E+00  0.00000000E+00  0.00000000E+00
  0.00000000E+00  0.00000000E+00  0.00000000E+00
  0.00000000E+00  0.00000000E+00  0.00000000E+00
  0.00000000E+00  0.00000000E+00  0.00000000E+00
  0.00000000E+00  0.00000000E+00  0.00000000E+00
  0.00000000E+00  0.00000000E+00  0.00000000E+00
  0.00000000E+00  0.00000000E+00  0.00000000E+00
  0.00000000E+00  0.00000000E+00  0.00000000E+00
  0.00000000E+00  0.00000000E+00  0.00000000E+00
  0.00000000E+00  0.00000000E+00  0.00000000E+00
  0.00000000E+00  0.00000000E+00  0.00000000E+00
  0.00000000E+00  0.00000000E+00  0.00000000E+00
  0.00000000E+00  0.00000000E+00  0.00000000E+00
  0.00000000E+00  0.00000000E+00  0.00000000E+00
  0.00000000E+00  0.00000000E+00  0.00000000E+00
  0.00000000E+00  0.00000000E+00  0.00000000E+00
  0.00000000E+00  0.00000000E+00  0.00000000E+00
  0.00000000E+00  0.00000000E+00  0.00000000E+00
  0.00000000E+00  0.00000000E+00  0.00000000E+00
  0.00000000E+00  0.00000000E+00  0.00000000E+00
  0.00000000E+00  0.00000000E+00  0.00000000E+00
  0.00000000E+00  0.00000000E+00  0.00000000E+00
  0.00000000E+00  0.00000000E+00  0.00000000E+00
  0.00000000E+00  0.00000000E+00  0.00000000E+00
  0.00000000E+00  0.00000000E+00  0.00000000E+00
  0.00000000E+00  0.00000000E+00  0.00000000E+00
  0.00000000E+00  0.00000000E+00  0.00000000E+00
  0.00000000E+00  0.00000000E+00  0.00000000E+00
  0.00000000E+00  0.00000000E+00  0.00000000E+00
  0.00000000E+00  0.00000000E+00  0.00000000E+00
  0.00000000E+00  0.00000000E+00  0.00000000E+00
  0.00000000E+00  0.00000000E+00  0.00000000E+00
  0.00000000E+00  0.00000000E+00  0.00000000E+00
  0.00000000E+00  0.00000000E+00  0.00000000E+00
  0.00000000E+00  0.00000000E+00  0.00000000E+00
  0.00000000E+00  0.00000000E+00  0.00000000E+00
  0.00000000E+00  0.00000000E+00  0.00000000E+00
  0.00000000E+00  0.00000000E+00  0.00000000E+00
  0.00000000E+00  0.00000000E+00  0.00000000E+00
  0.00000000E+00  0.00000000E+00  0.00000000E+00
  0.00000000E+00  0.00000000E+00  0.00000000E+00
  0.00000000E+00  0.00000000E+00  0.00000000E+00
  0.00000000E+00  0.00000000E+00  0.00000000E+00
  0.00000000E+00  0.00000000E+00  0.00000000E+00
  0.00000000E+00  0.00000000E+00  0.00000000E+00
  0.00000000E+00  0.00000000E+00  0.00000000E+00
  0.00000000E+00  0.00000000E+00  0.00000000E+00
  0.00000000E+00  0.00000000E+00  0.00000000E+00
  0.00000000E+00  0.00000000E+00  0.00000000E+00
  0.00000000E+00  0.00000000E+00  0.00000000E+00
  0.00000000E+00  0.00000000E+00  0.00000000E+00
  0.00000000E+00  0.00000000E+00  0.00000000E+00
  0.00000000E+00  0.00000000E+00  0.00000000E+00
  0.00000000E+00  0.00000000E+00  0.00000000E+00
  0.00000000E+00  0.00000000E+00  0.00000000E+00
  0.00000000E+00  0.00000000E+00  0.00000000E+00
  0.00000000E+00  0.00000000E+00  0.00000000E+00
  0.00000000E+00  0.00000000E+00  0.00000000E+00
  0.00000000E+00  0.00000000E+00  0.00000000E+00
  0.00000000E+00  0.00000000E+00  0.00000000E+00
  0.00000000E+00  0.00000000E+00  0.00000000E+00
  0.00000000E+00  0.00000000E+00  0.00000000E+00
  0.00000000E+00  0.00000000E+00  0.00000000E+00
  0.00000000E+00  0.00000000E+00  0.00000000E+00
  0.00000000E+00  0.00000000E+00  0.00000000E+00
  0.00000000E+00  0.00000000E+00  0.00000000E+00
  0.00000000E+00  0.00000000E+00  0.00000000E+00
  0.00000000E+00  0.00000000E+00  0.00000000E+00
  0.00000000E+00  0.00000000E+00  0.00000000E+00
  0.00000000E+00  0.00000000E+00  0.00000000E+00
  0.00000000E+00  0.00000000E+00  0.00000000E+00
  0.00000000E+00  0.00000000E+00  0.00000000E+00
  0.00000000E+00  0.00000000E+00  0.00000000E+00
  0.00000000E+00  0.00000000E+00  0.00000000E+00
  0.00000000E+00  0.00000000E+00  0.00000000E+00
  0.00000000E+00  0.00000000E+00  0.00000000E+00
  0.00000000E+00  0.00000000E+00  0.00000000E+00
  0.00000000E+00  0.00000000E+00  0.00000000E+00
  0.00000000E+00  0.00000000E+00  0.00000000E+00
  0.00000000E+00  0.00000000E+00  0.00000000E+00
  0.00000000E+00  0.00000000E+00  0.00000000E+00
  0.00000000E+00  0.00000000E+00  0.00000000E+00
  0.00000000E+00  0.00000000E+00  0.00000000E+00
  0.00000000E+00  0.00000000E+00  0.00000000E+00
  0.00000000E+00  0.00000000E+00  0.00000000E+00
  0.00000000E+00  0.00000000E+00  0.00000000E+00
  0.00000000E+00  0.00000000E+00  0.00000000E+00
  0.00000000E+00  0.00000000E+00  0.00000000E+00
  0.00000000E+00  0.00000000E+00  0.00000000E+00
  0.00000000E+00  0.00000000E+00  0.00000000E+00
  0.00000000E+00  0.00000000E+00  0.00000000E+00
  0.00000000E+00  0.00000000E+00  0.00000000E+00
  0.00000000E+00  0.00000000E+00  0.00000000E+00
  0.00000000E+00  0.00000000E+00  0.00000000E+00
  0.00000000E+00  0.00000000E+00  0.00000000E+00
  0.00000000E+00  0.00000000E+00  0.00000000E+00
  0.00000000E+00  0.00000000E+00  0.00000000E+00
  0.00000000E+00  0.00000000E+00  0.00000000E+00
  0.00000000E+00  0.00000000E+00  0.00000000E+00
  0.00000000E+00  0.00000000E+00  0.00000000E+00
  0.00000000E+00  0.00000000E+00  0.00000000E+00
  0.00000000E+00  0.00000000E+00  0.00000000E+00
  0.00000000E+00  0.00000000E+00  0.00000000E+00
  0.00000000E+00  0.00000000E+00  0.00000000E+00
  0.00000000E+00  0.00000000E+00  0.00000000E+00
  0.00000000E+00  0.00000000E+00  0.00000000E+00
  0.00000000E+00  0.00000000E+00  0.00000000E+00
  0.00000000E+00  0.00000000E+00  0.00000000E+00
  0.00000000E+00  0.00000000E+00  0.00000000E+00
  0.00000000E+00  0.00000000E+00  0.00000000E+00
  0.00000000E+00  0.00000000E+00  0.00000000E+00
  0.00000000E+00  0.00000000E+00  0.00000000E+00
  0.00000000E+00  0.00000000E+00  0.00000000E+00
  0.00000000E+00  0.00000000E+00  0.00000000E+00
  0.00000000E+00  0.00000000E+00  0.00000000E+00
  0.00000000E+00  0.00000000E+00  0.00000000E+00
  0.00000000E+00  0.00000000E+00  0.00000000E+00
  0.00000000E+00  0.00000000E+00  0.00000000E+00
  0.00000000E+00  0.00000000E+00  0.00000000E+00
  0.00000000E+00  0.00000000E+00  0.00000000E+00
  0.00000000E+00  0.00000000E+00  0.00000000E+00
  0.00000000E+00  0.00000000E+00  0.00000000E+00
  0.00000000E+00  0.00000000E+00  0.00000000E+00
  0.00000000E+00  0.00000000E+00  0.00000000E+00
  0.00000000E+00  0.00000000E+00  0.00000000E+00
  0.00000000E+00  0.00000000E+00  0.00000000E+00
  0.00000000E+00  0.00000000E+00  0.00000000E+00
  0.00000000E+00  0.00000000E+00  0.00000000E+00
  0.00000000E+00  0.00000000E+00  0.00000000E+00
  0.00000000E+00  0.00000000E+00  0.00000000E+00
  0.00000000E+00  0.00000000E+00  0.00000000E+00
  0.00000000E+00  0.00000000E+00  0.00000000E+00
  0.00000000E+00  0.00000000E+00  0.00000000E+00
  0.00000000E+00  0.00000000E+00  0.00000000E+00
  0.00000000E+00  0.00000000E+00  0.00000000E+00
  0.00000000E+00  0.00000000E+00  0.00000000E+00
  0.00000000E+00  0.00000000E+00  0.00000000E+00
  0.00000000E+00  0.00000000E+00  0.00000000E+00
  0.00000000E+00  0.00000000E+00  0.00000000E+00
  0.00000000E+00  0.00000000E+00  0.00000000E+00
  0.00000000E+00  0.00000000E+00  0.00000000E+00
  0.00000000E+00  0.00000000E+00  0.00000000E+00
  0.00000000E+00  0.00000000E+00  0.00000000E+00
  0.00000000E+00  0.00000000E+00  0.00000000E+00
  0.00000000E+00  0.00000000E+00  0.00000000E+00
  0.00000000E+00  0.00000000E+00  0.00000000E+00
  0.00000000E+00  0.00000000E+00  0.00000000E+00
  0.00000000E+00  0.00000000E+00  0.00000000E+00
  0.00000000E+00  0.00000000E+00  0.00000000E+00
  0.00000000E+00  0.00000000E+00  0.00000000E+00
  0.00000000E+00  0.00000000E+00  0.00000000E+00
  0.00000000E+00  0.00000000E+00  0.00000000E+00
  0.00000000E+00  0.00000000E+00  0.00000000E+00
  0.00000000E+00  0.00000000E+00  0.00000000E+00
  0.00000000E+00  0.00000000E+00  0.00000000E+00
  0.00000000E+00  0.00000000E+00  0.00000000E+00
  0.00000000E+00  0.00000000E+00  0.00000000E+00
  0.00000000E+00  0.00000000E+00  0.00000000E+00
  0.00000000E+00  0.00000000E+00  0.00000000E+00
  0.00000000E+00  0.00000000E+00  0.00000000E+00
  0.00000000E+00  0.00000000E+00  0.00000000E+00
  0.00000000E+00  0.00000000E+00  0.00000000E+00
  0.00000000E+00  0.00000000E+00  0.00000000E+00
  0.00000000E+00  0.00000000E+00  0.00000000E+00
  0.00000000E+00  0.00000000E+00  0.00000000E+00
  0.00000000E+00  0.00000000E+00  0.00000000E+00
  0.00000000E+00  0.00000000E+00  0.00000000E+00
  0.00000000E+00  0.00000000E+00  0.00000000E+00
  0.00000000E+00  0.00000000E+00  0.00000000E+00
  0.00000000E+00  0.00000000E+00  0.00000000E+00
  0.00000000E+00  0.00000000E+00  0.00000000E+00
  0.00000000E+00  0.00000000E+00  0.00000000E+00
  0.00000000E+00  0.00000000E+00  0.00000000E+00
  0.00000000E+00  0.00000000E+00  0.00000000E+00
