generated by phonopy                    
   1.00000000000000     
     0.0000000000000000    3.4495109894838687    3.4495109894840046
     3.4495109894839273    0.0000000000000000    3.4495109894840046
     3.4495109894839273    3.4495109894838687    0.0000000000000000
   Sr   Y    Hf   Ce   H 
     1     1     1     1    24
Direct
  0.2500000000000000  0.2500000000000000  0.2500000000000000
  0.7500000000000000  0.7500000000000000  0.7500000000000000
  0.0000000000000000  0.0000000000000000  0.0000000000000000
  0.5000000000000000  0.5000000000000000  0.5000000000000000
  0.1205314705660214  0.8770247571683782  0.6285581041778983
  0.8770247571683782  0.1205314705660214  0.3738856680876950
  0.6285581041778983  0.3738856680876950  0.1205314705660214
  0.3738856680876950  0.6285581041778983  0.8770247571683782
  0.6285581041778983  0.1205314705660214  0.8770247571683782
  0.3738856680876950  0.8770247571683782  0.1205314705660214
  0.1205314705660214  0.6285581041778983  0.3738856680876950
  0.8770247571683782  0.3738856680876950  0.6285581041778983
  0.8770247571683782  0.6285581041778983  0.1205314705660214
  0.1205314705660214  0.3738856680876950  0.8770247571683782
  0.3738856680876950  0.1205314705660214  0.6285581041778983
  0.6285581041778983  0.8770247571683782  0.3738856680876950
  0.1205314705660214  0.3738856680876950  0.6285581041778983
  0.3738856680876950  0.1205314705660214  0.8770247571683782
  0.6285581041778983  0.8770247571683782  0.1205314705660214
  0.8770247571683782  0.6285581041778983  0.3738856680876950
  0.6285581041778983  0.1205314705660214  0.3738856680876950
  0.8770247571683782  0.3738856680876950  0.1205314705660214
  0.1205314705660214  0.6285581041778983  0.8770247571683782
  0.3738856680876950  0.8770247571683782  0.6285581041778983
  0.3738856680876950  0.6285581041778983  0.1205314705660214
  0.1205314705660214  0.8770247571683782  0.3738856680876950
  0.8770247571683782  0.1205314705660214  0.6285581041778983
  0.6285581041778983  0.3738856680876950  0.8770247571683782
 
  0.00000000E+00  0.00000000E+00  0.00000000E+00
  0.00000000E+00  0.00000000E+00  0.00000000E+00
  0.00000000E+00  0.00000000E+00  0.00000000E+00
  0.00000000E+00  0.00000000E+00  0.00000000E+00
  0.00000000E+00  0.00000000E+00  0.00000000E+00
  0.00000000E+00  0.00000000E+00  0.00000000E+00
  0.00000000E+00  0.00000000E+00  0.00000000E+00
  0.00000000E+00  0.00000000E+00  0.00000000E+00
  0.00000000E+00  0.00000000E+00  0.00000000E+00
  0.00000000E+00  0.00000000E+00  0.00000000E+00
  0.00000000E+00  0.00000000E+00  0.00000000E+00
  0.00000000E+00  0.00000000E+00  0.00000000E+00
  0.00000000E+00  0.00000000E+00  0.00000000E+00
  0.00000000E+00  0.00000000E+00  0.00000000E+00
  0.00000000E+00  0.00000000E+00  0.00000000E+00
  0.00000000E+00  0.00000000E+00  0.00000000E+00
  0.00000000E+00  0.00000000E+00  0.00000000E+00
  0.00000000E+00  0.00000000E+00  0.00000000E+00
  0.00000000E+00  0.00000000E+00  0.00000000E+00
  0.00000000E+00  0.00000000E+00  0.00000000E+00
  0.00000000E+00  0.00000000E+00  0.00000000E+00
  0.00000000E+00  0.00000000E+00  0.00000000E+00
  0.00000000E+00  0.00000000E+00  0.00000000E+00
  0.00000000E+00  0.00000000E+00  0.00000000E+00
  0.00000000E+00  0.00000000E+00  0.00000000E+00
  0.00000000E+00  0.00000000E+00  0.00000000E+00
  0.00000000E+00  0.00000000E+00  0.00000000E+00
  0.00000000E+00  0.00000000E+00  0.00000000E+00
