generated by phonopy                    
   1.00000000000000     
     0.0000000000000000    3.2615914382158584    3.2615914382159739
     3.2615914382159046    0.0000000000000000    3.2615914382159739
     3.2615914382159046    3.2615914382158584    0.0000000000000000
   Mg   Zr   Ca   Y    H 
     1     1     1     1    24
Direct
  0.2500000000000000  0.2500000000000000  0.2500000000000000
  0.7500000000000000  0.7500000000000000  0.7500000000000000
  0.0000000000000000  0.0000000000000000  0.0000000000000000
  0.5000000000000000  0.5000000000000000  0.5000000000000000
  0.1318388518028613  0.8894116437547197  0.6194717483525878
  0.8894116437547197  0.1318388518028613  0.3592777560898242
  0.6194717483525878  0.3592777560898242  0.1318388518028613
  0.3592777560898242  0.6194717483525878  0.8894116437547197
  0.6194717483525878  0.1318388518028613  0.8894116437547197
  0.3592777560898242  0.8894116437547197  0.1318388518028613
  0.1318388518028613  0.6194717483525878  0.3592777560898242
  0.8894116437547197  0.3592777560898242  0.6194717483525878
  0.8894116437547197  0.6194717483525878  0.1318388518028613
  0.1318388518028613  0.3592777560898242  0.8894116437547197
  0.3592777560898242  0.1318388518028613  0.6194717483525878
  0.6194717483525878  0.8894116437547197  0.3592777560898242
  0.1318388518028613  0.3592777560898242  0.6194717483525878
  0.3592777560898242  0.1318388518028613  0.8894116437547197
  0.6194717483525878  0.8894116437547197  0.1318388518028613
  0.8894116437547197  0.6194717483525878  0.3592777560898242
  0.6194717483525878  0.1318388518028613  0.3592777560898242
  0.8894116437547197  0.3592777560898242  0.1318388518028613
  0.1318388518028613  0.6194717483525878  0.8894116437547197
  0.3592777560898242  0.8894116437547197  0.6194717483525878
  0.3592777560898242  0.6194717483525878  0.1318388518028613
  0.1318388518028613  0.8894116437547197  0.3592777560898242
  0.8894116437547197  0.1318388518028613  0.6194717483525878
  0.6194717483525878  0.3592777560898242  0.8894116437547197
 
  0.00000000E+00  0.00000000E+00  0.00000000E+00
  0.00000000E+00  0.00000000E+00  0.00000000E+00
  0.00000000E+00  0.00000000E+00  0.00000000E+00
  0.00000000E+00  0.00000000E+00  0.00000000E+00
  0.00000000E+00  0.00000000E+00  0.00000000E+00
  0.00000000E+00  0.00000000E+00  0.00000000E+00
  0.00000000E+00  0.00000000E+00  0.00000000E+00
  0.00000000E+00  0.00000000E+00  0.00000000E+00
  0.00000000E+00  0.00000000E+00  0.00000000E+00
  0.00000000E+00  0.00000000E+00  0.00000000E+00
  0.00000000E+00  0.00000000E+00  0.00000000E+00
  0.00000000E+00  0.00000000E+00  0.00000000E+00
  0.00000000E+00  0.00000000E+00  0.00000000E+00
  0.00000000E+00  0.00000000E+00  0.00000000E+00
  0.00000000E+00  0.00000000E+00  0.00000000E+00
  0.00000000E+00  0.00000000E+00  0.00000000E+00
  0.00000000E+00  0.00000000E+00  0.00000000E+00
  0.00000000E+00  0.00000000E+00  0.00000000E+00
  0.00000000E+00  0.00000000E+00  0.00000000E+00
  0.00000000E+00  0.00000000E+00  0.00000000E+00
  0.00000000E+00  0.00000000E+00  0.00000000E+00
  0.00000000E+00  0.00000000E+00  0.00000000E+00
  0.00000000E+00  0.00000000E+00  0.00000000E+00
  0.00000000E+00  0.00000000E+00  0.00000000E+00
  0.00000000E+00  0.00000000E+00  0.00000000E+00
  0.00000000E+00  0.00000000E+00  0.00000000E+00
  0.00000000E+00  0.00000000E+00  0.00000000E+00
  0.00000000E+00  0.00000000E+00  0.00000000E+00
