POSCAR                                  
   1.00000000000000     
    10.0218395236156095   -0.0012432674538295    0.0073549618751169
    -0.0012424709837709   10.0000855085844069   -0.0046766017542775
     0.0049147971641220   -0.0031035586848689    6.6476819843489769
   Mg   Zr   Na   Ca   H 
     9     9     9     9   216
Direct
  0.1645656317413398  0.1646186263555003  0.2499167961813755
  0.1655312519435917  0.5000295763601105  0.2500890136673289
  0.3332392445952587  0.3336965537826071  0.0008076803262778
  0.8377241327179719  0.1627813168937578  0.2476971037466788
  0.4969725781367429  0.4984238373978384  0.7508730307857361
  0.6680760271063158  0.3335143012885403 -0.0014406927857336
  0.5009566655788728  0.8333824577436809  0.7517411452616318
 -0.0015958481765637 -0.0060130319573024  0.4996044042931134
 -0.0023832319429626 -0.0017258227030722  0.0007611821218764
  0.1681450157752492  0.1630548302116972  0.7535051582740604
  0.4993994726670573  0.1643032319048265  0.2465308226877322
  0.1775363343544425  0.5078885788869006  0.7501239747976800
  0.4995913853426833  0.5116773583139697  0.2458392329481434
  0.6577703981684895  0.3384951961894574  0.5027746207194527
  0.3287816078132950 -0.0065765141040539  0.5022002395151344
  0.0073482938352976  0.3309130042371418  0.4961179815435135
  0.8245721175621307  0.5089365784888095  0.7546531224672939
  0.6739091899884067 -0.0112307230274806  0.5013790415070002
  0.3352579919328783  0.3359415656263136  0.4961764969933015
  0.4992056219173738  0.1674695363446580  0.7504567329251282
  0.3360446834909965  0.6633161981157423  0.5010994123531702
  0.1643747767900580  0.8310342490620681  0.7494043741129743
  0.5024057603040754  0.8296000575635110  0.2510803194959699
  0.6642286485203943  0.6679030745783200  0.5021015091571198
  0.6643785971602649  0.6688216565215743 -0.0009025408544385
  0.8311444703294726  0.8317713676641518  0.2489357998954718
  0.8337197181517660  0.8344993749801698  0.7529893549388447
  0.1670629613419615  0.8327470834595180  0.2471667094002215
  0.3372714916837943  0.6702058076176481  0.0002843875369947
  0.8304679183716002  0.1606687017269046  0.7489248074516929
  0.8370537106815298  0.5002731896836369  0.2482261318446393
  0.3341843521231366 -0.0001490721137634 -0.0000995057272780
 -0.0008886201064568  0.3314578885145636  0.0015583002621193
 -0.0006877372335457  0.6766012982113588  0.5001257514836868
  0.6690487108329608 -0.0016298329111656 -0.0002870323649345
 -0.0022740398835582  0.6713821569407333  0.0018116479133498
  0.1596626559197953  0.0807241586690588  0.0166714062303126
  0.1607884861586415  0.0829139216447051  0.4920365294935590
  0.1697723792181646  0.4160222310193485  0.0109012566390627
  0.5027792943980618  0.0854907653588590 -0.0120142237823703
  0.3255852868645561  0.2527301931008565  0.2517321203919664
  0.1739895418973642  0.4169831642154135  0.4879888076577586
  0.5039480874399943  0.0859239831352735  0.5084018770282905
  0.3373686920724825  0.2520469848647440  0.7445738000673564
  0.1675901278997536  0.7512041978367555 -0.0123402972464580
  0.4992349652797900  0.4125485558404985 -0.0010490608100537
  0.3256541431974049  0.5849504438208659  0.2558654716991871
  0.1752746078520849  0.7490173250752271  0.5068594653402287
  0.8376333230260467  0.0838834742464010  0.0113501976530192
  0.6669841358385746  0.2501844058390918  0.2421056006156691
  0.4905826469500555  0.4164307097461367  0.5029071895475886
  0.3483487075438247  0.5877366982130851  0.7458027934384348
  0.8378764284605624  0.0846301913500082  0.4876391075321204
  0.6622362787136145  0.2504319070154410  0.7558916304414891
  0.5067317097459768  0.7524988352384714 -0.0010503600599890
  0.3400503092614394  0.9123275061029937  0.2440416727856098
  0.8265502333402198  0.4144692260269957  0.0007652430263867
  0.6701522389621832  0.5873868126525215  0.2533265102619972
  0.5006739994385725  0.7512888243771658  0.5057614414530843
  0.3263872468861868  0.9136111827114861  0.7543558628309313
  0.0043083924894610  0.2459624355786334  0.2478712784068882
  0.8334769417182017  0.4154714068421347  0.5003947176714870
  0.6516489578281978  0.5857316539554921  0.7517049922447470
 -0.0014562053515713  0.2488837027809387  0.7505257377308538
  0.8258708856979458  0.7528523494025948 -0.0066653937494191
  0.6670642308383594  0.9126982576793712  0.2445277856741170
  0.0052967462618901  0.5807998988982986  0.2568899128385340
  0.8253485823457150  0.7477769025799339  0.5056818107716157
  0.6694036753047725  0.9108132562546943  0.7569319408143261
  0.0016361540595364  0.5837397650344666  0.7447699506783273
 -0.0039284148287036  0.9171943875712081  0.2387191299636713
  0.0020635332257527  0.9168170626449980  0.7631814284958189
  0.0842862356559430  0.1643228896319253  0.0110376559600031
  0.0831773157986545  0.1558847074345424  0.4867184732404672
  0.0856703574565310  0.5000371666092562 -0.0016645739594955
  0.4135217467171907  0.1774798495926722 -0.0108214843494196
  0.2528260777760143  0.3373609458187691  0.2515288357323860
  0.0847476401329603  0.5058857214633437  0.5006524613246744
  0.4144515435693364  0.1714109798578665  0.5075925219079414
  0.2550605259890639  0.3355182977586047  0.7395994888309104
  0.0837367087109773  0.8411995092639347 -0.0048526142088824
  0.4165200416973144  0.4926919788226397 -0.0124208868301541
  0.2513203756143805  0.6593451142182607  0.2572385148899324
  0.0827261181470393  0.8424113867283528  0.5048783513698814
  0.7511905846486552  0.1673851030041910  0.0127239652553918
  0.5844135561797918  0.3319716777431054  0.2286908095226681
  0.4158796348391641  0.4998549273868279  0.5038689052845804
  0.2525186944094369  0.6760845631139226  0.7413189951516086
  0.7517710319301814  0.1685238501451871  0.4845535957681452
  0.5796027036844108  0.3343173609038012  0.7673171940767065
  0.4180622235123435  0.8338178602293096 -0.0095787959451055
  0.2487276686751232  0.0052006289332546  0.2510886503764554
  0.7458256123517822  0.5069207566146654  0.0075024937505298
  0.5875231875342802  0.6753728551715442  0.2499534091280079
  0.4175978756744140  0.8273701654301440  0.5072104808527859
  0.2470615852746911 -0.0109366402594315  0.7542675285694661
  0.9126687135140931  0.3218625350529945  0.2514835539070404
  0.7473167868866942  0.5075880056785146  0.4958225827111680
  0.5845882044299763  0.6760164594960629  0.7499627583195987
  0.9157985368189486  0.3349556134074084  0.7460647629859312
  0.7477444530936714  0.8265954567940048  0.0044108718576093
  0.5850351870699200 -0.0060457073816305  0.2517620761344680
  0.9155597682639051  0.6746093828363567  0.2515495288379562
  0.7525393918622810  0.8231838278535621  0.5044139580863594
  0.5809364822732006 -0.0051688318551132  0.7480999159986186
  0.9170207917073691  0.6737062922636443  0.7516054625184039
  0.9164161911691733 -0.0043480417145267  0.2604307320113847
  0.9177337165029930 -0.0065460117240309  0.7420056848790355
  0.1592863639729260  0.0086633008994854  0.1234667055846844
  0.1549971437784102 -0.0087805785143165  0.6279888696758748
  0.1690214059671701  0.3305393842979728  0.1238534669920158
  0.5010079394231988 -0.0161082720679647  0.1202088216782266
  0.3235755112292735  0.1749949553553222  0.3745239120638277
  0.1793616184516428  0.3353189342893169  0.6241240031970123
  0.5015009228945718 -0.0024506270632353  0.6286903354192925
  0.3401820048268526  0.1731674973940887  0.8769898380215159
  0.1655156737804332  0.6568501338180299  0.1280764970871036
  0.5049270347949566  0.3381766034289742  0.1187897760367007
  0.3278459247812392  0.5003290581889472  0.3730649038319131
  0.1762355801702231  0.6747925474866944  0.6220184255982192
  0.8378818975379251 -0.0021948439070301  0.1249088282135741
  0.6728229533674857  0.1673302794924734  0.3723059211117057
  0.4910724655656207  0.3377371334070275  0.6277474017361181
  0.3429652412955950  0.4943683590029503  0.8796913183058566
  0.8460871359908602 -0.0073955866919219  0.6266539948356211
  0.6610264534254660  0.1721082247712158  0.8744179931982614
  0.5075023606097480  0.6765118290022087  0.1203540165353779
  0.3390984510193008  0.8216591774647359  0.3766384287586859
  0.8285749901520497  0.3252222464032898  0.1252931947405673
  0.6686956314444570  0.5126070091363538  0.3721376759861417
  0.5002508003061840  0.6594900687154582  0.6259551930130209
  0.3371181358655929  0.8360477246181935  0.8743149058880038
  0.0046728810425693  0.1515601606068760  0.3726347050643636
  0.8306027706201202  0.3301907962279646  0.6240585854803212
  0.6538850583724050  0.4976389278246570  0.8777330021906168
 -0.0020108828916018  0.1541841969277944  0.8763432731725015
  0.8224202216695207  0.6696124089012645  0.1280405388786015
  0.6679737572400563  0.8202946991324727  0.3692703203449262
  0.0068919615310513  0.5098847676114372  0.3737374560811020
  0.8252042161227925  0.6791710308765002  0.6244228774082199
  0.6636648202837890  0.8337457988520486  0.8757505122104726
  0.0038508329920670  0.5010587638474385  0.8758458422400794
 -0.0064500202060488  0.8397544137060139  0.3722592585880269
 -0.0024094281857558  0.8412994855206212  0.8733238210896762
  0.0801687642819646 -0.0026192122537552  0.2611164760449891
  0.0797609431980683 -0.0114254606805949  0.7412012590402034
  0.0879341418040812  0.3257689423194014  0.2448238270230207
  0.4178379083108829 -0.0053338090236643  0.2539340907248219
  0.2520462248443713  0.1736949482757645  0.4853864560361256
  0.0832244461284787  0.3403879904365608  0.7547174351914687
  0.4186094524823756 -0.0003931026657795  0.7467620930557256
  0.2506978760821428  0.1698197884847606  0.0158716973584208
  0.0853057030499870  0.6671633685730959  0.2492953009900498
  0.4128715610983320  0.3368394954364128  0.2435060206215557
  0.2546119447957344  0.4984199589430579  0.4878894243480354
  0.0824785225610129  0.6702605444061948  0.7516721097398076
  0.7540677354198012 -0.0002854973631192  0.2470249473888639
  0.5804830361871435  0.1628384705460708  0.5074405329795154
  0.4161428737388043  0.3320988538141785  0.7584380344566649
  0.2530279114832175  0.4977590938042017  0.0171361470711225
  0.7538541475543639 -0.0089462375275171  0.7543051686102900
  0.5822520859756535  0.1738562034319885 -0.0077819637128361
  0.4153138529984601  0.6732587573630553  0.2617268180089982
  0.2503818602218527  0.8228108519187263  0.5085389931163944
  0.7510124118777326  0.3265512188008629  0.2495202815754705
  0.5806295858135422  0.5082834824794444  0.5115760319801690
  0.4172349555788994  0.6683115328108010  0.7440775108567022
  0.2499087603967195  0.8345533706690841 -0.0131640678208088
  0.9150488809872261  0.1609830420297899  0.4906028376420919
  0.7506968247771206  0.3302209806742192  0.7555214908689567
  0.5825863499738309  0.4993449638953082 -0.0130961754765896
  0.9153530544591003  0.1614680266776919  0.0036736538220300
  0.7513924955796620  0.6700188454806714  0.2433668465642677
  0.5809296356605090  0.8265827454941215  0.5059615429194416
  0.9162831748766141  0.5017483333227574  0.5061074737063910
  0.7477684557010439  0.6780883191533338  0.7527678699024875
  0.5841885284033040  0.8284216206156919 -0.0033854246897434
  0.9177177767863346  0.5013238025861864 -0.0049144986474715
  0.9164840550731665  0.8416245741686215  0.5002287634190735
  0.9128325515306275  0.8407756391460760  0.0019239332652879
  0.0020581693298120  0.1565388470637304  0.1268559034936254
 -0.0007315678065420  0.1503209162054115  0.6227102762513208
  0.0068585802635454  0.5010135068959655  0.1248034754955675
  0.3216094908852344  0.1700537778156036  0.1266915560760290
  0.1752437812317840  0.3359940453590682  0.3712387368807823
  0.0018672838826234  0.5089724633112503  0.6257133736868152
  0.3378502922321169  0.1758480429049549  0.6231786634069709
  0.1740793230941612  0.3325772343864545  0.8787299054703107
 -0.0054002215411141  0.8411643364256498  0.1249887156603211
  0.3263615189368788  0.4984401126238065  0.1246864234734078
  0.1706122933664780  0.6582287577251088  0.3754453320983326
 -0.0030790621277082  0.8405360769554674  0.6275555798432479
  0.6772001360756820  0.1717120487861432  0.1241215878735177
  0.4928333530997113  0.3402056729798767  0.3727771093451028
  0.3440341245452445  0.4973318520567242  0.6194459771407029
  0.1686448879232929  0.6767416075143858  0.8784288043841267
  0.6588424284997411  0.1658995810914941  0.6267550061318581
  0.5009367824507079  0.3334934861949997  0.8754557818090714
  0.3420406755546500  0.8369978261042371  0.1275733140665088
  0.1519608800634830  0.0042947887985886  0.3695203211929968
  0.6695902624273961  0.5014087202750501  0.1195890125872224
  0.5002735263137421  0.6732832412721055  0.3814438442849172
  0.3345972124582095  0.8249919719814971  0.6262194594289907
  0.1614441899523522 -0.0059511856459377  0.8784045160545741
  0.8283893671673057  0.3281262853614490  0.3727484713388289
  0.6519066929229308  0.5101184144532748  0.6281835950758020
  0.5048843458491896  0.6629172011436838  0.8720960005509952
  0.8245684220040057  0.3264210337754971  0.8772826444660908
  0.6687500927671773  0.8310298259413346  0.1213582831611675
  0.5002144062065620 -0.0129170178352246  0.3764400710947044
  0.8267748603994206  0.6700498474797295  0.3767655572598690
  0.6694893710971451  0.8262346556392380  0.6256790284631770
  0.5018811898652923  0.0007828725204350  0.8728614858607431
  0.8246758622546694  0.6802339552663558  0.8792557296974159
  0.8467544596829328 -0.0061162409413293  0.3693960277165947
  0.8378170764583663 -0.0058251177739607  0.8763018410070613
 -0.0036321615381619  0.0841725435696374  0.2497641466618639
 -0.0013803089833668  0.0814751309486374  0.7462982821688456
  0.0091803266974996  0.4150996543616123  0.2483436497411801
  0.3268759787029129  0.0857501895088753  0.2497571951082681
  0.1744668448859138  0.2495212369765130  0.4872142830572856
  0.0031963057165194  0.4153647970439895  0.7518133354362645
  0.3402696321601261  0.0866172748170521  0.7522592450713536
  0.1691785632751909  0.2515758785156600  0.0120776035358286
 -0.0082073586582798  0.7503435696751698  0.2488967542710645
  0.3284258311704096  0.4135389679826765  0.2477043812429376
  0.1667971232314376  0.5862591569429529  0.4848411837392648
 -0.0029789073382209  0.7547807640457164  0.7532481030100326
  0.6766431551590788  0.0864568232787093  0.2525768818138515
  0.4921875610281108  0.2495702766910748  0.5080938986261634
  0.3373734176781967  0.4124109908029530  0.7480290218294756
  0.1681394534467741  0.5841106950118782  0.0158312586322837
  0.6585631526545345  0.0876537420378905  0.7482877228562963
  0.5016327123164621  0.2515362511961656 -0.0044652528611484
  0.3391224545863130  0.7497535616333372  0.2652992560919474
  0.1591404849754915  0.9131743399410572  0.5071013908484014
  0.6666941582080896  0.4151949818939484  0.2362368341165304
  0.5011046427926747  0.5905124925738501  0.5220611156615292
  0.3402306855377369  0.7496844873207309  0.7402816551854248
  0.1579103043286947  0.9143317782146646 -0.0111572708457660
  0.8322362444497665  0.2484562460205439  0.4966004059955239
  0.6610892227121943  0.4161235407023043  0.7613771672558428
  0.5056436046665183  0.5870293708765321 -0.0234130183354540
  0.8324652877849963  0.2487499042441969 -0.0018968142144564
  0.6651962967539651  0.7495492580699494  0.2599921709133590
  0.5008225160077351  0.9157254178299851  0.4872671798012374
  0.8294245865284672  0.5873473613219246  0.4955865189484449
  0.6596246926939933  0.7465896050148252  0.7465744974784403
  0.5021994328095910  0.9170343127918373  0.0139782927560267
  0.8258732589069873  0.5878899651558056  0.0061227643701071
  0.8403908552977527  0.9103959968962049  0.4960829722209649
  0.8419715834899719  0.9153104652749834  0.0059245051432516
 
  0.00000000E+00  0.00000000E+00  0.00000000E+00
  0.00000000E+00  0.00000000E+00  0.00000000E+00
  0.00000000E+00  0.00000000E+00  0.00000000E+00
  0.00000000E+00  0.00000000E+00  0.00000000E+00
  0.00000000E+00  0.00000000E+00  0.00000000E+00
  0.00000000E+00  0.00000000E+00  0.00000000E+00
  0.00000000E+00  0.00000000E+00  0.00000000E+00
  0.00000000E+00  0.00000000E+00  0.00000000E+00
  0.00000000E+00  0.00000000E+00  0.00000000E+00
  0.00000000E+00  0.00000000E+00  0.00000000E+00
  0.00000000E+00  0.00000000E+00  0.00000000E+00
  0.00000000E+00  0.00000000E+00  0.00000000E+00
  0.00000000E+00  0.00000000E+00  0.00000000E+00
  0.00000000E+00  0.00000000E+00  0.00000000E+00
  0.00000000E+00  0.00000000E+00  0.00000000E+00
  0.00000000E+00  0.00000000E+00  0.00000000E+00
  0.00000000E+00  0.00000000E+00  0.00000000E+00
  0.00000000E+00  0.00000000E+00  0.00000000E+00
  0.00000000E+00  0.00000000E+00  0.00000000E+00
  0.00000000E+00  0.00000000E+00  0.00000000E+00
  0.00000000E+00  0.00000000E+00  0.00000000E+00
  0.00000000E+00  0.00000000E+00  0.00000000E+00
  0.00000000E+00  0.00000000E+00  0.00000000E+00
  0.00000000E+00  0.00000000E+00  0.00000000E+00
  0.00000000E+00  0.00000000E+00  0.00000000E+00
  0.00000000E+00  0.00000000E+00  0.00000000E+00
  0.00000000E+00  0.00000000E+00  0.00000000E+00
  0.00000000E+00  0.00000000E+00  0.00000000E+00
  0.00000000E+00  0.00000000E+00  0.00000000E+00
  0.00000000E+00  0.00000000E+00  0.00000000E+00
  0.00000000E+00  0.00000000E+00  0.00000000E+00
  0.00000000E+00  0.00000000E+00  0.00000000E+00
  0.00000000E+00  0.00000000E+00  0.00000000E+00
  0.00000000E+00  0.00000000E+00  0.00000000E+00
  0.00000000E+00  0.00000000E+00  0.00000000E+00
  0.00000000E+00  0.00000000E+00  0.00000000E+00
  0.00000000E+00  0.00000000E+00  0.00000000E+00
  0.00000000E+00  0.00000000E+00  0.00000000E+00
  0.00000000E+00  0.00000000E+00  0.00000000E+00
  0.00000000E+00  0.00000000E+00  0.00000000E+00
  0.00000000E+00  0.00000000E+00  0.00000000E+00
  0.00000000E+00  0.00000000E+00  0.00000000E+00
  0.00000000E+00  0.00000000E+00  0.00000000E+00
  0.00000000E+00  0.00000000E+00  0.00000000E+00
  0.00000000E+00  0.00000000E+00  0.00000000E+00
  0.00000000E+00  0.00000000E+00  0.00000000E+00
  0.00000000E+00  0.00000000E+00  0.00000000E+00
  0.00000000E+00  0.00000000E+00  0.00000000E+00
  0.00000000E+00  0.00000000E+00  0.00000000E+00
  0.00000000E+00  0.00000000E+00  0.00000000E+00
  0.00000000E+00  0.00000000E+00  0.00000000E+00
  0.00000000E+00  0.00000000E+00  0.00000000E+00
  0.00000000E+00  0.00000000E+00  0.00000000E+00
  0.00000000E+00  0.00000000E+00  0.00000000E+00
  0.00000000E+00  0.00000000E+00  0.00000000E+00
  0.00000000E+00  0.00000000E+00  0.00000000E+00
  0.00000000E+00  0.00000000E+00  0.00000000E+00
  0.00000000E+00  0.00000000E+00  0.00000000E+00
  0.00000000E+00  0.00000000E+00  0.00000000E+00
  0.00000000E+00  0.00000000E+00  0.00000000E+00
  0.00000000E+00  0.00000000E+00  0.00000000E+00
  0.00000000E+00  0.00000000E+00  0.00000000E+00
  0.00000000E+00  0.00000000E+00  0.00000000E+00
  0.00000000E+00  0.00000000E+00  0.00000000E+00
  0.00000000E+00  0.00000000E+00  0.00000000E+00
  0.00000000E+00  0.00000000E+00  0.00000000E+00
  0.00000000E+00  0.00000000E+00  0.00000000E+00
  0.00000000E+00  0.00000000E+00  0.00000000E+00
  0.00000000E+00  0.00000000E+00  0.00000000E+00
  0.00000000E+00  0.00000000E+00  0.00000000E+00
  0.00000000E+00  0.00000000E+00  0.00000000E+00
  0.00000000E+00  0.00000000E+00  0.00000000E+00
  0.00000000E+00  0.00000000E+00  0.00000000E+00
  0.00000000E+00  0.00000000E+00  0.00000000E+00
  0.00000000E+00  0.00000000E+00  0.00000000E+00
  0.00000000E+00  0.00000000E+00  0.00000000E+00
  0.00000000E+00  0.00000000E+00  0.00000000E+00
  0.00000000E+00  0.00000000E+00  0.00000000E+00
  0.00000000E+00  0.00000000E+00  0.00000000E+00
  0.00000000E+00  0.00000000E+00  0.00000000E+00
  0.00000000E+00  0.00000000E+00  0.00000000E+00
  0.00000000E+00  0.00000000E+00  0.00000000E+00
  0.00000000E+00  0.00000000E+00  0.00000000E+00
  0.00000000E+00  0.00000000E+00  0.00000000E+00
  0.00000000E+00  0.00000000E+00  0.00000000E+00
  0.00000000E+00  0.00000000E+00  0.00000000E+00
  0.00000000E+00  0.00000000E+00  0.00000000E+00
  0.00000000E+00  0.00000000E+00  0.00000000E+00
  0.00000000E+00  0.00000000E+00  0.00000000E+00
  0.00000000E+00  0.00000000E+00  0.00000000E+00
  0.00000000E+00  0.00000000E+00  0.00000000E+00
  0.00000000E+00  0.00000000E+00  0.00000000E+00
  0.00000000E+00  0.00000000E+00  0.00000000E+00
  0.00000000E+00  0.00000000E+00  0.00000000E+00
  0.00000000E+00  0.00000000E+00  0.00000000E+00
  0.00000000E+00  0.00000000E+00  0.00000000E+00
  0.00000000E+00  0.00000000E+00  0.00000000E+00
  0.00000000E+00  0.00000000E+00  0.00000000E+00
  0.00000000E+00  0.00000000E+00  0.00000000E+00
  0.00000000E+00  0.00000000E+00  0.00000000E+00
  0.00000000E+00  0.00000000E+00  0.00000000E+00
  0.00000000E+00  0.00000000E+00  0.00000000E+00
  0.00000000E+00  0.00000000E+00  0.00000000E+00
  0.00000000E+00  0.00000000E+00  0.00000000E+00
  0.00000000E+00  0.00000000E+00  0.00000000E+00
  0.00000000E+00  0.00000000E+00  0.00000000E+00
  0.00000000E+00  0.00000000E+00  0.00000000E+00
  0.00000000E+00  0.00000000E+00  0.00000000E+00
  0.00000000E+00  0.00000000E+00  0.00000000E+00
  0.00000000E+00  0.00000000E+00  0.00000000E+00
  0.00000000E+00  0.00000000E+00  0.00000000E+00
  0.00000000E+00  0.00000000E+00  0.00000000E+00
  0.00000000E+00  0.00000000E+00  0.00000000E+00
  0.00000000E+00  0.00000000E+00  0.00000000E+00
  0.00000000E+00  0.00000000E+00  0.00000000E+00
  0.00000000E+00  0.00000000E+00  0.00000000E+00
  0.00000000E+00  0.00000000E+00  0.00000000E+00
  0.00000000E+00  0.00000000E+00  0.00000000E+00
  0.00000000E+00  0.00000000E+00  0.00000000E+00
  0.00000000E+00  0.00000000E+00  0.00000000E+00
  0.00000000E+00  0.00000000E+00  0.00000000E+00
  0.00000000E+00  0.00000000E+00  0.00000000E+00
  0.00000000E+00  0.00000000E+00  0.00000000E+00
  0.00000000E+00  0.00000000E+00  0.00000000E+00
  0.00000000E+00  0.00000000E+00  0.00000000E+00
  0.00000000E+00  0.00000000E+00  0.00000000E+00
  0.00000000E+00  0.00000000E+00  0.00000000E+00
  0.00000000E+00  0.00000000E+00  0.00000000E+00
  0.00000000E+00  0.00000000E+00  0.00000000E+00
  0.00000000E+00  0.00000000E+00  0.00000000E+00
  0.00000000E+00  0.00000000E+00  0.00000000E+00
  0.00000000E+00  0.00000000E+00  0.00000000E+00
  0.00000000E+00  0.00000000E+00  0.00000000E+00
  0.00000000E+00  0.00000000E+00  0.00000000E+00
  0.00000000E+00  0.00000000E+00  0.00000000E+00
  0.00000000E+00  0.00000000E+00  0.00000000E+00
  0.00000000E+00  0.00000000E+00  0.00000000E+00
  0.00000000E+00  0.00000000E+00  0.00000000E+00
  0.00000000E+00  0.00000000E+00  0.00000000E+00
  0.00000000E+00  0.00000000E+00  0.00000000E+00
  0.00000000E+00  0.00000000E+00  0.00000000E+00
  0.00000000E+00  0.00000000E+00  0.00000000E+00
  0.00000000E+00  0.00000000E+00  0.00000000E+00
  0.00000000E+00  0.00000000E+00  0.00000000E+00
  0.00000000E+00  0.00000000E+00  0.00000000E+00
  0.00000000E+00  0.00000000E+00  0.00000000E+00
  0.00000000E+00  0.00000000E+00  0.00000000E+00
  0.00000000E+00  0.00000000E+00  0.00000000E+00
  0.00000000E+00  0.00000000E+00  0.00000000E+00
  0.00000000E+00  0.00000000E+00  0.00000000E+00
  0.00000000E+00  0.00000000E+00  0.00000000E+00
  0.00000000E+00  0.00000000E+00  0.00000000E+00
  0.00000000E+00  0.00000000E+00  0.00000000E+00
  0.00000000E+00  0.00000000E+00  0.00000000E+00
  0.00000000E+00  0.00000000E+00  0.00000000E+00
  0.00000000E+00  0.00000000E+00  0.00000000E+00
  0.00000000E+00  0.00000000E+00  0.00000000E+00
  0.00000000E+00  0.00000000E+00  0.00000000E+00
  0.00000000E+00  0.00000000E+00  0.00000000E+00
  0.00000000E+00  0.00000000E+00  0.00000000E+00
  0.00000000E+00  0.00000000E+00  0.00000000E+00
  0.00000000E+00  0.00000000E+00  0.00000000E+00
  0.00000000E+00  0.00000000E+00  0.00000000E+00
  0.00000000E+00  0.00000000E+00  0.00000000E+00
  0.00000000E+00  0.00000000E+00  0.00000000E+00
  0.00000000E+00  0.00000000E+00  0.00000000E+00
  0.00000000E+00  0.00000000E+00  0.00000000E+00
  0.00000000E+00  0.00000000E+00  0.00000000E+00
  0.00000000E+00  0.00000000E+00  0.00000000E+00
  0.00000000E+00  0.00000000E+00  0.00000000E+00
  0.00000000E+00  0.00000000E+00  0.00000000E+00
  0.00000000E+00  0.00000000E+00  0.00000000E+00
  0.00000000E+00  0.00000000E+00  0.00000000E+00
  0.00000000E+00  0.00000000E+00  0.00000000E+00
  0.00000000E+00  0.00000000E+00  0.00000000E+00
  0.00000000E+00  0.00000000E+00  0.00000000E+00
  0.00000000E+00  0.00000000E+00  0.00000000E+00
  0.00000000E+00  0.00000000E+00  0.00000000E+00
  0.00000000E+00  0.00000000E+00  0.00000000E+00
  0.00000000E+00  0.00000000E+00  0.00000000E+00
  0.00000000E+00  0.00000000E+00  0.00000000E+00
  0.00000000E+00  0.00000000E+00  0.00000000E+00
  0.00000000E+00  0.00000000E+00  0.00000000E+00
  0.00000000E+00  0.00000000E+00  0.00000000E+00
  0.00000000E+00  0.00000000E+00  0.00000000E+00
  0.00000000E+00  0.00000000E+00  0.00000000E+00
  0.00000000E+00  0.00000000E+00  0.00000000E+00
  0.00000000E+00  0.00000000E+00  0.00000000E+00
  0.00000000E+00  0.00000000E+00  0.00000000E+00
  0.00000000E+00  0.00000000E+00  0.00000000E+00
  0.00000000E+00  0.00000000E+00  0.00000000E+00
  0.00000000E+00  0.00000000E+00  0.00000000E+00
  0.00000000E+00  0.00000000E+00  0.00000000E+00
  0.00000000E+00  0.00000000E+00  0.00000000E+00
  0.00000000E+00  0.00000000E+00  0.00000000E+00
  0.00000000E+00  0.00000000E+00  0.00000000E+00
  0.00000000E+00  0.00000000E+00  0.00000000E+00
  0.00000000E+00  0.00000000E+00  0.00000000E+00
  0.00000000E+00  0.00000000E+00  0.00000000E+00
  0.00000000E+00  0.00000000E+00  0.00000000E+00
  0.00000000E+00  0.00000000E+00  0.00000000E+00
  0.00000000E+00  0.00000000E+00  0.00000000E+00
  0.00000000E+00  0.00000000E+00  0.00000000E+00
  0.00000000E+00  0.00000000E+00  0.00000000E+00
  0.00000000E+00  0.00000000E+00  0.00000000E+00
  0.00000000E+00  0.00000000E+00  0.00000000E+00
  0.00000000E+00  0.00000000E+00  0.00000000E+00
  0.00000000E+00  0.00000000E+00  0.00000000E+00
  0.00000000E+00  0.00000000E+00  0.00000000E+00
  0.00000000E+00  0.00000000E+00  0.00000000E+00
  0.00000000E+00  0.00000000E+00  0.00000000E+00
  0.00000000E+00  0.00000000E+00  0.00000000E+00
  0.00000000E+00  0.00000000E+00  0.00000000E+00
  0.00000000E+00  0.00000000E+00  0.00000000E+00
  0.00000000E+00  0.00000000E+00  0.00000000E+00
  0.00000000E+00  0.00000000E+00  0.00000000E+00
  0.00000000E+00  0.00000000E+00  0.00000000E+00
  0.00000000E+00  0.00000000E+00  0.00000000E+00
  0.00000000E+00  0.00000000E+00  0.00000000E+00
  0.00000000E+00  0.00000000E+00  0.00000000E+00
  0.00000000E+00  0.00000000E+00  0.00000000E+00
  0.00000000E+00  0.00000000E+00  0.00000000E+00
  0.00000000E+00  0.00000000E+00  0.00000000E+00
  0.00000000E+00  0.00000000E+00  0.00000000E+00
  0.00000000E+00  0.00000000E+00  0.00000000E+00
  0.00000000E+00  0.00000000E+00  0.00000000E+00
  0.00000000E+00  0.00000000E+00  0.00000000E+00
  0.00000000E+00  0.00000000E+00  0.00000000E+00
  0.00000000E+00  0.00000000E+00  0.00000000E+00
  0.00000000E+00  0.00000000E+00  0.00000000E+00
  0.00000000E+00  0.00000000E+00  0.00000000E+00
  0.00000000E+00  0.00000000E+00  0.00000000E+00
  0.00000000E+00  0.00000000E+00  0.00000000E+00
  0.00000000E+00  0.00000000E+00  0.00000000E+00
  0.00000000E+00  0.00000000E+00  0.00000000E+00
  0.00000000E+00  0.00000000E+00  0.00000000E+00
  0.00000000E+00  0.00000000E+00  0.00000000E+00
  0.00000000E+00  0.00000000E+00  0.00000000E+00
  0.00000000E+00  0.00000000E+00  0.00000000E+00
  0.00000000E+00  0.00000000E+00  0.00000000E+00
  0.00000000E+00  0.00000000E+00  0.00000000E+00
  0.00000000E+00  0.00000000E+00  0.00000000E+00
  0.00000000E+00  0.00000000E+00  0.00000000E+00
  0.00000000E+00  0.00000000E+00  0.00000000E+00
  0.00000000E+00  0.00000000E+00  0.00000000E+00
  0.00000000E+00  0.00000000E+00  0.00000000E+00
  0.00000000E+00  0.00000000E+00  0.00000000E+00
  0.00000000E+00  0.00000000E+00  0.00000000E+00
  0.00000000E+00  0.00000000E+00  0.00000000E+00
  0.00000000E+00  0.00000000E+00  0.00000000E+00
  0.00000000E+00  0.00000000E+00  0.00000000E+00
  0.00000000E+00  0.00000000E+00  0.00000000E+00
