POSCAR                                  
   1.00000000000000     
    10.0323744381697093   -0.0026985885364745    0.0109778880219799
    -0.0026907542593980   10.0201524718641384   -0.0020529901446222
     0.0073223282537786   -0.0013713925480906    6.6384365119830386
   Mg   Zr   Na   Ca   H 
     9     9     9     9   216
Direct
  0.1646486247540994  0.1641766169506150  0.2489803076521404
  0.1656317197413686  0.5012878196088204  0.2495019927548011
  0.3327363503887345  0.3342824296123249  0.0004467390260014
  0.8371390966419587  0.1621217680611639  0.2480047088333115
  0.4962944566513570  0.4943178152426244  0.7521102538085077
  0.6682799289741369  0.3335970400463345  0.9979235852653320
  0.5005841294229412  0.8367615771518602  0.7519973725162911
  0.9982193578971644  0.9942506799233717  0.4994553232463051
  0.9971180593481626  0.9988610500974222  0.0018272063720073
  0.1672255983690669  0.1645665236358354  0.7514742317024860
  0.4983416290952529  0.1638812569377353  0.2481009352489308
  0.1780337454094618  0.5077698783215165  0.7492335014807642
  0.4994808137814671  0.5103792908676733  0.2468657871970957
  0.6571245551264769  0.3380981958729625  0.5029750317403939
  0.3290092315710245  0.9943860260204568  0.5037311997007445
  0.0060749869212465  0.3299136402429812  0.4939423154138036
  0.8231661391735354  0.5089050559654490  0.7541241169962902
  0.6722743690279372  0.9876207434795644  0.5009526940670693
  0.3355094417034344  0.3368988047018308  0.4954437813457262
  0.4992754308894815  0.1661888545892725  0.7512415986668034
  0.3369311052357488  0.6631727481749757  0.5023497736052944
  0.1637030470690713  0.8321994018801979  0.7495509810828201
  0.5033749965839550  0.8274807260775588  0.2517438043366687
  0.6634075515926412  0.6680966685201776  0.5031802586201268
  0.6646054698436911  0.6681137275150941  0.9993937399432332
  0.8333753932923643  0.8314014512277356  0.2499194629280838
  0.8358617622717643  0.8355004876468017  0.7523767766898891
  0.1681067162236184  0.8337623878127735  0.2470613577467811
  0.3376242707581705  0.6701182951076953  0.0001478497934983
  0.8305656310208862  0.1597941938126495  0.7474398223112573
  0.8376842484977521  0.4994118727984964  0.2480442673656692
  0.3327998399963339  0.0003232312188775  0.0001622772149383
  0.9994226569839127  0.3322797714530119  0.0005473273413252
  0.9994060497060936  0.6770562583444379  0.5003152837163960
  0.6698259422094043  0.9987700758865207  0.0009647604191633
  0.9981842909434108  0.6700472076938903  0.0014651175946296
  0.1580820473646022  0.0810625361204008  0.0159406588376072
  0.1641206613440783  0.0841090536622901  0.4932741217552758
  0.1699917618235648  0.4172008460767518  0.0112962307482223
  0.5022611031638101  0.0842204010859075  0.9889978822354343
  0.3227734760612533  0.2534173801748862  0.2504500688396962
  0.1735223601230026  0.4174962959271580  0.4845406603509894
  0.5032520148064080  0.0847269866945579  0.5094997505535206
  0.3377813466530054  0.2520923094326420  0.7444349689790739
  0.1662979517769654  0.7515313697057551  0.9879353406477924
  0.4980396737433935  0.4116106445993454  0.9950723175379236
  0.3291121379021660  0.5873847646365151  0.2556998754104036
  0.1743281678894737  0.7483359104394707  0.5036645531759665
  0.8384267855022973  0.0822943347778148  0.0137932536304154
  0.6672399628359756  0.2501842532175390  0.2427974742610217
  0.4906617003160371  0.4164599672106487  0.5080389636536747
  0.3489223718513270  0.5873819304613136  0.7464959214753147
  0.8336220638904743  0.0850357830991468  0.4881121343236471
  0.6625415310343634  0.2495996307554318  0.7574623268897929
  0.5106073951287782  0.7545348618653646  0.9976107412551702
  0.3417053993871089  0.9125765358334286  0.2455957439057035
  0.8269283445017266  0.4161925036213614 -0.0010882155629265
  0.6688491451995772  0.5854465993149350  0.2539676452979912
  0.4998820148788799  0.7529828359524204  0.5117798292868164
  0.3269815743276310  0.9147240481075505  0.7529368864241702
  0.0045376931236734  0.2465377850642195  0.2452353655254677
  0.8343639140210698  0.4157023462215063  0.5001829595970074
  0.6505166770073386  0.5850298998196533  0.7511277291980700
  0.9972435024314242  0.2488306126374195  0.7507850159460000
  0.8292613525216189  0.7508310884903068  0.9911820364363567
  0.6665695741086215  0.9124623160637693  0.2462562751383729
  0.0046488093626407  0.5822475274569854  0.2584741358766514
  0.8256834968021075  0.7463496401946925  0.5097010026012969
  0.6695014926962067  0.9103201439707758  0.7586638493968163
  0.0019429033223023  0.5839648805461070  0.7425725547707551
  0.9965053785123851  0.9152660233199649  0.2270129780035185
  0.0014782125714749  0.9163138294338183  0.7759751411085926
  0.0838341233594920  0.1670886654112775  0.0106440040445426
  0.0832946860203115  0.1536113325924130  0.4809512071359404
  0.0853646880353231  0.5001378507799225  0.9986100287068372
  0.4135213585949014  0.1785771127163062  0.9913323902577924
  0.2538625639007869  0.3378630971206924  0.2512448516733320
  0.0852539155636120  0.5053302684285170  0.5004336866328611
  0.4144964172418006  0.1722028430361572  0.5086789144094620
  0.2537982638982028  0.3350275031933509  0.7377498526520198
  0.0868998442975501  0.8391494332219093  0.9960174548867767
  0.4164879715298170  0.4941645588075691  0.9916340686839219
  0.2508174132271946  0.6598299649404959  0.2588019072562870
  0.0825644473082267  0.8433237947658656  0.5075230418704862
  0.7512009395093785  0.1680462006340970  0.0136812365277423
  0.5831033081044430  0.3322402415070634  0.2276535161295949
  0.4159554655571068  0.4994563998729802  0.5038599245754648
  0.2501652756611744  0.6765391728222969  0.7400270698955931
  0.7512781006498385  0.1689107451691542  0.4834315649072986
  0.5802996695453027  0.3310641736708068  0.7651667226060077
  0.4169435578607120  0.8344039491240488  0.9877870958651922
  0.2476162420768120  0.0069057526181949  0.2539461758571309
  0.7454656665184185  0.5058713049448448  0.0081735920372283
  0.5906856656177656  0.6755497259889648  0.2501092261020476
  0.4187299983560167  0.8262199859766548  0.5105039868892988
  0.2449769396008244  0.9908433525835971  0.7541597661276703
  0.9134122627193014  0.3187706531762323  0.2498053652765439
  0.7464199614662795  0.5060814676937896  0.4948394743163855
  0.5871142911442643  0.6859550623687334  0.7513046561007383
  0.9160519278885745  0.3360385463262791  0.7460414565859147
  0.7420160586168222  0.8266806127677528  0.0121715749426711
  0.5854108584690998  0.9943815421709995  0.2509872449168066
  0.9169301093813221  0.6733430353047644  0.2510702978434515
  0.7508777316532803  0.8239736437920443  0.5008735885894010
  0.5833251596694621  0.9923103579599281  0.7503901507338463
  0.9167926785133330  0.6712822541305524  0.7514856106538572
  0.9176027589125606  0.9950580611272482  0.2703748096574231
  0.9178044076852597  0.9938596724845026  0.7309350259016865
  0.1584299490677237  0.0089739797557609  0.1225018196413754
  0.1488807141083995  0.9925439328301962  0.6297171906442516
  0.1682961277351851  0.3306914777986544  0.1230415202009849
  0.5007044470115919  0.9814176718645659  0.1210858825537536
  0.3220706831321625  0.1756789237511658  0.3743203096063163
  0.1802013500419308  0.3361434545481531  0.6232426702070485
  0.5005360845040021  0.9984912823659097  0.6279255503443814
  0.3387094861356582  0.1736186756497912  0.8762745826791728
  0.1658045043143326  0.6574214918345206  0.1276579066566276
  0.5051681863556808  0.3384092929323215  0.1203367826008906
  0.3278245561192685  0.5010697379419029  0.3742173956726769
  0.1777190988956615  0.6762198557281667  0.6220245895747276
  0.8369911410035970 -0.0000010774592559  0.1262873502761744
  0.6742233430624076  0.1676636793734610  0.3722625607108249
  0.4901380251167823  0.3356950350627482  0.6281442847015208
  0.3428985691510552  0.4944459150682067  0.8806620784580758
  0.8494858590091245  0.9928400757604691  0.6281454549364834
  0.6612810110636281  0.1715035904258434  0.8740845992572294
  0.5071922890599948  0.6737031538745895  0.1214967189811694
  0.3390791561145058  0.8196859479811791  0.3747565182675262
  0.8280280264962186  0.3243623840651238  0.1261226921148374
  0.6695283589133817  0.5123805245983357  0.3732804951764386
  0.5003015830508311  0.6523955719965957  0.6302714032333003
  0.3345004443627514  0.8363850454325609  0.8766124395607952
  0.0043400477445789  0.1532858504927073  0.3742349803141352
  0.8293129662121174  0.3289224611839148  0.6235110948228124
  0.6523716744240188  0.4983719411386882  0.8785349630053859
  0.9962228268462158  0.1516876297514000  0.8762199330549016
  0.8227638983343650  0.6682870802748092  0.1273918891040477
  0.6700090891161737  0.8220826698539490  0.3702830209010221
  0.0066273475680519  0.5094515202977463  0.3746798618779125
  0.8234054796429099  0.6841068201710201  0.6222075453499937
  0.6703878244146275  0.8347089571564922  0.8758982900337028
  0.0028910857947363  0.5010956379403043  0.8735472628942694
  0.9963276942076319  0.8383537723759015  0.3707400510803703
  0.9981153726589173  0.8440154342759233  0.8724993333222755
  0.0800396903267779  0.9991911893413888  0.2698335950905498
  0.0792471859808388  0.9895033734824109  0.7318220873497232
  0.0879929526385863  0.3237387409315070  0.2436302665421031
  0.4167723035414946  0.9954687349528838  0.2531442944948273
  0.2514961477252198  0.1757657062330767  0.4821137439239589
  0.0830912625738431  0.3420655122152713  0.7528381789971995
  0.4177589087361878  0.0002675055316128  0.7487548174177618
  0.2499675113498094  0.1696941014498868  0.0145775828379679
  0.0848003948169249  0.6680934426025128  0.2482881246239391
  0.4130126049801364  0.3357874779022592  0.2418351410035788
  0.2551350206091938  0.4987847083863924  0.4856171021466676
  0.0818925434305135  0.6699999834095244  0.7515407294090560
  0.7559061006934404  0.9969017286557497  0.2488410499358508
  0.5811775004056395  0.1616040957205366  0.5055624090131360
  0.4147083164482778  0.3291847677955970  0.7559668192779134
  0.2535407552383687  0.4991289460366454  0.0175691105541522
  0.7541887890853107  0.9908357995643899  0.7533852993165659
  0.5823807933649047  0.1744544062567479  0.9946017551737411
  0.4157854826314608  0.6708966079386555  0.2623945230663790
  0.2510778777320440  0.8231722616097402  0.5108511445173708
  0.7506425764741359  0.3276081617470891  0.2486009010464975
  0.5816273981734861  0.5072068123763078  0.5082633188097865
  0.4150052429031522  0.6774181272536539  0.7456058060611453
  0.2523735025559206  0.8332135855926741  0.9842192555895949
  0.9150976924563404  0.1573880511044771  0.4882460296923706
  0.7507475218384937  0.3293779657526593  0.7526199653604422
  0.5823938715728190  0.4988103880422733  0.9898392921624909
  0.9151225548298080  0.1652031923433194  0.0033433846087317
  0.7536502021363800  0.6710561894471057  0.2505346297024345
  0.5807323793799216  0.8249110480807901  0.5087929989669392
  0.9165978704841056  0.5012910420633381  0.5065615757652775
  0.7500889241030805  0.6769922476934315  0.7527319948553342
  0.5809379678319566  0.8259019103623653  0.9911650957086683
  0.9174153875878556  0.5008742990738786  0.9925852012283157
  0.9157149180108204  0.8437295525980587  0.4997387461882105
  0.9093660209667335  0.8395589811051453  0.0025883270276759
  0.0016116360021336  0.1550212538805855  0.1256999815664971
  0.9995120088761424  0.1503527321761168  0.6229384060518162
  0.0082777550693165  0.5008878682514712  0.1232766793225969
  0.3211426690779478  0.1702667360064646  0.1257852893339637
  0.1754092176769484  0.3394368157711294  0.3704595587464444
  0.0025008494675737  0.5088222365996700  0.6254492469833934
  0.3369200180121601  0.1770770966333200  0.6224934060326960
  0.1746265242317834  0.3332832631117628  0.8772923163852695
  0.9962108353379234  0.8446145467422598  0.1248268728354659
  0.3257886413352648  0.4993470290100624  0.1247201949828329
  0.1734288997605415  0.6597833078631923  0.3761137340361579
  0.0007266566139348  0.8401973674307950  0.6268838936211085
  0.6783767245023505  0.1720311115160432  0.1240432897939864
  0.4924545798936329  0.3397384697201712  0.3713775135343638
  0.3455915622602114  0.4990654060820346  0.6201992556937010
  0.1694518179079741  0.6772273775954918  0.8773438430764877
  0.6592361671673492  0.1653695481035379  0.6252635276853187
  0.5005414095533780  0.3328540943580293  0.8783099495658149
  0.3434369513870112  0.8373080823513066  0.1281027125616828
  0.1477154735872670  0.0029450935975586  0.3677312133868252
  0.6702696821588989  0.5012614249462339  0.1201085396941483
  0.5005050603525008  0.6699404408996323  0.3810120972595624
  0.3285831768397467  0.8254930374291317  0.6248869913930929
  0.1610980927927201  0.9958861983626611  0.8771809385524416
  0.8274311037190408  0.3280052139225744  0.3723463480497076
  0.6493597206015076  0.5122903936318264  0.6285368304189800
  0.5050864785555634  0.6554387037268645  0.8700076648882588
  0.8251961931091295  0.3238301314433541  0.8764982201431970
  0.6763972358752975  0.8299094813389920  0.1223347136912879
  0.4997072273931155  0.9854668322488175  0.3753908704635568
  0.8236039357656393  0.6692099029041345  0.3745989674494706
  0.6734938503936596  0.8267467234795258  0.6261198740889539
  0.5015893455294567  0.0006605102620647  0.8736219421096455
  0.8234443003954255  0.6841807146509453  0.8797716430954471
  0.8494452507069707  0.9934850684587146  0.3679115789256945
  0.8373219537174375  0.9941095443381472  0.8767566697888458
  0.9950097156461787  0.0839224312328416  0.2368612895139683
  0.9990452294070125  0.0818746030509112  0.7665936437368307
  0.0099859069985693  0.4145770546504902  0.2480516446596932
  0.3276589281182288  0.0843362197467509  0.2509273148316122
  0.1747005739699767  0.2504395453122450  0.4861143692291375
  0.0011854948032364  0.4147703947131334  0.7492331766369547
  0.3398499675686241  0.0863020810086148  0.7527210935714478
  0.1706465967005258  0.2525099671464771  0.0122655646499115
  0.9936205497431259  0.7517947405741139  0.2504341044102859
  0.3280584743404805  0.4146713034265274  0.2463204550566880
  0.1653864228309274  0.5856165761430463  0.4847375930612904
  0.9979235573829964  0.7551552642681069  0.7529945110554341
  0.6756479178506860  0.0861359250578828  0.2538946901348997
  0.4914198192453448  0.2483954316067215  0.5086860747669364
  0.3369480173539857  0.4125467956769068  0.7507375970024246
  0.1683061314040893  0.5849319092467749  0.0154452395200330
  0.6585595565007560  0.0862924310928295  0.7478393858637205
  0.5011867542170462  0.2496715031157863  0.9945398835360819
  0.3390727493655027  0.7509978335046678  0.2678797746133919
  0.1615847444801901  0.9133340604828656  0.5038361845164507
  0.6671387595592168  0.4154254940425418  0.2363117039236922
  0.5013450920991832  0.5921687595278486  0.5316464259035832
  0.3459862467721371  0.7498556083518508  0.7398634269204325
  0.1529856637908565  0.9155479837616625  0.9890468978726932
  0.8319528023801458  0.2482623904966989  0.4970858678945355
  0.6604496430733299  0.4157541495995351  0.7625456368288920
  0.5060589861082602  0.5892844384994773  0.9678761035129304
  0.8316129009219289  0.2495218280626508  0.9944741584442252
  0.6653252379271513  0.7467388350775034  0.2579499899026512
  0.4993884325903662  0.9157813391921262  0.4845238975316761
  0.8305742335287498  0.5858896779560906  0.4961414173489372
  0.6551031367035846  0.7478510684402565  0.7477858772299855
  0.5027792872469827  0.9173919121209793  0.0179887262144554
  0.8254095281549401  0.5878836558873261  0.0067998357488133
  0.8401795545183028  0.9071095320239466  0.4962539835259193
  0.8445605434078037  0.9141796665874254  0.0044981038314140
 
  0.00000000E+00  0.00000000E+00  0.00000000E+00
  0.00000000E+00  0.00000000E+00  0.00000000E+00
  0.00000000E+00  0.00000000E+00  0.00000000E+00
  0.00000000E+00  0.00000000E+00  0.00000000E+00
  0.00000000E+00  0.00000000E+00  0.00000000E+00
  0.00000000E+00  0.00000000E+00  0.00000000E+00
  0.00000000E+00  0.00000000E+00  0.00000000E+00
  0.00000000E+00  0.00000000E+00  0.00000000E+00
  0.00000000E+00  0.00000000E+00  0.00000000E+00
  0.00000000E+00  0.00000000E+00  0.00000000E+00
  0.00000000E+00  0.00000000E+00  0.00000000E+00
  0.00000000E+00  0.00000000E+00  0.00000000E+00
  0.00000000E+00  0.00000000E+00  0.00000000E+00
  0.00000000E+00  0.00000000E+00  0.00000000E+00
  0.00000000E+00  0.00000000E+00  0.00000000E+00
  0.00000000E+00  0.00000000E+00  0.00000000E+00
  0.00000000E+00  0.00000000E+00  0.00000000E+00
  0.00000000E+00  0.00000000E+00  0.00000000E+00
  0.00000000E+00  0.00000000E+00  0.00000000E+00
  0.00000000E+00  0.00000000E+00  0.00000000E+00
  0.00000000E+00  0.00000000E+00  0.00000000E+00
  0.00000000E+00  0.00000000E+00  0.00000000E+00
  0.00000000E+00  0.00000000E+00  0.00000000E+00
  0.00000000E+00  0.00000000E+00  0.00000000E+00
  0.00000000E+00  0.00000000E+00  0.00000000E+00
  0.00000000E+00  0.00000000E+00  0.00000000E+00
  0.00000000E+00  0.00000000E+00  0.00000000E+00
  0.00000000E+00  0.00000000E+00  0.00000000E+00
  0.00000000E+00  0.00000000E+00  0.00000000E+00
  0.00000000E+00  0.00000000E+00  0.00000000E+00
  0.00000000E+00  0.00000000E+00  0.00000000E+00
  0.00000000E+00  0.00000000E+00  0.00000000E+00
  0.00000000E+00  0.00000000E+00  0.00000000E+00
  0.00000000E+00  0.00000000E+00  0.00000000E+00
  0.00000000E+00  0.00000000E+00  0.00000000E+00
  0.00000000E+00  0.00000000E+00  0.00000000E+00
  0.00000000E+00  0.00000000E+00  0.00000000E+00
  0.00000000E+00  0.00000000E+00  0.00000000E+00
  0.00000000E+00  0.00000000E+00  0.00000000E+00
  0.00000000E+00  0.00000000E+00  0.00000000E+00
  0.00000000E+00  0.00000000E+00  0.00000000E+00
  0.00000000E+00  0.00000000E+00  0.00000000E+00
  0.00000000E+00  0.00000000E+00  0.00000000E+00
  0.00000000E+00  0.00000000E+00  0.00000000E+00
  0.00000000E+00  0.00000000E+00  0.00000000E+00
  0.00000000E+00  0.00000000E+00  0.00000000E+00
  0.00000000E+00  0.00000000E+00  0.00000000E+00
  0.00000000E+00  0.00000000E+00  0.00000000E+00
  0.00000000E+00  0.00000000E+00  0.00000000E+00
  0.00000000E+00  0.00000000E+00  0.00000000E+00
  0.00000000E+00  0.00000000E+00  0.00000000E+00
  0.00000000E+00  0.00000000E+00  0.00000000E+00
  0.00000000E+00  0.00000000E+00  0.00000000E+00
  0.00000000E+00  0.00000000E+00  0.00000000E+00
  0.00000000E+00  0.00000000E+00  0.00000000E+00
  0.00000000E+00  0.00000000E+00  0.00000000E+00
  0.00000000E+00  0.00000000E+00  0.00000000E+00
  0.00000000E+00  0.00000000E+00  0.00000000E+00
  0.00000000E+00  0.00000000E+00  0.00000000E+00
  0.00000000E+00  0.00000000E+00  0.00000000E+00
  0.00000000E+00  0.00000000E+00  0.00000000E+00
  0.00000000E+00  0.00000000E+00  0.00000000E+00
  0.00000000E+00  0.00000000E+00  0.00000000E+00
  0.00000000E+00  0.00000000E+00  0.00000000E+00
  0.00000000E+00  0.00000000E+00  0.00000000E+00
  0.00000000E+00  0.00000000E+00  0.00000000E+00
  0.00000000E+00  0.00000000E+00  0.00000000E+00
  0.00000000E+00  0.00000000E+00  0.00000000E+00
  0.00000000E+00  0.00000000E+00  0.00000000E+00
  0.00000000E+00  0.00000000E+00  0.00000000E+00
  0.00000000E+00  0.00000000E+00  0.00000000E+00
  0.00000000E+00  0.00000000E+00  0.00000000E+00
  0.00000000E+00  0.00000000E+00  0.00000000E+00
  0.00000000E+00  0.00000000E+00  0.00000000E+00
  0.00000000E+00  0.00000000E+00  0.00000000E+00
  0.00000000E+00  0.00000000E+00  0.00000000E+00
  0.00000000E+00  0.00000000E+00  0.00000000E+00
  0.00000000E+00  0.00000000E+00  0.00000000E+00
  0.00000000E+00  0.00000000E+00  0.00000000E+00
  0.00000000E+00  0.00000000E+00  0.00000000E+00
  0.00000000E+00  0.00000000E+00  0.00000000E+00
  0.00000000E+00  0.00000000E+00  0.00000000E+00
  0.00000000E+00  0.00000000E+00  0.00000000E+00
  0.00000000E+00  0.00000000E+00  0.00000000E+00
  0.00000000E+00  0.00000000E+00  0.00000000E+00
  0.00000000E+00  0.00000000E+00  0.00000000E+00
  0.00000000E+00  0.00000000E+00  0.00000000E+00
  0.00000000E+00  0.00000000E+00  0.00000000E+00
  0.00000000E+00  0.00000000E+00  0.00000000E+00
  0.00000000E+00  0.00000000E+00  0.00000000E+00
  0.00000000E+00  0.00000000E+00  0.00000000E+00
  0.00000000E+00  0.00000000E+00  0.00000000E+00
  0.00000000E+00  0.00000000E+00  0.00000000E+00
  0.00000000E+00  0.00000000E+00  0.00000000E+00
  0.00000000E+00  0.00000000E+00  0.00000000E+00
  0.00000000E+00  0.00000000E+00  0.00000000E+00
  0.00000000E+00  0.00000000E+00  0.00000000E+00
  0.00000000E+00  0.00000000E+00  0.00000000E+00
  0.00000000E+00  0.00000000E+00  0.00000000E+00
  0.00000000E+00  0.00000000E+00  0.00000000E+00
  0.00000000E+00  0.00000000E+00  0.00000000E+00
  0.00000000E+00  0.00000000E+00  0.00000000E+00
  0.00000000E+00  0.00000000E+00  0.00000000E+00
  0.00000000E+00  0.00000000E+00  0.00000000E+00
  0.00000000E+00  0.00000000E+00  0.00000000E+00
  0.00000000E+00  0.00000000E+00  0.00000000E+00
  0.00000000E+00  0.00000000E+00  0.00000000E+00
  0.00000000E+00  0.00000000E+00  0.00000000E+00
  0.00000000E+00  0.00000000E+00  0.00000000E+00
  0.00000000E+00  0.00000000E+00  0.00000000E+00
  0.00000000E+00  0.00000000E+00  0.00000000E+00
  0.00000000E+00  0.00000000E+00  0.00000000E+00
  0.00000000E+00  0.00000000E+00  0.00000000E+00
  0.00000000E+00  0.00000000E+00  0.00000000E+00
  0.00000000E+00  0.00000000E+00  0.00000000E+00
  0.00000000E+00  0.00000000E+00  0.00000000E+00
  0.00000000E+00  0.00000000E+00  0.00000000E+00
  0.00000000E+00  0.00000000E+00  0.00000000E+00
  0.00000000E+00  0.00000000E+00  0.00000000E+00
  0.00000000E+00  0.00000000E+00  0.00000000E+00
  0.00000000E+00  0.00000000E+00  0.00000000E+00
  0.00000000E+00  0.00000000E+00  0.00000000E+00
  0.00000000E+00  0.00000000E+00  0.00000000E+00
  0.00000000E+00  0.00000000E+00  0.00000000E+00
  0.00000000E+00  0.00000000E+00  0.00000000E+00
  0.00000000E+00  0.00000000E+00  0.00000000E+00
  0.00000000E+00  0.00000000E+00  0.00000000E+00
  0.00000000E+00  0.00000000E+00  0.00000000E+00
  0.00000000E+00  0.00000000E+00  0.00000000E+00
  0.00000000E+00  0.00000000E+00  0.00000000E+00
  0.00000000E+00  0.00000000E+00  0.00000000E+00
  0.00000000E+00  0.00000000E+00  0.00000000E+00
  0.00000000E+00  0.00000000E+00  0.00000000E+00
  0.00000000E+00  0.00000000E+00  0.00000000E+00
  0.00000000E+00  0.00000000E+00  0.00000000E+00
  0.00000000E+00  0.00000000E+00  0.00000000E+00
  0.00000000E+00  0.00000000E+00  0.00000000E+00
  0.00000000E+00  0.00000000E+00  0.00000000E+00
  0.00000000E+00  0.00000000E+00  0.00000000E+00
  0.00000000E+00  0.00000000E+00  0.00000000E+00
  0.00000000E+00  0.00000000E+00  0.00000000E+00
  0.00000000E+00  0.00000000E+00  0.00000000E+00
  0.00000000E+00  0.00000000E+00  0.00000000E+00
  0.00000000E+00  0.00000000E+00  0.00000000E+00
  0.00000000E+00  0.00000000E+00  0.00000000E+00
  0.00000000E+00  0.00000000E+00  0.00000000E+00
  0.00000000E+00  0.00000000E+00  0.00000000E+00
  0.00000000E+00  0.00000000E+00  0.00000000E+00
  0.00000000E+00  0.00000000E+00  0.00000000E+00
  0.00000000E+00  0.00000000E+00  0.00000000E+00
  0.00000000E+00  0.00000000E+00  0.00000000E+00
  0.00000000E+00  0.00000000E+00  0.00000000E+00
  0.00000000E+00  0.00000000E+00  0.00000000E+00
  0.00000000E+00  0.00000000E+00  0.00000000E+00
  0.00000000E+00  0.00000000E+00  0.00000000E+00
  0.00000000E+00  0.00000000E+00  0.00000000E+00
  0.00000000E+00  0.00000000E+00  0.00000000E+00
  0.00000000E+00  0.00000000E+00  0.00000000E+00
  0.00000000E+00  0.00000000E+00  0.00000000E+00
  0.00000000E+00  0.00000000E+00  0.00000000E+00
  0.00000000E+00  0.00000000E+00  0.00000000E+00
  0.00000000E+00  0.00000000E+00  0.00000000E+00
  0.00000000E+00  0.00000000E+00  0.00000000E+00
  0.00000000E+00  0.00000000E+00  0.00000000E+00
  0.00000000E+00  0.00000000E+00  0.00000000E+00
  0.00000000E+00  0.00000000E+00  0.00000000E+00
  0.00000000E+00  0.00000000E+00  0.00000000E+00
  0.00000000E+00  0.00000000E+00  0.00000000E+00
  0.00000000E+00  0.00000000E+00  0.00000000E+00
  0.00000000E+00  0.00000000E+00  0.00000000E+00
  0.00000000E+00  0.00000000E+00  0.00000000E+00
  0.00000000E+00  0.00000000E+00  0.00000000E+00
  0.00000000E+00  0.00000000E+00  0.00000000E+00
  0.00000000E+00  0.00000000E+00  0.00000000E+00
  0.00000000E+00  0.00000000E+00  0.00000000E+00
  0.00000000E+00  0.00000000E+00  0.00000000E+00
  0.00000000E+00  0.00000000E+00  0.00000000E+00
  0.00000000E+00  0.00000000E+00  0.00000000E+00
  0.00000000E+00  0.00000000E+00  0.00000000E+00
  0.00000000E+00  0.00000000E+00  0.00000000E+00
  0.00000000E+00  0.00000000E+00  0.00000000E+00
  0.00000000E+00  0.00000000E+00  0.00000000E+00
  0.00000000E+00  0.00000000E+00  0.00000000E+00
  0.00000000E+00  0.00000000E+00  0.00000000E+00
  0.00000000E+00  0.00000000E+00  0.00000000E+00
  0.00000000E+00  0.00000000E+00  0.00000000E+00
  0.00000000E+00  0.00000000E+00  0.00000000E+00
  0.00000000E+00  0.00000000E+00  0.00000000E+00
  0.00000000E+00  0.00000000E+00  0.00000000E+00
  0.00000000E+00  0.00000000E+00  0.00000000E+00
  0.00000000E+00  0.00000000E+00  0.00000000E+00
  0.00000000E+00  0.00000000E+00  0.00000000E+00
  0.00000000E+00  0.00000000E+00  0.00000000E+00
  0.00000000E+00  0.00000000E+00  0.00000000E+00
  0.00000000E+00  0.00000000E+00  0.00000000E+00
  0.00000000E+00  0.00000000E+00  0.00000000E+00
  0.00000000E+00  0.00000000E+00  0.00000000E+00
  0.00000000E+00  0.00000000E+00  0.00000000E+00
  0.00000000E+00  0.00000000E+00  0.00000000E+00
  0.00000000E+00  0.00000000E+00  0.00000000E+00
  0.00000000E+00  0.00000000E+00  0.00000000E+00
  0.00000000E+00  0.00000000E+00  0.00000000E+00
  0.00000000E+00  0.00000000E+00  0.00000000E+00
  0.00000000E+00  0.00000000E+00  0.00000000E+00
  0.00000000E+00  0.00000000E+00  0.00000000E+00
  0.00000000E+00  0.00000000E+00  0.00000000E+00
  0.00000000E+00  0.00000000E+00  0.00000000E+00
  0.00000000E+00  0.00000000E+00  0.00000000E+00
  0.00000000E+00  0.00000000E+00  0.00000000E+00
  0.00000000E+00  0.00000000E+00  0.00000000E+00
  0.00000000E+00  0.00000000E+00  0.00000000E+00
  0.00000000E+00  0.00000000E+00  0.00000000E+00
  0.00000000E+00  0.00000000E+00  0.00000000E+00
  0.00000000E+00  0.00000000E+00  0.00000000E+00
  0.00000000E+00  0.00000000E+00  0.00000000E+00
  0.00000000E+00  0.00000000E+00  0.00000000E+00
  0.00000000E+00  0.00000000E+00  0.00000000E+00
  0.00000000E+00  0.00000000E+00  0.00000000E+00
  0.00000000E+00  0.00000000E+00  0.00000000E+00
  0.00000000E+00  0.00000000E+00  0.00000000E+00
  0.00000000E+00  0.00000000E+00  0.00000000E+00
  0.00000000E+00  0.00000000E+00  0.00000000E+00
  0.00000000E+00  0.00000000E+00  0.00000000E+00
  0.00000000E+00  0.00000000E+00  0.00000000E+00
  0.00000000E+00  0.00000000E+00  0.00000000E+00
  0.00000000E+00  0.00000000E+00  0.00000000E+00
  0.00000000E+00  0.00000000E+00  0.00000000E+00
  0.00000000E+00  0.00000000E+00  0.00000000E+00
  0.00000000E+00  0.00000000E+00  0.00000000E+00
  0.00000000E+00  0.00000000E+00  0.00000000E+00
  0.00000000E+00  0.00000000E+00  0.00000000E+00
  0.00000000E+00  0.00000000E+00  0.00000000E+00
  0.00000000E+00  0.00000000E+00  0.00000000E+00
  0.00000000E+00  0.00000000E+00  0.00000000E+00
  0.00000000E+00  0.00000000E+00  0.00000000E+00
  0.00000000E+00  0.00000000E+00  0.00000000E+00
  0.00000000E+00  0.00000000E+00  0.00000000E+00
  0.00000000E+00  0.00000000E+00  0.00000000E+00
  0.00000000E+00  0.00000000E+00  0.00000000E+00
  0.00000000E+00  0.00000000E+00  0.00000000E+00
  0.00000000E+00  0.00000000E+00  0.00000000E+00
  0.00000000E+00  0.00000000E+00  0.00000000E+00
  0.00000000E+00  0.00000000E+00  0.00000000E+00
  0.00000000E+00  0.00000000E+00  0.00000000E+00
  0.00000000E+00  0.00000000E+00  0.00000000E+00
  0.00000000E+00  0.00000000E+00  0.00000000E+00
  0.00000000E+00  0.00000000E+00  0.00000000E+00
  0.00000000E+00  0.00000000E+00  0.00000000E+00
  0.00000000E+00  0.00000000E+00  0.00000000E+00
  0.00000000E+00  0.00000000E+00  0.00000000E+00
  0.00000000E+00  0.00000000E+00  0.00000000E+00
  0.00000000E+00  0.00000000E+00  0.00000000E+00
