POSCAR                                  
   1.00000000000000     
    10.0325677232539423   -0.0034318193427636    0.0105474935844767
    -0.0034230089337751   10.0197134850428480   -0.0021572076320010
     0.0070379879355534   -0.0014410386634500    6.6382442097185335
   Mg   Zr   Na   Ca   H 
     9     9     9     9   216
Direct
  0.1648080205228695  0.1643056380006769  0.2489980947149704
  0.1655854686108071  0.5012828062013099  0.2496175737171029
  0.3329189014614329  0.3339860534148613  0.0003490688495447
  0.8373341190140309  0.1621644776678792  0.2479975920681099
  0.4962287928315945  0.4945664000558239  0.7520081190252057
  0.6681264347389018  0.3335688668630041  0.9980775688704782
  0.5008210638137172  0.8367887332014448  0.7523684273956306
  0.9981933712463089  0.9944530500800965  0.4987847260268481
  0.9972757690747116  0.9989826699653648  0.0020011693526314
  0.1672752025750199  0.1644303022977383  0.7515964146594740
  0.4983345815630003  0.1636763032048592  0.2482071363147469
  0.1781271488589340  0.5076842622614279  0.7492172390114717
  0.4995222448709953  0.5104468447140462  0.2469279092442278
  0.6570681893055053  0.3382401497181249  0.5029196519437988
  0.3290912490706646  0.9943468737206160  0.5037288379954035
  0.0061103746558473  0.3300034510983139  0.4941647244501866
  0.8235272064374684  0.5088121813116047  0.7542135340941627
  0.6722809772625311  0.9876677537674396  0.5009747056236193
  0.3354273161253758  0.3367511582341223  0.4954256049067567
  0.4995181842385605  0.1664148145543649  0.7512144959871350
  0.3368743063231889  0.6631603026161343  0.5023144581884438
  0.1635594693657225  0.8322734143415715  0.7496543340588104
  0.5031908036411821  0.8275397169261183  0.2515354177436748
  0.6633436501507930  0.6679632494178591  0.5030320415061311
  0.6645483933627290  0.6681730170791198  0.9993503755450988
  0.8331779221246904  0.8316453902409222  0.2500628108235219
  0.8358579393729286  0.8354389251228653  0.7524639081568054
  0.1679686920639583  0.8336610196318759  0.2472453548432441
  0.3375369119090834  0.6699421722532222  0.0000684917891505
  0.8305984077437145  0.1599473019698152  0.7475245282735230
  0.8374530972523573  0.4996173815700828  0.2480485943559501
  0.3328468713058044  0.9999918778681476  0.9999694124489835
  0.9993805560984441  0.3322641967888700  0.0007761930593944
  0.9993596564637173  0.6772927202737336  0.5002687894079543
  0.6699536657430301  0.9986863213137553  0.0007856331111995
  0.9981623606261181  0.6699074060679067  0.0015437490245276
  0.1583530945800291  0.0810556706275207  0.0159399776405280
  0.1640937026995672  0.0840979530757124  0.4933640027399093
  0.1699678920628500  0.4169435931000791  0.0114814883896344
  0.5023274133280609  0.0840672948596861  0.9887450991723981
  0.3232363540104970  0.2532657015345379  0.2501010793148382
  0.1733227552146630  0.4175307843466030  0.4846471775865169
  0.5032702777169931  0.0847140245131044  0.5095561756051978
  0.3378608552384108  0.2521087203702663  0.7445500337609374
  0.1659679874315501  0.7514358004509205  0.9882072069910564
  0.4980930296392643  0.4115561773967542  0.9952659398912260
  0.3291332229049999  0.5872635797976713  0.2556588837757374
  0.1741316191325879  0.7482958189960911  0.5036680659609658
  0.8386578821662170  0.0824333081826438  0.0135124955082375
  0.6672800668966516  0.2501089534490362  0.2424424224299102
  0.4906313657309411  0.4162525089425344  0.5078233186503809
  0.3483610499512793  0.5870895211280143  0.7464275928507575
  0.8338619458407805  0.0851903213439797  0.4882350591910836
  0.6626591096249754  0.2497771665787525  0.7576830662797960
  0.5104111894880248  0.7545858957210996  0.9972044795648642
  0.3414319076729484  0.9124064570951731  0.2456024679152833
  0.8269061536126259  0.4162630444073443  0.9990219311928499
  0.6688414078329004  0.5855843826691611  0.2537287439702212
  0.4999490223164358  0.7529963710141629  0.5117675928917862
  0.3278907420256019  0.9143493826653781  0.7528279180129616
  0.0047760157961463  0.2466255809650661  0.2455682587184072
  0.8345419139580699  0.4157858406514023  0.5001190504865463
  0.6507837666448282  0.5851177638548464  0.7511739102861839
  0.9972482114404286  0.2489136552852926  0.7509619784666839
  0.8292710199447129  0.7509137938065322  0.9917653043979513
  0.6666133329614041  0.9122000519939277  0.2458357461934284
  0.0045102249907885  0.5824065429848702  0.2588446789663124
  0.8256510350561399  0.7461452718725994  0.5089355277081538
  0.6695311823220678  0.9103276902546042  0.7586998358697699
  0.0022908685072380  0.5840319900795308  0.7424052879516196
  0.9965349447612368  0.9154441808691658  0.2270870823579116
  0.0012648790991889  0.9161319042119018  0.7755737992785043
  0.0837804172474961  0.1669163528256590  0.0107053985431875
  0.0832744790847713  0.1537068516632161  0.4811921820491420
  0.0854908493732296  0.5001290212907605  0.9986432270178369
  0.4136990734941222  0.1779335265138755  0.9913823851401560
  0.2538373146558683  0.3377669271868697  0.2513892149172676
  0.0853248191045921  0.5056886659203457  0.5000650564820575
  0.4145785282819645  0.1719407211486015  0.5087456500640499
  0.2538334380219425  0.3349505277608458  0.7376823650243622
  0.0867648456209977  0.8386062199984892  0.9961977779471312
  0.4164137125334761  0.4941300821366994  0.9916606545038604
  0.2508248615973230  0.6599372633516509  0.2591279813176541
  0.0823867914092489  0.8434309346123499  0.5079698693774972
  0.7512794926313191  0.1680022835991366  0.0136479073244118
  0.5829609169866146  0.3319517341045071  0.2278164180369799
  0.4160202838656986  0.4993664032589393  0.5038352088192894
  0.2502816915268724  0.6765831107257299  0.7395671481557073
  0.7512955689176408  0.1688071967222058  0.4833798304960197
  0.5803265831943989  0.3315689972796321  0.7650729183680554
  0.4170219094603809  0.8342146483819519  0.9876350074933526
  0.2478623937211850  0.0066253932611602  0.2535712005097182
  0.7455308943009840  0.5063306996373100  0.0076808971235636
  0.5905942046517794  0.6756772487428577  0.2498652026890653
  0.4187896076590434  0.8262488271162169  0.5113614501424664
  0.2449120467216090  0.9912202491401061  0.7538716327764448
  0.9132070561853780  0.3191625347624054  0.2500620279439403
  0.7464330673663682  0.5062104921870869  0.4951534218163118
  0.5871872121375574  0.6851628459326378  0.7510546567223031
  0.9160532679904563  0.3356175741984799  0.7461712101820268
  0.7423221920876060  0.8264353669928397  0.0112417079427161
  0.5854585092871432  0.9943759425974292  0.2509164708660450
  0.9167358091246669  0.6736011874022623  0.2509584549613066
  0.7508036603940411  0.8240046336958855  0.5017934581592911
  0.5833092439140728  0.9928377810090154  0.7502506140727405
  0.9170453642392005  0.6717836510037571  0.7513821853961815
  0.9173644520762920  0.9952275922100142  0.2695626489376792
  0.9179634157514371  0.9938671076428491  0.7307837852034069
  0.1587549698489852  0.0089495499554175  0.1224479013196742
  0.1488795059262316  0.9923894276051257  0.6293741060327349
  0.1683410982004290  0.3311215976768480  0.1229781948657234
  0.5008987599509638  0.9815476650624788  0.1212439962339644
  0.3220967214443320  0.1754136990914219  0.3744696608913998
  0.1802449101070493  0.3360684181048299  0.6234269154335834
  0.5006845643103404  0.9985923396780407  0.6281089113742055
  0.3388469637436700  0.1732118131900151  0.8761320673171724
  0.1658272085654318  0.6573504726577113  0.1275410609355632
  0.5046303060304922  0.3386944806232961  0.1203372838078423
  0.3276622417224928  0.5010148652790534  0.3740636701953122
  0.1777522360364330  0.6763027487142494  0.6221581084422212
  0.8371007493363081  0.9996501428062317  0.1260150030547464
  0.6744093989450448  0.1677243955905112  0.3721776809947031
  0.4899821987958077  0.3357734050494514  0.6279917654088081
  0.3430776703488903  0.4940914996567685  0.8807444777526001
  0.8494031856758539  0.9927694717517710  0.6280225974317162
  0.6614433541886839  0.1716034074866073  0.8739200663436151
  0.5071655345391264  0.6736013392227136  0.1215589930830987
  0.3393144158612103  0.8196976620105119  0.3747618072203522
  0.8279640162606299  0.3241945623861326  0.1263621231035046
  0.6694652167207522  0.5123115897234101  0.3731460752920626
  0.5000010826298578  0.6526142221746838  0.6298803973511369
  0.3330854501253242  0.8360639776186787  0.8764941052433812
  0.0042258498398624  0.1537291605046818  0.3744135743453114
  0.8290110110882267  0.3291972490842525  0.6236683079620704
  0.6524438671855037  0.4984866051548238  0.8782161888369657
  0.9963068573511862  0.1518646359484137  0.8760027070478671
  0.8228722004857971  0.6687406262689137  0.1272342446188333
  0.6695294741596314  0.8220235195676793  0.3702642318040219
  0.0063661633214522  0.5096153595462241  0.3749476672608694
  0.8231762347177920  0.6840667905360363  0.6222043619590423
  0.6703941649129561  0.8344588767962691  0.8758284753814962
  0.0029274044040974  0.5011082657541550  0.8735451486049186
  0.9962451449524039  0.8386611444647443  0.3707761273902932
  0.9981490205727042  0.8443771265585056  0.8728556886017813
  0.0803711967353706  0.9995877172257366  0.2688540005786564
  0.0792464453309449  0.9898683219534803  0.7316475075481250
  0.0878815261221320  0.3236956074336845  0.2438701234345970
  0.4168488791729814  0.9950762729188938  0.2530779955076099
  0.2514731128457797  0.1756597288547681  0.4821742216032519
  0.0831790987531775  0.3416279845268875  0.7531532362024080
  0.4178962943406788  0.0004649760462527  0.7487645226643735
  0.2500755254359177  0.1697129456464879  0.0145184193788523
  0.0847340048547096  0.6678384526452348  0.2485211301696069
  0.4129976351308571  0.3358236396937997  0.2421274172732097
  0.2550968538832379  0.4987941630590456  0.4855498424313609
  0.0819446503802084  0.6700154273351870  0.7514919737545469
  0.7556068999700685  0.9971832211327651  0.2488747453225173
  0.5815116099488762  0.1615333970222750  0.5054361589004870
  0.4148809927680617  0.3292203972574654  0.7557624139138284
  0.2534415824593665  0.4988300168309934  0.0176079446050110
  0.7542779053515076  0.9908631446666973  0.7532960740448331
  0.5824401313264929  0.1742334205795686  0.9951257165681540
  0.4157815288668871  0.6707643470287223  0.2625620259601931
  0.2510151395115656  0.8233613760617331  0.5115021294826292
  0.7504374052248011  0.3281083651085481  0.2486062176515631
  0.5814712934291393  0.5072109542994667  0.5086199020720628
  0.4152617704869925  0.6780668057109196  0.7456362091811357
  0.2522066094259188  0.8329883648881236  0.9839237744584466
  0.9150128162669802  0.1576367642398395  0.4884361870188556
  0.7506986610748072  0.3294702613583027  0.7525392853551125
  0.5823381547697792  0.4989118089131992  0.9892726764121136
  0.9152182279031535  0.1650672761361136  0.0036106205633502
  0.7533622131010205  0.6711474470928422  0.2504694367387259
  0.5805970148369042  0.8249349389996610  0.5086347161258189
  0.9165906223164413  0.5015168524047411  0.5063695299857471
  0.7502549405333383  0.6769393493196176  0.7524195818560457
  0.5809998965961896  0.8258360975677235  0.9920068310886379
  0.9174775973052007  0.5007342943561568  0.9932715593769927
  0.9155993748713840  0.8438133186373094  0.4998586486477592
  0.9092765720342300  0.8392526762461401  0.0025553941417513
  0.0017166619967384  0.1555574178135473  0.1255521485390005
  0.9993775124806419  0.1502877917533638  0.6232186812620171
  0.0080931000026467  0.5007639419277226  0.1234599939565015
  0.3213743131567881  0.1699963604300052  0.1257186625032460
  0.1756116934569079  0.3393673828852499  0.3704247096487805
  0.0024006221629875  0.5086044971677310  0.6253460734705669
  0.3370007771035617  0.1768929685252374  0.6227757413033643
  0.1746803672807076  0.3333302267237599  0.8773225684956572
  0.9961897514296183  0.8443626092142154  0.1248898269814234
  0.3256444983869997  0.4990891927460765  0.1247289230668045
  0.1735733701524040  0.6600722702366184  0.3761501985934785
  0.0008967645307081  0.8405759912058741  0.6267331861451382
  0.6786858397713189  0.1717886715267198  0.1244272740323993
  0.4922602554990405  0.3398002522256363  0.3712739937503713
  0.3456960776304427  0.4989267261011392  0.6198120888819503
  0.1693325174921938  0.6768466648267477  0.8771437783771248
  0.6593759240518509  0.1656980644043955  0.6249223110784996
  0.5006491980266645  0.3327146260779017  0.8784739770657453
  0.3431226769508200  0.8369536457912403  0.1280141814737945
  0.1481648525239478  0.0029997197941825  0.3675789368738762
  0.6700146510439779  0.5009486813245942  0.1197059821003919
  0.5003909170782919  0.6701754141190577  0.3808975458313455
  0.3281411839345694  0.8255794845046154  0.6242979285880139
  0.1607895578221772  0.9955474584423243  0.8772724937177472
  0.8273603043337729  0.3282234036142810  0.3726728894555649
  0.6495193798594556  0.5120130750420984  0.6283492986823092
  0.5047798827375374  0.6554980304538418  0.8702432251993244
  0.8249401990624250  0.3239769375183101  0.8766108663048513
  0.6763322848865130  0.8301511055589685  0.1222253446517101
  0.4998060923263381  0.9853239212137126  0.3754101675568862
  0.8235224851635081  0.6697477530403120  0.3744210165606461
  0.6736583741975650  0.8266562972036837  0.6258451373984073
  0.5016752816432231  0.0010648346554945  0.8738681227167007
  0.8234040372846607  0.6834822165551486  0.8791630644535431
  0.8491114751248148  0.9937417527048424  0.3677551874539020
  0.8376488462987197  0.9941146052580621  0.8768449348047724
  0.9953517453316891  0.0840392798217167  0.2377911239410437
  0.9989578543107385  0.0818149397383650  0.7664939208093884
  0.0098578568817800  0.4148009431209587  0.2482743413490027
  0.3274645223034938  0.0840386831476678  0.2506540784020217
  0.1746479307817026  0.2503900301176998  0.4862086122586433
  0.0018921216366863  0.4150147583951522  0.7494083587510687
  0.3400748347576794  0.0862480814933946  0.7528259179790311
  0.1709343268990935  0.2524678472995490  0.0124036868775335
  0.9932145495905544  0.7519499210405414  0.2502535422503840
  0.3285501673360400  0.4146200424611663  0.2460982620710581
  0.1650966240680987  0.5854508492715169  0.4849223797221853
  0.9977241122787177  0.7547713316470563  0.7531454649245219
  0.6759770617702543  0.0860001103066139  0.2535782538336733
  0.4914303860518956  0.2482593626646263  0.5086084228318768
  0.3370217928418597  0.4124754392423498  0.7509085935612276
  0.1682847483126437  0.5849115395877575  0.0157586396663305
  0.6587612531071372  0.0863776733894426  0.7480488206864990
  0.5012589269046970  0.2496654881436200  0.9947013240831595
  0.3390119422506004  0.7510771476643683  0.2679452105127496
  0.1615668522473825  0.9134467877644354  0.5036987866960843
  0.6669450980338638  0.4156521197021945  0.2358905417239541
  0.5011114875804523  0.5920644185854016  0.5312973353927859
  0.3460821934044986  0.7495702961931272  0.7400612277904202
  0.1530602539888548  0.9155400352217171  0.9891073999613056
  0.8315989607607364  0.2485446910142812  0.4968580819059483
  0.6605580666917490  0.4159248878147892  0.7630098096883984
  0.5060764330709091  0.5891642834975528  0.9682851656493483
  0.8312363394040787  0.2497902831490890  0.9949248331282305
  0.6650342659168302  0.7469219647113690  0.2581372059423472
  0.4994511559019656  0.9156979476850111  0.4847809109883698
  0.8308839126952918  0.5857444037706117  0.4964948055460141
  0.6549016315288014  0.7476200770550463  0.7477175714184412
  0.5027574655926657  0.9173510283663404  0.0175374958612196
  0.8251534923612738  0.5880840963949510  0.0068829678300588
  0.8401243949726904  0.9070705454521573  0.4966033270543022
  0.8448074388334632  0.9141779270577572  0.0044046618948173
 
  0.00000000E+00  0.00000000E+00  0.00000000E+00
  0.00000000E+00  0.00000000E+00  0.00000000E+00
  0.00000000E+00  0.00000000E+00  0.00000000E+00
  0.00000000E+00  0.00000000E+00  0.00000000E+00
  0.00000000E+00  0.00000000E+00  0.00000000E+00
  0.00000000E+00  0.00000000E+00  0.00000000E+00
  0.00000000E+00  0.00000000E+00  0.00000000E+00
  0.00000000E+00  0.00000000E+00  0.00000000E+00
  0.00000000E+00  0.00000000E+00  0.00000000E+00
  0.00000000E+00  0.00000000E+00  0.00000000E+00
  0.00000000E+00  0.00000000E+00  0.00000000E+00
  0.00000000E+00  0.00000000E+00  0.00000000E+00
  0.00000000E+00  0.00000000E+00  0.00000000E+00
  0.00000000E+00  0.00000000E+00  0.00000000E+00
  0.00000000E+00  0.00000000E+00  0.00000000E+00
  0.00000000E+00  0.00000000E+00  0.00000000E+00
  0.00000000E+00  0.00000000E+00  0.00000000E+00
  0.00000000E+00  0.00000000E+00  0.00000000E+00
  0.00000000E+00  0.00000000E+00  0.00000000E+00
  0.00000000E+00  0.00000000E+00  0.00000000E+00
  0.00000000E+00  0.00000000E+00  0.00000000E+00
  0.00000000E+00  0.00000000E+00  0.00000000E+00
  0.00000000E+00  0.00000000E+00  0.00000000E+00
  0.00000000E+00  0.00000000E+00  0.00000000E+00
  0.00000000E+00  0.00000000E+00  0.00000000E+00
  0.00000000E+00  0.00000000E+00  0.00000000E+00
  0.00000000E+00  0.00000000E+00  0.00000000E+00
  0.00000000E+00  0.00000000E+00  0.00000000E+00
  0.00000000E+00  0.00000000E+00  0.00000000E+00
  0.00000000E+00  0.00000000E+00  0.00000000E+00
  0.00000000E+00  0.00000000E+00  0.00000000E+00
  0.00000000E+00  0.00000000E+00  0.00000000E+00
  0.00000000E+00  0.00000000E+00  0.00000000E+00
  0.00000000E+00  0.00000000E+00  0.00000000E+00
  0.00000000E+00  0.00000000E+00  0.00000000E+00
  0.00000000E+00  0.00000000E+00  0.00000000E+00
  0.00000000E+00  0.00000000E+00  0.00000000E+00
  0.00000000E+00  0.00000000E+00  0.00000000E+00
  0.00000000E+00  0.00000000E+00  0.00000000E+00
  0.00000000E+00  0.00000000E+00  0.00000000E+00
  0.00000000E+00  0.00000000E+00  0.00000000E+00
  0.00000000E+00  0.00000000E+00  0.00000000E+00
  0.00000000E+00  0.00000000E+00  0.00000000E+00
  0.00000000E+00  0.00000000E+00  0.00000000E+00
  0.00000000E+00  0.00000000E+00  0.00000000E+00
  0.00000000E+00  0.00000000E+00  0.00000000E+00
  0.00000000E+00  0.00000000E+00  0.00000000E+00
  0.00000000E+00  0.00000000E+00  0.00000000E+00
  0.00000000E+00  0.00000000E+00  0.00000000E+00
  0.00000000E+00  0.00000000E+00  0.00000000E+00
  0.00000000E+00  0.00000000E+00  0.00000000E+00
  0.00000000E+00  0.00000000E+00  0.00000000E+00
  0.00000000E+00  0.00000000E+00  0.00000000E+00
  0.00000000E+00  0.00000000E+00  0.00000000E+00
  0.00000000E+00  0.00000000E+00  0.00000000E+00
  0.00000000E+00  0.00000000E+00  0.00000000E+00
  0.00000000E+00  0.00000000E+00  0.00000000E+00
  0.00000000E+00  0.00000000E+00  0.00000000E+00
  0.00000000E+00  0.00000000E+00  0.00000000E+00
  0.00000000E+00  0.00000000E+00  0.00000000E+00
  0.00000000E+00  0.00000000E+00  0.00000000E+00
  0.00000000E+00  0.00000000E+00  0.00000000E+00
  0.00000000E+00  0.00000000E+00  0.00000000E+00
  0.00000000E+00  0.00000000E+00  0.00000000E+00
  0.00000000E+00  0.00000000E+00  0.00000000E+00
  0.00000000E+00  0.00000000E+00  0.00000000E+00
  0.00000000E+00  0.00000000E+00  0.00000000E+00
  0.00000000E+00  0.00000000E+00  0.00000000E+00
  0.00000000E+00  0.00000000E+00  0.00000000E+00
  0.00000000E+00  0.00000000E+00  0.00000000E+00
  0.00000000E+00  0.00000000E+00  0.00000000E+00
  0.00000000E+00  0.00000000E+00  0.00000000E+00
  0.00000000E+00  0.00000000E+00  0.00000000E+00
  0.00000000E+00  0.00000000E+00  0.00000000E+00
  0.00000000E+00  0.00000000E+00  0.00000000E+00
  0.00000000E+00  0.00000000E+00  0.00000000E+00
  0.00000000E+00  0.00000000E+00  0.00000000E+00
  0.00000000E+00  0.00000000E+00  0.00000000E+00
  0.00000000E+00  0.00000000E+00  0.00000000E+00
  0.00000000E+00  0.00000000E+00  0.00000000E+00
  0.00000000E+00  0.00000000E+00  0.00000000E+00
  0.00000000E+00  0.00000000E+00  0.00000000E+00
  0.00000000E+00  0.00000000E+00  0.00000000E+00
  0.00000000E+00  0.00000000E+00  0.00000000E+00
  0.00000000E+00  0.00000000E+00  0.00000000E+00
  0.00000000E+00  0.00000000E+00  0.00000000E+00
  0.00000000E+00  0.00000000E+00  0.00000000E+00
  0.00000000E+00  0.00000000E+00  0.00000000E+00
  0.00000000E+00  0.00000000E+00  0.00000000E+00
  0.00000000E+00  0.00000000E+00  0.00000000E+00
  0.00000000E+00  0.00000000E+00  0.00000000E+00
  0.00000000E+00  0.00000000E+00  0.00000000E+00
  0.00000000E+00  0.00000000E+00  0.00000000E+00
  0.00000000E+00  0.00000000E+00  0.00000000E+00
  0.00000000E+00  0.00000000E+00  0.00000000E+00
  0.00000000E+00  0.00000000E+00  0.00000000E+00
  0.00000000E+00  0.00000000E+00  0.00000000E+00
  0.00000000E+00  0.00000000E+00  0.00000000E+00
  0.00000000E+00  0.00000000E+00  0.00000000E+00
  0.00000000E+00  0.00000000E+00  0.00000000E+00
  0.00000000E+00  0.00000000E+00  0.00000000E+00
  0.00000000E+00  0.00000000E+00  0.00000000E+00
  0.00000000E+00  0.00000000E+00  0.00000000E+00
  0.00000000E+00  0.00000000E+00  0.00000000E+00
  0.00000000E+00  0.00000000E+00  0.00000000E+00
  0.00000000E+00  0.00000000E+00  0.00000000E+00
  0.00000000E+00  0.00000000E+00  0.00000000E+00
  0.00000000E+00  0.00000000E+00  0.00000000E+00
  0.00000000E+00  0.00000000E+00  0.00000000E+00
  0.00000000E+00  0.00000000E+00  0.00000000E+00
  0.00000000E+00  0.00000000E+00  0.00000000E+00
  0.00000000E+00  0.00000000E+00  0.00000000E+00
  0.00000000E+00  0.00000000E+00  0.00000000E+00
  0.00000000E+00  0.00000000E+00  0.00000000E+00
  0.00000000E+00  0.00000000E+00  0.00000000E+00
  0.00000000E+00  0.00000000E+00  0.00000000E+00
  0.00000000E+00  0.00000000E+00  0.00000000E+00
  0.00000000E+00  0.00000000E+00  0.00000000E+00
  0.00000000E+00  0.00000000E+00  0.00000000E+00
  0.00000000E+00  0.00000000E+00  0.00000000E+00
  0.00000000E+00  0.00000000E+00  0.00000000E+00
  0.00000000E+00  0.00000000E+00  0.00000000E+00
  0.00000000E+00  0.00000000E+00  0.00000000E+00
  0.00000000E+00  0.00000000E+00  0.00000000E+00
  0.00000000E+00  0.00000000E+00  0.00000000E+00
  0.00000000E+00  0.00000000E+00  0.00000000E+00
  0.00000000E+00  0.00000000E+00  0.00000000E+00
  0.00000000E+00  0.00000000E+00  0.00000000E+00
  0.00000000E+00  0.00000000E+00  0.00000000E+00
  0.00000000E+00  0.00000000E+00  0.00000000E+00
  0.00000000E+00  0.00000000E+00  0.00000000E+00
  0.00000000E+00  0.00000000E+00  0.00000000E+00
  0.00000000E+00  0.00000000E+00  0.00000000E+00
  0.00000000E+00  0.00000000E+00  0.00000000E+00
  0.00000000E+00  0.00000000E+00  0.00000000E+00
  0.00000000E+00  0.00000000E+00  0.00000000E+00
  0.00000000E+00  0.00000000E+00  0.00000000E+00
  0.00000000E+00  0.00000000E+00  0.00000000E+00
  0.00000000E+00  0.00000000E+00  0.00000000E+00
  0.00000000E+00  0.00000000E+00  0.00000000E+00
  0.00000000E+00  0.00000000E+00  0.00000000E+00
  0.00000000E+00  0.00000000E+00  0.00000000E+00
  0.00000000E+00  0.00000000E+00  0.00000000E+00
  0.00000000E+00  0.00000000E+00  0.00000000E+00
  0.00000000E+00  0.00000000E+00  0.00000000E+00
  0.00000000E+00  0.00000000E+00  0.00000000E+00
  0.00000000E+00  0.00000000E+00  0.00000000E+00
  0.00000000E+00  0.00000000E+00  0.00000000E+00
  0.00000000E+00  0.00000000E+00  0.00000000E+00
  0.00000000E+00  0.00000000E+00  0.00000000E+00
  0.00000000E+00  0.00000000E+00  0.00000000E+00
  0.00000000E+00  0.00000000E+00  0.00000000E+00
  0.00000000E+00  0.00000000E+00  0.00000000E+00
  0.00000000E+00  0.00000000E+00  0.00000000E+00
  0.00000000E+00  0.00000000E+00  0.00000000E+00
  0.00000000E+00  0.00000000E+00  0.00000000E+00
  0.00000000E+00  0.00000000E+00  0.00000000E+00
  0.00000000E+00  0.00000000E+00  0.00000000E+00
  0.00000000E+00  0.00000000E+00  0.00000000E+00
  0.00000000E+00  0.00000000E+00  0.00000000E+00
  0.00000000E+00  0.00000000E+00  0.00000000E+00
  0.00000000E+00  0.00000000E+00  0.00000000E+00
  0.00000000E+00  0.00000000E+00  0.00000000E+00
  0.00000000E+00  0.00000000E+00  0.00000000E+00
  0.00000000E+00  0.00000000E+00  0.00000000E+00
  0.00000000E+00  0.00000000E+00  0.00000000E+00
  0.00000000E+00  0.00000000E+00  0.00000000E+00
  0.00000000E+00  0.00000000E+00  0.00000000E+00
  0.00000000E+00  0.00000000E+00  0.00000000E+00
  0.00000000E+00  0.00000000E+00  0.00000000E+00
  0.00000000E+00  0.00000000E+00  0.00000000E+00
  0.00000000E+00  0.00000000E+00  0.00000000E+00
  0.00000000E+00  0.00000000E+00  0.00000000E+00
  0.00000000E+00  0.00000000E+00  0.00000000E+00
  0.00000000E+00  0.00000000E+00  0.00000000E+00
  0.00000000E+00  0.00000000E+00  0.00000000E+00
  0.00000000E+00  0.00000000E+00  0.00000000E+00
  0.00000000E+00  0.00000000E+00  0.00000000E+00
  0.00000000E+00  0.00000000E+00  0.00000000E+00
  0.00000000E+00  0.00000000E+00  0.00000000E+00
  0.00000000E+00  0.00000000E+00  0.00000000E+00
  0.00000000E+00  0.00000000E+00  0.00000000E+00
  0.00000000E+00  0.00000000E+00  0.00000000E+00
  0.00000000E+00  0.00000000E+00  0.00000000E+00
  0.00000000E+00  0.00000000E+00  0.00000000E+00
  0.00000000E+00  0.00000000E+00  0.00000000E+00
  0.00000000E+00  0.00000000E+00  0.00000000E+00
  0.00000000E+00  0.00000000E+00  0.00000000E+00
  0.00000000E+00  0.00000000E+00  0.00000000E+00
  0.00000000E+00  0.00000000E+00  0.00000000E+00
  0.00000000E+00  0.00000000E+00  0.00000000E+00
  0.00000000E+00  0.00000000E+00  0.00000000E+00
  0.00000000E+00  0.00000000E+00  0.00000000E+00
  0.00000000E+00  0.00000000E+00  0.00000000E+00
  0.00000000E+00  0.00000000E+00  0.00000000E+00
  0.00000000E+00  0.00000000E+00  0.00000000E+00
  0.00000000E+00  0.00000000E+00  0.00000000E+00
  0.00000000E+00  0.00000000E+00  0.00000000E+00
  0.00000000E+00  0.00000000E+00  0.00000000E+00
  0.00000000E+00  0.00000000E+00  0.00000000E+00
  0.00000000E+00  0.00000000E+00  0.00000000E+00
  0.00000000E+00  0.00000000E+00  0.00000000E+00
  0.00000000E+00  0.00000000E+00  0.00000000E+00
  0.00000000E+00  0.00000000E+00  0.00000000E+00
  0.00000000E+00  0.00000000E+00  0.00000000E+00
  0.00000000E+00  0.00000000E+00  0.00000000E+00
  0.00000000E+00  0.00000000E+00  0.00000000E+00
  0.00000000E+00  0.00000000E+00  0.00000000E+00
  0.00000000E+00  0.00000000E+00  0.00000000E+00
  0.00000000E+00  0.00000000E+00  0.00000000E+00
  0.00000000E+00  0.00000000E+00  0.00000000E+00
  0.00000000E+00  0.00000000E+00  0.00000000E+00
  0.00000000E+00  0.00000000E+00  0.00000000E+00
  0.00000000E+00  0.00000000E+00  0.00000000E+00
  0.00000000E+00  0.00000000E+00  0.00000000E+00
  0.00000000E+00  0.00000000E+00  0.00000000E+00
  0.00000000E+00  0.00000000E+00  0.00000000E+00
  0.00000000E+00  0.00000000E+00  0.00000000E+00
  0.00000000E+00  0.00000000E+00  0.00000000E+00
  0.00000000E+00  0.00000000E+00  0.00000000E+00
  0.00000000E+00  0.00000000E+00  0.00000000E+00
  0.00000000E+00  0.00000000E+00  0.00000000E+00
  0.00000000E+00  0.00000000E+00  0.00000000E+00
  0.00000000E+00  0.00000000E+00  0.00000000E+00
  0.00000000E+00  0.00000000E+00  0.00000000E+00
  0.00000000E+00  0.00000000E+00  0.00000000E+00
  0.00000000E+00  0.00000000E+00  0.00000000E+00
  0.00000000E+00  0.00000000E+00  0.00000000E+00
  0.00000000E+00  0.00000000E+00  0.00000000E+00
  0.00000000E+00  0.00000000E+00  0.00000000E+00
  0.00000000E+00  0.00000000E+00  0.00000000E+00
  0.00000000E+00  0.00000000E+00  0.00000000E+00
  0.00000000E+00  0.00000000E+00  0.00000000E+00
  0.00000000E+00  0.00000000E+00  0.00000000E+00
  0.00000000E+00  0.00000000E+00  0.00000000E+00
  0.00000000E+00  0.00000000E+00  0.00000000E+00
  0.00000000E+00  0.00000000E+00  0.00000000E+00
  0.00000000E+00  0.00000000E+00  0.00000000E+00
  0.00000000E+00  0.00000000E+00  0.00000000E+00
  0.00000000E+00  0.00000000E+00  0.00000000E+00
  0.00000000E+00  0.00000000E+00  0.00000000E+00
  0.00000000E+00  0.00000000E+00  0.00000000E+00
  0.00000000E+00  0.00000000E+00  0.00000000E+00
  0.00000000E+00  0.00000000E+00  0.00000000E+00
  0.00000000E+00  0.00000000E+00  0.00000000E+00
  0.00000000E+00  0.00000000E+00  0.00000000E+00
  0.00000000E+00  0.00000000E+00  0.00000000E+00
  0.00000000E+00  0.00000000E+00  0.00000000E+00
  0.00000000E+00  0.00000000E+00  0.00000000E+00
  0.00000000E+00  0.00000000E+00  0.00000000E+00
  0.00000000E+00  0.00000000E+00  0.00000000E+00
  0.00000000E+00  0.00000000E+00  0.00000000E+00
