       N       E                     dE             d eps       ncg     rms          rms(c)
DAV:   1     0.134544589568E+05    0.13454E+05   -0.25118E+05 15984   0.239E+03
DAV:   2     0.228740832991E+04   -0.11167E+05   -0.10471E+05 15960   0.793E+02
DAV:   3    -0.453766357801E+03   -0.27412E+04   -0.25065E+04 20512   0.408E+02
DAV:   4    -0.856113368854E+03   -0.40235E+03   -0.38118E+03 26824   0.216E+02
DAV:   5    -0.881836467000E+03   -0.25723E+02   -0.25041E+02 26608   0.681E+01    0.199E+02
DAV:   6    -0.693009988132E+03    0.18883E+03   -0.26930E+02 28368   0.694E+01    0.847E+01
DAV:   7    -0.693802524561E+03   -0.79254E+00   -0.23524E+02 27360   0.368E+01    0.410E+01
DAV:   8    -0.691833545456E+03    0.19690E+01   -0.23799E+01 26720   0.184E+01    0.147E+01
DAV:   9    -0.691467121671E+03    0.36642E+00   -0.30039E+00 26160   0.726E+00    0.798E+00
DAV:  10    -0.691442991025E+03    0.24131E-01   -0.50822E-01 25744   0.294E+00    0.676E+00
DAV:  11    -0.691427815415E+03    0.15176E-01   -0.12993E-01 28008   0.154E+00    0.191E+00
DAV:  12    -0.691419825005E+03    0.79904E-02   -0.42334E-02 26824   0.847E-01    0.575E-01
DAV:  13    -0.691419740433E+03    0.84572E-04   -0.11406E-02 26192   0.380E-01    0.249E-01
DAV:  14    -0.691419703844E+03    0.36589E-04   -0.11201E-03 27248   0.120E-01    0.132E-01
DAV:  15    -0.691419701827E+03    0.20164E-05   -0.16210E-04 28544   0.432E-02    0.542E-02
DAV:  16    -0.691419688973E+03    0.12854E-04   -0.32142E-05 26112   0.216E-02    0.197E-02
DAV:  17    -0.691419685931E+03    0.30420E-05   -0.33111E-06 17456   0.957E-03    0.903E-03
DAV:  18    -0.691419686084E+03   -0.15267E-06   -0.10768E-06 14024   0.565E-03
   1 F= 0.14156974E+03 E0= 0.14157069E+03  d E =0.141570E+03
