opt                                     
           1
    10.032568   -0.003432    0.010547
    -0.003423   10.019713   -0.002157
     0.007038   -0.001441    6.638244
   Mg   Zr   Na   Ca   H 
   9   9   9   9 216
Direct configuration=     1
   0.16480802  0.16430564  0.24899809
   0.16558547  0.50128281  0.24961757
   0.33291890  0.33398605  0.00034907
   0.83733412  0.16216448  0.24799759
   0.49622879  0.49456640  0.75200812
   0.66812643  0.33356887  0.99807757
   0.50082106  0.83678873  0.75236843
   0.99819337  0.99445305  0.49878473
   0.99727577  0.99898267  0.00200117
   0.16727520  0.16443030  0.75159641
   0.49833458  0.16367630  0.24820714
   0.17812715  0.50768426  0.74921724
   0.49952224  0.51044684  0.24692791
   0.65706819  0.33824015  0.50291965
   0.32909125  0.99434687  0.50372884
   0.00611037  0.33000345  0.49416472
   0.82352721  0.50881218  0.75421353
   0.67228098  0.98766775  0.50097471
   0.33542732  0.33675116  0.49542560
   0.49951818  0.16641481  0.75121450
   0.33687431  0.66316030  0.50231446
   0.16355947  0.83227341  0.74965433
   0.50319080  0.82753972  0.25153542
   0.66334365  0.66796325  0.50303204
   0.66454839  0.66817302  0.99935038
   0.83317792  0.83164539  0.25006281
   0.83585794  0.83543893  0.75246391
   0.16796869  0.83366102  0.24724535
   0.33753691  0.66994217  0.00006849
   0.83059841  0.15994730  0.74752453
   0.83745310  0.49961738  0.24804859
   0.33284687  0.99999188  0.99996941
   0.99938056  0.33226420  0.00077619
   0.99935966  0.67729272  0.50026879
   0.66995367  0.99868632  0.00078563
   0.99816236  0.66990741  0.00154375
   0.15835309  0.08105567  0.01593998
   0.16409370  0.08409795  0.49336400
   0.16996789  0.41694359  0.01148149
   0.50232741  0.08406729  0.98874510
   0.32323635  0.25326570  0.25010108
   0.17332276  0.41753078  0.48464718
   0.50327028  0.08471402  0.50955618
   0.33786086  0.25210872  0.74455003
   0.16596799  0.75143580  0.98820721
   0.49809303  0.41155618  0.99526594
   0.32913322  0.58726358  0.25565888
   0.17413162  0.74829582  0.50366807
   0.83865788  0.08243331  0.01351250
   0.66728007  0.25010895  0.24244242
   0.49063137  0.41625251  0.50782332
   0.34836105  0.58708952  0.74642759
   0.83386195  0.08519032  0.48823506
   0.66265911  0.24977717  0.75768307
   0.51041119  0.75458590  0.99720448
   0.34143191  0.91240646  0.24560247
   0.82690615  0.41626304  0.99902193
   0.66884141  0.58558438  0.25372874
   0.49994902  0.75299637  0.51176759
   0.32789074  0.91434938  0.75282792
   0.00477602  0.24662558  0.24556826
   0.83454191  0.41578584  0.50011905
   0.65078377  0.58511776  0.75117391
   0.99724821  0.24891366  0.75096198
   0.82927102  0.75091379  0.99176530
   0.66661333  0.91220005  0.24583575
   0.00451022  0.58240654  0.25884468
   0.82565104  0.74614527  0.50893553
   0.66953118  0.91032769  0.75869984
   0.00229087  0.58403199  0.74240529
   0.99653494  0.91544418  0.22708708
   0.00126488  0.91613190  0.77557380
   0.08378042  0.16691635  0.01070540
   0.08327448  0.15370685  0.48119218
   0.08549085  0.50012902  0.99864323
   0.41369907  0.17793353  0.99138239
   0.25383731  0.33776693  0.25138921
   0.08532482  0.50568867  0.50006506
   0.41457853  0.17194072  0.50874565
   0.25383344  0.33495053  0.73768237
   0.08676485  0.83860622  0.99619778
   0.41641371  0.49413008  0.99166065
   0.25082486  0.65993726  0.25912798
   0.08238679  0.84343093  0.50796987
   0.75127949  0.16800228  0.01364791
   0.58296092  0.33195173  0.22781642
   0.41602028  0.49936640  0.50383521
   0.25028169  0.67658311  0.73956715
   0.75129557  0.16880720  0.48337983
   0.58032658  0.33156900  0.76507292
   0.41702191  0.83421465  0.98763501
   0.24786239  0.00662539  0.25357120
   0.74553089  0.50633070  0.00768090
   0.59059420  0.67567725  0.24986520
   0.41878961  0.82624883  0.51136145
   0.24491205  0.99122025  0.75387163
   0.91320706  0.31916253  0.25006203
   0.74643307  0.50621049  0.49515342
   0.58718721  0.68516285  0.75105466
   0.91605327  0.33561757  0.74617121
   0.74232219  0.82643537  0.01124171
   0.58545851  0.99437594  0.25091647
   0.91673581  0.67360119  0.25095845
   0.75080366  0.82400463  0.50179346
   0.58330924  0.99283778  0.75025061
   0.91704536  0.67178365  0.75138219
   0.91736445  0.99522759  0.26956265
   0.91796342  0.99386711  0.73078379
   0.15875497  0.00894955  0.12244790
   0.14887951  0.99238943  0.62937411
   0.16834110  0.33112160  0.12297819
   0.50089876  0.98154767  0.12124400
   0.32209672  0.17541370  0.37446966
   0.18024491  0.33606842  0.62342692
   0.50068456  0.99859234  0.62810891
   0.33884696  0.17321181  0.87613207
   0.16582721  0.65735047  0.12754106
   0.50463031  0.33869448  0.12033728
   0.32766224  0.50101487  0.37406367
   0.17775224  0.67630275  0.62215811
   0.83710075  0.99965014  0.12601500
   0.67440940  0.16772440  0.37217768
   0.48998220  0.33577341  0.62799177
   0.34307767  0.49409150  0.88074448
   0.84940319  0.99276947  0.62802260
   0.66144335  0.17160341  0.87392007
   0.50716553  0.67360134  0.12155899
   0.33931442  0.81969766  0.37476181
   0.82796402  0.32419456  0.12636212
   0.66946522  0.51231159  0.37314608
   0.50000108  0.65261422  0.62988040
   0.33308545  0.83606398  0.87649411
   0.00422585  0.15372916  0.37441357
   0.82901101  0.32919725  0.62366831
   0.65244387  0.49848661  0.87821619
   0.99630686  0.15186464  0.87600271
   0.82287220  0.66874063  0.12723424
   0.66952947  0.82202352  0.37026423
   0.00636616  0.50961536  0.37494767
   0.82317623  0.68406679  0.62220436
   0.67039416  0.83445888  0.87582848
   0.00292740  0.50110827  0.87354515
   0.99624514  0.83866114  0.37077613
   0.99814902  0.84437713  0.87285569
   0.08037120  0.99958772  0.26885400
   0.07924645  0.98986832  0.73164751
   0.08788153  0.32369561  0.24387012
   0.41684888  0.99507627  0.25307800
   0.25147311  0.17565973  0.48217422
   0.08317910  0.34162798  0.75315324
   0.41789629  0.00046498  0.74876452
   0.25007553  0.16971295  0.01451842
   0.08473400  0.66783845  0.24852113
   0.41299764  0.33582364  0.24212742
   0.25509685  0.49879416  0.48554984
   0.08194465  0.67001543  0.75149197
   0.75560690  0.99718322  0.24887475
   0.58151161  0.16153340  0.50543616
   0.41488099  0.32922040  0.75576241
   0.25344158  0.49883002  0.01760794
   0.75427791  0.99086314  0.75329607
   0.58244013  0.17423342  0.99512572
   0.41578153  0.67076435  0.26256203
   0.25101514  0.82336138  0.51150213
   0.75043741  0.32810837  0.24860622
   0.58147129  0.50721095  0.50861990
   0.41526177  0.67806681  0.74563621
   0.25220661  0.83298836  0.98392377
   0.91501282  0.15763676  0.48843619
   0.75069866  0.32947026  0.75253929
   0.58233815  0.49891181  0.98927268
   0.91521823  0.16506728  0.00361062
   0.75336221  0.67114745  0.25046944
   0.58059701  0.82493494  0.50863472
   0.91659062  0.50151685  0.50636953
   0.75025494  0.67693935  0.75241958
   0.58099990  0.82583610  0.99200683
   0.91747760  0.50073429  0.99327156
   0.91559937  0.84381332  0.49985865
   0.90927657  0.83925268  0.00255539
   0.00171666  0.15555742  0.12555215
   0.99937751  0.15028779  0.62321868
   0.00809310  0.50076394  0.12345999
   0.32137431  0.16999636  0.12571866
   0.17561169  0.33936738  0.37042471
   0.00240062  0.50860450  0.62534607
   0.33700078  0.17689297  0.62277574
   0.17468037  0.33333023  0.87732257
   0.99618975  0.84436261  0.12488983
   0.32564450  0.49908919  0.12472892
   0.17357337  0.66007227  0.37615020
   0.00089676  0.84057599  0.62673319
   0.67868584  0.17178867  0.12442727
   0.49226026  0.33980025  0.37127399
   0.34569608  0.49892673  0.61981209
   0.16933252  0.67684666  0.87714378
   0.65937592  0.16569806  0.62492231
   0.50064920  0.33271463  0.87847398
   0.34312268  0.83695365  0.12801418
   0.14816485  0.00299972  0.36757894
   0.67001465  0.50094868  0.11970598
   0.50039092  0.67017541  0.38089755
   0.32814118  0.82557948  0.62429793
   0.16078956  0.99554746  0.87727249
   0.82736030  0.32822340  0.37267289
   0.64951938  0.51201308  0.62834930
   0.50477988  0.65549803  0.87024323
   0.82494020  0.32397694  0.87661087
   0.67633228  0.83015111  0.12222534
   0.49980609  0.98532392  0.37541017
   0.82352249  0.66974775  0.37442102
   0.67365837  0.82665630  0.62584514
   0.50167528  0.00106483  0.87386812
   0.82340404  0.68348222  0.87916306
   0.84911148  0.99374175  0.36775519
   0.83764885  0.99411461  0.87684493
   0.99535175  0.08403928  0.23779112
   0.99895785  0.08181494  0.76649392
   0.00985786  0.41480094  0.24827434
   0.32746452  0.08403868  0.25065408
   0.17464793  0.25039003  0.48620861
   0.00189212  0.41501476  0.74940836
   0.34007483  0.08624808  0.75282592
   0.17093433  0.25246785  0.01240369
   0.99321455  0.75194992  0.25025354
   0.32855017  0.41462004  0.24609826
   0.16509662  0.58545085  0.48492238
   0.99772411  0.75477133  0.75314546
   0.67597706  0.08600011  0.25357825
   0.49143039  0.24825936  0.50860842
   0.33702179  0.41247544  0.75090859
   0.16828475  0.58491154  0.01575864
   0.65876125  0.08637767  0.74804882
   0.50125893  0.24966549  0.99470132
   0.33901194  0.75107715  0.26794521
   0.16156685  0.91344679  0.50369879
   0.66694510  0.41565212  0.23589054
   0.50111149  0.59206442  0.53129734
   0.34608219  0.74957030  0.74006123
   0.15306025  0.91554004  0.98910740
   0.83159896  0.24854469  0.49685808
   0.66055807  0.41592489  0.76300981
   0.50607643  0.58916428  0.96828517
   0.83123634  0.24979028  0.99492483
   0.66503427  0.74692196  0.25813721
   0.49945116  0.91569795  0.48478091
   0.83088391  0.58574440  0.49649481
   0.65490163  0.74762008  0.74771757
   0.50275747  0.91735103  0.01753750
   0.82515349  0.58808410  0.00688297
   0.84012439  0.90707055  0.49660333
   0.84480744  0.91417793  0.00440466
