       N       E                     dE             d eps       ncg     rms          rms(c)
DAV:   1     0.145131565295E+05    0.14513E+05   -0.27030E+05138336   0.255E+03
DAV:   2     0.273363675364E+04   -0.11780E+05   -0.11003E+05137760   0.825E+02
DAV:   3    -0.195457093150E+03   -0.29291E+04   -0.26718E+04167936   0.427E+02
DAV:   4    -0.656352094650E+03   -0.46090E+03   -0.43812E+03233112   0.236E+02
DAV:   5    -0.688869164070E+03   -0.32517E+02   -0.31320E+02231584   0.747E+01
DAV:   6    -0.691249896622E+03   -0.23807E+01   -0.23203E+01238104   0.170E+01
DAV:   7    -0.691430149107E+03   -0.18025E+00   -0.17772E+00234080   0.468E+00
DAV:   8    -0.691448954612E+03   -0.18806E-01   -0.18660E-01253248   0.138E+00
DAV:   9    -0.691450636680E+03   -0.16821E-02   -0.16757E-02243608   0.410E-01
DAV:  10    -0.691450813217E+03   -0.17654E-03   -0.17627E-03255152   0.113E-01
DAV:  11    -0.691450827976E+03   -0.14758E-04   -0.14765E-04236304   0.292E-02
DAV:  12    -0.691450829526E+03   -0.15500E-05   -0.15533E-05191800   0.783E-03
DAV:  13    -0.691450829693E+03   -0.16726E-06   -0.16687E-06148528   0.271E-03
DAV:  14    -0.691450829713E+03   -0.19783E-07   -0.19860E-07139584   0.128E-03
   1 F= -.69145083E+03 E0= -.69145083E+03  d E =0.000000E+00
