POSCAR                                  
   1.00000000000000     
    10.0407485566749735   -0.0119128348523130    0.0022088613562027
    -0.0119293917901982   10.0213725125173490    0.0065704912080592
     0.0014673375555512    0.0043962878444670    6.6352138328365697
   Zr   Na   Mg   Ca   H 
     9     9     9     9   216
Direct
  0.1780242228320089  0.1702024814852833  0.2507047219256799
  0.1672474403394501  0.5033428642631161  0.2443230259248731
  0.8292016295227626  0.1713053359854154  0.2503813709863607
  0.6604189076805974  0.3397645280698125  0.4986881877246704
  0.8305461761118893  0.1679488426894750  0.7512939345436287
  0.3380763935968781  0.0018842868615147  0.9932439140327934
  0.9910669502379018  0.6668775420274795  0.5005951545886034
  0.6606524882645490  0.9966547272062392  0.9998574773461505
  0.0021809841155807  0.9944441567831975  0.0022035424898903
  0.1696512411069078  0.1682009193927440  0.7510738769413811
  0.3340949035283761  0.3348094164915698  0.4967881781046914
  0.4972667593040370  0.1695034662821396  0.7498207589497266
  0.3419485780461268  0.3410226844634324  0.9995644557362562
  0.6669582538381554  0.3385623510749977  0.0003513249501210
  0.8263555355089676  0.5029114473704637  0.2507923146839336
  0.6677570856349572  0.6677677483868454  0.5053240082493355
  0.4980801491829459  0.8317807448069341  0.7523854590551968
  0.8305319401553001  0.8267368904344277  0.2460663914908084
  0.4991441063710289  0.1689145116167581  0.2514279923771722
  0.1664351466718254  0.8309027238477195  0.2506200200406806
  0.5077204439895634  0.5023707728603088  0.2506981198573466
  0.3332721100594190  0.6596474937544849  0.9985253630349359
  0.8281783432917121  0.5039384375894896  0.7501898422072965
  0.6688382056521570  0.6613893339141803  0.9993177135461250
  0.9981688046572423  0.3408347657795734  0.0000227476857589
  0.8290913519589046  0.8266464602507960  0.7507067893312006
  0.9984867917167943  0.6631852251209256  0.0009561005033418
  0.1641691261284841  0.4972384468659283  0.7519011400162289
  0.3408702102118132  0.6664152910029584  0.4983489185988767
  0.1642219484293879  0.8334507419831219  0.7486893973976197
  0.4988612219977998  0.4989396502828027  0.7525885858931385
  0.5013382121840736  0.8285146434915530  0.2507445213475206
  0.3356374329236870  0.0011888220680029  0.5025072351864919
  0.0057207065427668  0.3353214119215180  0.5037643643759399
  0.6653990422084767  0.9923441482093217  0.5009754657929534
  0.0006501227240834  0.9992190556985330  0.5004925892555330
  0.1672134860639867  0.0869038037091433  0.9918224855794616
  0.1696218473854462  0.0838716372790096  0.5094603807753610
  0.1694079638440934  0.4089944399061808 -0.0001809923599371
  0.5004847897346593  0.0892073831863246  0.9919438823476689
  0.3464436581714102  0.2547046504765147  0.2406848387638245
  0.1755191378450615  0.4156674287249507  0.4937967369724423
  0.5027445431121840  0.0848293050791371  0.5102767372469270
  0.3361120610438218  0.2476611128377530  0.7617821727864909
  0.1751624201193843  0.7524572499611843  0.0074796402859304
  0.5075528926440956  0.4149090526006936  0.0195010185082384
  0.3351770249203794  0.5831548854950521  0.2452006704744477
  0.1720806765166650  0.7521527189119102  0.4920279902898290
  0.8350962254203845  0.0813376536746762  0.9968908154998771
  0.6547920915783887  0.2503302799359412  0.2376643262925199
  0.4966618657676293  0.4159498181046706  0.4874835395589501
  0.3339609130576578  0.5850922197927939  0.7533516978469761
  0.8305860122786427  0.0816166257878029  0.5034817840717887
  0.6580131282430519  0.2513532807901436  0.7634304971788486
  0.5078666844506738  0.7486602461819399  0.9946552845649004
  0.3285831632840131  0.9150457357942408  0.2490114567623491
  0.8345694244619279  0.4152033456028796  0.9903845214355540
  0.6706907862493853  0.5858370252441816  0.2487301968254373
  0.5077495930000825  0.7442488482632974  0.5136929274444383
  0.3369841471334856  0.9139305287616275  0.7485333955662921
  0.0055008385488753  0.2530773665826636  0.2374720869244873
  0.8328788699111883  0.4160870174538502  0.5107371712243354
  0.6699048024176203  0.5833358744202702  0.7509225642321967
  0.0083688941034918  0.2542525685609993  0.7645652407439710
  0.8259384170537185  0.7522287968149449  0.9924831250545174
  0.6721490058374914  0.9130898301362790  0.2494853591528328
  0.9955916511103076  0.5826312884354576  0.2402583183637298
  0.8222291783984055  0.7535647822542103  0.5045487090521461
  0.6653616258649747  0.9109291724915726  0.7523564354439000
  0.9917957005473409  0.5806818370427588  0.7642912514369850
  0.0020159360671317  0.9117071664945942  0.2511932837422162
  0.9883968514633146  0.9122897998407562  0.7486581917492141
  0.0854757136690755  0.1821247895517519  0.9913091258855871
  0.0860686091887275  0.1675760297118861  0.5052434103461407
  0.0804427358669966  0.4987174975025261  0.9991009456652489
  0.4222338767630890  0.1779461002759646  0.0055049594016685
  0.2609127075092846  0.3422868223796298  0.2450815970005698
  0.0825044469052241  0.5040250962989438  0.4982504212904326
  0.4184966693620781  0.1738285630734560  0.4951439888984767
  0.2510424257416722  0.3357546814719927  0.7617235123079692
  0.0845994158797297  0.8214831539032007  0.0082258087833267
  0.4161610913111568  0.5034342317376134  0.0186743801082936
  0.2518157525752193  0.6676697654828837  0.2439744430019698
  0.0825929827077498  0.8297181824050451  0.4905002374833504
  0.7453859160994741  0.1749065900005994  0.0019277521700566
  0.5818829122698563  0.3289312643915626  0.2404146730863670
  0.4137161982416317  0.4936787112014854  0.4812120285952246
  0.2484491248218907  0.6642672063734438  0.7522161028805376
  0.7460633286407896  0.1657261067765521  0.5000851614126914
  0.5816273119505647  0.3307960591700371  0.7654162976614105
  0.4153063412364214  0.8239768444756039  0.9965339962204672
  0.2510611912190593  0.9948650107744752  0.2458367550557616
  0.7511529657933611  0.5081774901330384  0.0068383290711110
  0.5838643772333952  0.6620558547355877  0.2560117074065123
  0.4184030497899516  0.8361422861816558  0.5075664152828354
  0.2473957476205626  0.0048928584092848  0.7522438438844954
  0.9160681276186061  0.3412916238293253  0.2477085621667291
  0.7522733826163820  0.5113244666087263  0.4965571694061835
  0.5848035415754405  0.6703042786678948  0.7566199704852190
  0.9157258691653336  0.3376560328390996  0.7525071926465041
  0.7511533598283799  0.8188263053624094  0.9954348122083724
  0.5798838596940884  0.0064951858197394  0.2536841945667622
  0.9083021000621265  0.6639946748852111  0.2234350346404212
  0.7510042321150583  0.8235416461139201  0.5028242812518691
  0.5815543752705374  0.9970973137902691  0.7491277450539625
  0.9120536408900134  0.6621513961043585  0.7699792253123163
  0.9156690896420665  0.9937775633217124  0.2488337057437741
  0.9148725063627531  0.9979201972067296  0.7545170620497101
  0.1687540891695352  0.9917539299692818  0.1301884483724750
  0.1681323309883750  0.0093532197053492  0.6208996654911129
  0.1713135285136584  0.3369250597675912  0.1192981977760552
  0.4998434718244202  0.0070281147297882  0.1299881793418163
  0.3465827140051769  0.1703482345136085  0.3787670949252508
  0.1766435015158483  0.3243203259825101  0.6243043714641351
  0.5005114766777086  0.0028261493156967  0.6219327427671639
  0.3334320707541801  0.1903949487906801  0.8661618350616219
  0.1617445036668528  0.6717010057122613  0.1225502074460798
  0.5065585531873472  0.3435937032219448  0.1238469692594888
  0.3515234082157336  0.5005931313023867  0.3733097243446313
  0.1695937834459930  0.6653080420907466  0.6252407133649457
  0.8311984004373385  0.9913493100746278  0.1297001948222995
  0.6591199445053928  0.1644418985965498  0.3786228099074347
  0.4831208132478955  0.3268181569658139  0.6304710880130646
  0.3318936876926769  0.5011215609847439  0.8749602342170519
  0.8324870008052440  0.9818115091376975  0.6204840241429821
  0.6586250158745615  0.1805124596016300  0.8735754962139984
  0.5044237582989464  0.6564088531156955  0.1245443512950304
  0.3290940415954913  0.8328992264794761  0.3709239876363349
  0.8267489323336864  0.3433283515100481  0.1268863871390944
  0.6654509930123286  0.5100378358070518  0.3781891058451913
  0.5085316689904640  0.6761168285188108  0.6275814620067073
  0.3348789203922038  0.8143467588324850  0.8732380602247621
  0.0002875383999012  0.1675858318819091  0.3762719564774886
  0.8364728813813292  0.3435809806556546  0.6234606608548444
  0.6674157071440021  0.4966303733844373  0.8733444117177606
  0.0045580475493907  0.1742108742181041  0.8777783763335141
  0.8397770599703736  0.6634827842575025  0.1243887683754398
  0.6717584994751605  0.8234632728766320  0.3740577181755976
  0.9789780033725181  0.4994480202877342  0.3746218494154172
  0.8268355037921055  0.6701811697282052  0.6288444341676589
  0.6635126049961286  0.8251127072216128  0.8739093830965288
  0.9918912341780286  0.5046063474268153  0.8741014641443754
  0.9914562463566279  0.8321199713439377  0.3705970373594144
  0.9942392076980434  0.8177791672170336  0.8746799827354542
  0.0851222511367494  0.0011287256781571  0.2508656438793918
  0.0825510773855689  0.0065988882406423  0.7524878794732456
  0.0807682423353881  0.3289901629548563  0.2373541629129834
  0.4173469689304811  0.0030490328807123  0.2483257634092997
  0.2556007990702810  0.1733263332132865  0.5144937990025257
  0.0807509885109094  0.3266687951007787  0.7690356401193363
  0.4188667973389772  0.0045709724312521  0.7487630208175516
  0.2529526470487519  0.1781194624843034  0.9885089505584690
  0.0819266345975288  0.6730136292769712  0.2349774385674509
  0.4195843953901716  0.3382374144476018  0.2520999708595547
  0.2516328729231146  0.4986320090842112  0.5004804405733787
  0.0824693431740139  0.6653840513666389  0.7682517457408115
  0.7502368792501970  0.9902034635105773  0.2474917274300466
  0.5809950326567382  0.1641162373264591  0.5016469740840963
  0.4173857144286533  0.3314621673205788  0.7340209785347317
  0.2515596159614772  0.4985400715031512  0.9972606566144705
  0.7498938857623078  0.9863261264636179  0.7516398919110775
  0.5818216914589609  0.1739487086616736  0.0020728644537724
  0.4198983579138941  0.6583689716808289  0.2310214686550391
  0.2487733023823153  0.8279327809727637  0.4934655176427503
  0.7487761425542655  0.3452437590872894  0.2351433137553307
  0.5817305529358092  0.5144627846255108  0.4965600357519095
  0.4185550677060962  0.6647541768937838  0.7647378663780303
  0.2490285733177015  0.8276819632689515  0.0009657963327479
  0.9216607140417045  0.1700219951468768  0.4970123151645162
  0.7502282795959212  0.3413698067279592  0.7587616985660965
  0.5831930952859102  0.5045159784347918  0.0034457934478441
  0.9219113269554120  0.1743936838974871  0.0027624826624837
  0.7491773972112901  0.6609957092501711  0.2572864448568960
  0.5868256074938462  0.8254731497626162  0.5167721806887454
  0.9165587412831587  0.4975027520892038  0.4815048265918404
  0.7499481178699147  0.6684305341066580  0.7527497245425296
  0.5785156104072566  0.8115849032718809  0.9887003488718981
  0.9154721622997019  0.5045317785430355  0.0180054989696535
  0.9159662841797092  0.8327047366015664  0.4806706717075271
  0.9138024465793537  0.8217555634156937  0.0079370469512691
  0.9986749250298584  0.1726758647388986  0.1206677232787203
  0.0086521869242620  0.1682854550342873  0.6278028351805660
  0.9754063957044133  0.5081549996783492  0.1198789950062617
  0.3439560033475486  0.1796844852316082  0.1201917837257340
  0.1734184790245956  0.3349901535872837  0.3768335232447591
  0.9901230981584503  0.5016207893556363  0.6289064265711871
  0.3302831915042339  0.1737620050196838  0.6237416325564442
  0.1817970704194813  0.3299466729253720  0.8713489341253181
  0.9931368881562394  0.8198370451746908  0.1248122950949118
  0.3531812601923973  0.5021181760748613  0.1236282858779980
  0.1686197561685339  0.6735626888332803  0.3741483658298285
  0.9874587022018045  0.8329828605145126  0.6283701215869006
  0.6594395553737231  0.1787400302020715  0.1224798821572887
  0.4942763684645367  0.3358130092299830  0.3737136322737000
  0.3321545485909012  0.4952324553822777  0.6216568910039395
  0.1610226391243934  0.6664209137962063  0.8725741416657810
  0.6574927286892542  0.1644308908345163  0.6268698048983898
  0.5060388080725552  0.3286067656210280  0.8786113919052965
  0.3318322452076261  0.8190856654057657  0.1238315686911286
  0.1681126593182666  0.9946164579084472  0.3759320454548679
  0.6671155449905481  0.5007096516803685  0.1269752185498421
  0.5140337875060159  0.6624849161156212  0.3731867028223263
  0.3395464626022018  0.8329727651565629  0.6263784533984478
  0.1705797902338738  0.0050796858525204  0.8686522980193794
  0.8369029618900712  0.3409572021960570  0.3724522482768653
  0.6653269352636840  0.5079217581689205  0.6258618244491511
  0.4899675254873954  0.6630364787313076  0.8756093914687491
  0.8312403886538563  0.3493020267793853  0.8815145000005183
  0.6712621547484822  0.8164501622929671  0.1261475004152171
  0.5015540834928008  0.0018354521931903  0.3750569792618856
  0.8228935668056965  0.6685112846295699  0.3705058314352837
  0.6585898672714727  0.8262568107745254  0.6267313665617839
  0.4996463932291852  0.0042556383747179  0.8643958169450627
  0.8417837724712603  0.6568756581520530  0.8786539925524360
  0.8330446363126435  0.9892248958606568  0.3731967706352159
  0.8318517066794284  0.9872749579077286  0.8731745727195838
  0.0049415023740129  0.0833740115313120  0.2484503999203114
  0.0046675878546408  0.0843838012274669  0.7543645913699917
  0.9966983189851102  0.4159173129094242  0.2410161513687905
  0.3412999258360959  0.0852011927470411  0.2528244987124768
  0.1758502440844232  0.2537988835647739  0.5154216557415345
  0.9843832146987174  0.4167102704693788  0.7615009764230817
  0.3357572195319325  0.0862639057743497  0.7468936026175009
  0.1725515193699698  0.2497382122396784  0.9906683512337479
  0.9999333067169616  0.7498834838900761  0.2398987940802885
  0.3383978830532700  0.4129602278330081  0.2458568129757288
  0.1711409275464799  0.5846100332365122  0.4992583705715881
  0.9906039409628022  0.7502043790052676  0.7669770482297489
  0.6597584436774908  0.0844338988831672  0.2547807711612269
  0.4940832783349131  0.2518306602214480  0.4967177501471842
  0.3305933955706619  0.4113852981823641  0.7479896161576094
  0.1641644155231781  0.5867480235860536  0.9986423194812976
  0.6591248388314029  0.0845569254681710  0.7445807469755468
  0.4995493668537115  0.2522442149697033  0.0014432449635802
  0.3281623812481624  0.7525504596851823  0.2305013135319591
  0.1669722765557739  0.9160635930579235  0.4835409393313877
  0.6661485212652577  0.4169699793249393  0.2372990003693859
  0.5093249072771717  0.5823664617777973  0.4976207890943031
  0.3332618079488477  0.7518798584059114  0.7633253013501746
  0.1711209645917008  0.9123084109208982  0.0118421926227547
  0.8343939548159227  0.2539268057194103  0.5070221994512770
  0.6719740161301448  0.4165384953223407  0.7648667762343396
  0.5151506498571906  0.5857345140021116  0.0013343022948617
  0.8370557257565352  0.2534449985468147  0.9950562049659476
  0.6694241674752678  0.7505335002302738  0.2395169405451169
  0.4973555131725833  0.9121578072395271  0.5071881290818476
  0.8220869337400625  0.5799852193832534  0.5080501104843513
  0.6650116977709196  0.7473396642870075  0.7626064780812574
  0.4972366280742934  0.9092168164188613  0.9932487753556603
  0.8182524065499214  0.5771617022411316  0.9961164473258363
  0.8346804914317036  0.9167250742079954  0.5003602515544689
  0.8301055267680829  0.9130147511948284  0.9954448296977415
 
  0.00000000E+00  0.00000000E+00  0.00000000E+00
  0.00000000E+00  0.00000000E+00  0.00000000E+00
  0.00000000E+00  0.00000000E+00  0.00000000E+00
  0.00000000E+00  0.00000000E+00  0.00000000E+00
  0.00000000E+00  0.00000000E+00  0.00000000E+00
  0.00000000E+00  0.00000000E+00  0.00000000E+00
  0.00000000E+00  0.00000000E+00  0.00000000E+00
  0.00000000E+00  0.00000000E+00  0.00000000E+00
  0.00000000E+00  0.00000000E+00  0.00000000E+00
  0.00000000E+00  0.00000000E+00  0.00000000E+00
  0.00000000E+00  0.00000000E+00  0.00000000E+00
  0.00000000E+00  0.00000000E+00  0.00000000E+00
  0.00000000E+00  0.00000000E+00  0.00000000E+00
  0.00000000E+00  0.00000000E+00  0.00000000E+00
  0.00000000E+00  0.00000000E+00  0.00000000E+00
  0.00000000E+00  0.00000000E+00  0.00000000E+00
  0.00000000E+00  0.00000000E+00  0.00000000E+00
  0.00000000E+00  0.00000000E+00  0.00000000E+00
  0.00000000E+00  0.00000000E+00  0.00000000E+00
  0.00000000E+00  0.00000000E+00  0.00000000E+00
  0.00000000E+00  0.00000000E+00  0.00000000E+00
  0.00000000E+00  0.00000000E+00  0.00000000E+00
  0.00000000E+00  0.00000000E+00  0.00000000E+00
  0.00000000E+00  0.00000000E+00  0.00000000E+00
  0.00000000E+00  0.00000000E+00  0.00000000E+00
  0.00000000E+00  0.00000000E+00  0.00000000E+00
  0.00000000E+00  0.00000000E+00  0.00000000E+00
  0.00000000E+00  0.00000000E+00  0.00000000E+00
  0.00000000E+00  0.00000000E+00  0.00000000E+00
  0.00000000E+00  0.00000000E+00  0.00000000E+00
  0.00000000E+00  0.00000000E+00  0.00000000E+00
  0.00000000E+00  0.00000000E+00  0.00000000E+00
  0.00000000E+00  0.00000000E+00  0.00000000E+00
  0.00000000E+00  0.00000000E+00  0.00000000E+00
  0.00000000E+00  0.00000000E+00  0.00000000E+00
  0.00000000E+00  0.00000000E+00  0.00000000E+00
  0.00000000E+00  0.00000000E+00  0.00000000E+00
  0.00000000E+00  0.00000000E+00  0.00000000E+00
  0.00000000E+00  0.00000000E+00  0.00000000E+00
  0.00000000E+00  0.00000000E+00  0.00000000E+00
  0.00000000E+00  0.00000000E+00  0.00000000E+00
  0.00000000E+00  0.00000000E+00  0.00000000E+00
  0.00000000E+00  0.00000000E+00  0.00000000E+00
  0.00000000E+00  0.00000000E+00  0.00000000E+00
  0.00000000E+00  0.00000000E+00  0.00000000E+00
  0.00000000E+00  0.00000000E+00  0.00000000E+00
  0.00000000E+00  0.00000000E+00  0.00000000E+00
  0.00000000E+00  0.00000000E+00  0.00000000E+00
  0.00000000E+00  0.00000000E+00  0.00000000E+00
  0.00000000E+00  0.00000000E+00  0.00000000E+00
  0.00000000E+00  0.00000000E+00  0.00000000E+00
  0.00000000E+00  0.00000000E+00  0.00000000E+00
  0.00000000E+00  0.00000000E+00  0.00000000E+00
  0.00000000E+00  0.00000000E+00  0.00000000E+00
  0.00000000E+00  0.00000000E+00  0.00000000E+00
  0.00000000E+00  0.00000000E+00  0.00000000E+00
  0.00000000E+00  0.00000000E+00  0.00000000E+00
  0.00000000E+00  0.00000000E+00  0.00000000E+00
  0.00000000E+00  0.00000000E+00  0.00000000E+00
  0.00000000E+00  0.00000000E+00  0.00000000E+00
  0.00000000E+00  0.00000000E+00  0.00000000E+00
  0.00000000E+00  0.00000000E+00  0.00000000E+00
  0.00000000E+00  0.00000000E+00  0.00000000E+00
  0.00000000E+00  0.00000000E+00  0.00000000E+00
  0.00000000E+00  0.00000000E+00  0.00000000E+00
  0.00000000E+00  0.00000000E+00  0.00000000E+00
  0.00000000E+00  0.00000000E+00  0.00000000E+00
  0.00000000E+00  0.00000000E+00  0.00000000E+00
  0.00000000E+00  0.00000000E+00  0.00000000E+00
  0.00000000E+00  0.00000000E+00  0.00000000E+00
  0.00000000E+00  0.00000000E+00  0.00000000E+00
  0.00000000E+00  0.00000000E+00  0.00000000E+00
  0.00000000E+00  0.00000000E+00  0.00000000E+00
  0.00000000E+00  0.00000000E+00  0.00000000E+00
  0.00000000E+00  0.00000000E+00  0.00000000E+00
  0.00000000E+00  0.00000000E+00  0.00000000E+00
  0.00000000E+00  0.00000000E+00  0.00000000E+00
  0.00000000E+00  0.00000000E+00  0.00000000E+00
  0.00000000E+00  0.00000000E+00  0.00000000E+00
  0.00000000E+00  0.00000000E+00  0.00000000E+00
  0.00000000E+00  0.00000000E+00  0.00000000E+00
  0.00000000E+00  0.00000000E+00  0.00000000E+00
  0.00000000E+00  0.00000000E+00  0.00000000E+00
  0.00000000E+00  0.00000000E+00  0.00000000E+00
  0.00000000E+00  0.00000000E+00  0.00000000E+00
  0.00000000E+00  0.00000000E+00  0.00000000E+00
  0.00000000E+00  0.00000000E+00  0.00000000E+00
  0.00000000E+00  0.00000000E+00  0.00000000E+00
  0.00000000E+00  0.00000000E+00  0.00000000E+00
  0.00000000E+00  0.00000000E+00  0.00000000E+00
  0.00000000E+00  0.00000000E+00  0.00000000E+00
  0.00000000E+00  0.00000000E+00  0.00000000E+00
  0.00000000E+00  0.00000000E+00  0.00000000E+00
  0.00000000E+00  0.00000000E+00  0.00000000E+00
  0.00000000E+00  0.00000000E+00  0.00000000E+00
  0.00000000E+00  0.00000000E+00  0.00000000E+00
  0.00000000E+00  0.00000000E+00  0.00000000E+00
  0.00000000E+00  0.00000000E+00  0.00000000E+00
  0.00000000E+00  0.00000000E+00  0.00000000E+00
  0.00000000E+00  0.00000000E+00  0.00000000E+00
  0.00000000E+00  0.00000000E+00  0.00000000E+00
  0.00000000E+00  0.00000000E+00  0.00000000E+00
  0.00000000E+00  0.00000000E+00  0.00000000E+00
  0.00000000E+00  0.00000000E+00  0.00000000E+00
  0.00000000E+00  0.00000000E+00  0.00000000E+00
  0.00000000E+00  0.00000000E+00  0.00000000E+00
  0.00000000E+00  0.00000000E+00  0.00000000E+00
  0.00000000E+00  0.00000000E+00  0.00000000E+00
  0.00000000E+00  0.00000000E+00  0.00000000E+00
  0.00000000E+00  0.00000000E+00  0.00000000E+00
  0.00000000E+00  0.00000000E+00  0.00000000E+00
  0.00000000E+00  0.00000000E+00  0.00000000E+00
  0.00000000E+00  0.00000000E+00  0.00000000E+00
  0.00000000E+00  0.00000000E+00  0.00000000E+00
  0.00000000E+00  0.00000000E+00  0.00000000E+00
  0.00000000E+00  0.00000000E+00  0.00000000E+00
  0.00000000E+00  0.00000000E+00  0.00000000E+00
  0.00000000E+00  0.00000000E+00  0.00000000E+00
  0.00000000E+00  0.00000000E+00  0.00000000E+00
  0.00000000E+00  0.00000000E+00  0.00000000E+00
  0.00000000E+00  0.00000000E+00  0.00000000E+00
  0.00000000E+00  0.00000000E+00  0.00000000E+00
  0.00000000E+00  0.00000000E+00  0.00000000E+00
  0.00000000E+00  0.00000000E+00  0.00000000E+00
  0.00000000E+00  0.00000000E+00  0.00000000E+00
  0.00000000E+00  0.00000000E+00  0.00000000E+00
  0.00000000E+00  0.00000000E+00  0.00000000E+00
  0.00000000E+00  0.00000000E+00  0.00000000E+00
  0.00000000E+00  0.00000000E+00  0.00000000E+00
  0.00000000E+00  0.00000000E+00  0.00000000E+00
  0.00000000E+00  0.00000000E+00  0.00000000E+00
  0.00000000E+00  0.00000000E+00  0.00000000E+00
  0.00000000E+00  0.00000000E+00  0.00000000E+00
  0.00000000E+00  0.00000000E+00  0.00000000E+00
  0.00000000E+00  0.00000000E+00  0.00000000E+00
  0.00000000E+00  0.00000000E+00  0.00000000E+00
  0.00000000E+00  0.00000000E+00  0.00000000E+00
  0.00000000E+00  0.00000000E+00  0.00000000E+00
  0.00000000E+00  0.00000000E+00  0.00000000E+00
  0.00000000E+00  0.00000000E+00  0.00000000E+00
  0.00000000E+00  0.00000000E+00  0.00000000E+00
  0.00000000E+00  0.00000000E+00  0.00000000E+00
  0.00000000E+00  0.00000000E+00  0.00000000E+00
  0.00000000E+00  0.00000000E+00  0.00000000E+00
  0.00000000E+00  0.00000000E+00  0.00000000E+00
  0.00000000E+00  0.00000000E+00  0.00000000E+00
  0.00000000E+00  0.00000000E+00  0.00000000E+00
  0.00000000E+00  0.00000000E+00  0.00000000E+00
  0.00000000E+00  0.00000000E+00  0.00000000E+00
  0.00000000E+00  0.00000000E+00  0.00000000E+00
  0.00000000E+00  0.00000000E+00  0.00000000E+00
  0.00000000E+00  0.00000000E+00  0.00000000E+00
  0.00000000E+00  0.00000000E+00  0.00000000E+00
  0.00000000E+00  0.00000000E+00  0.00000000E+00
  0.00000000E+00  0.00000000E+00  0.00000000E+00
  0.00000000E+00  0.00000000E+00  0.00000000E+00
  0.00000000E+00  0.00000000E+00  0.00000000E+00
  0.00000000E+00  0.00000000E+00  0.00000000E+00
  0.00000000E+00  0.00000000E+00  0.00000000E+00
  0.00000000E+00  0.00000000E+00  0.00000000E+00
  0.00000000E+00  0.00000000E+00  0.00000000E+00
  0.00000000E+00  0.00000000E+00  0.00000000E+00
  0.00000000E+00  0.00000000E+00  0.00000000E+00
  0.00000000E+00  0.00000000E+00  0.00000000E+00
  0.00000000E+00  0.00000000E+00  0.00000000E+00
  0.00000000E+00  0.00000000E+00  0.00000000E+00
  0.00000000E+00  0.00000000E+00  0.00000000E+00
  0.00000000E+00  0.00000000E+00  0.00000000E+00
  0.00000000E+00  0.00000000E+00  0.00000000E+00
  0.00000000E+00  0.00000000E+00  0.00000000E+00
  0.00000000E+00  0.00000000E+00  0.00000000E+00
  0.00000000E+00  0.00000000E+00  0.00000000E+00
  0.00000000E+00  0.00000000E+00  0.00000000E+00
  0.00000000E+00  0.00000000E+00  0.00000000E+00
  0.00000000E+00  0.00000000E+00  0.00000000E+00
  0.00000000E+00  0.00000000E+00  0.00000000E+00
  0.00000000E+00  0.00000000E+00  0.00000000E+00
  0.00000000E+00  0.00000000E+00  0.00000000E+00
  0.00000000E+00  0.00000000E+00  0.00000000E+00
  0.00000000E+00  0.00000000E+00  0.00000000E+00
  0.00000000E+00  0.00000000E+00  0.00000000E+00
  0.00000000E+00  0.00000000E+00  0.00000000E+00
  0.00000000E+00  0.00000000E+00  0.00000000E+00
  0.00000000E+00  0.00000000E+00  0.00000000E+00
  0.00000000E+00  0.00000000E+00  0.00000000E+00
  0.00000000E+00  0.00000000E+00  0.00000000E+00
  0.00000000E+00  0.00000000E+00  0.00000000E+00
  0.00000000E+00  0.00000000E+00  0.00000000E+00
  0.00000000E+00  0.00000000E+00  0.00000000E+00
  0.00000000E+00  0.00000000E+00  0.00000000E+00
  0.00000000E+00  0.00000000E+00  0.00000000E+00
  0.00000000E+00  0.00000000E+00  0.00000000E+00
  0.00000000E+00  0.00000000E+00  0.00000000E+00
  0.00000000E+00  0.00000000E+00  0.00000000E+00
  0.00000000E+00  0.00000000E+00  0.00000000E+00
  0.00000000E+00  0.00000000E+00  0.00000000E+00
  0.00000000E+00  0.00000000E+00  0.00000000E+00
  0.00000000E+00  0.00000000E+00  0.00000000E+00
  0.00000000E+00  0.00000000E+00  0.00000000E+00
  0.00000000E+00  0.00000000E+00  0.00000000E+00
  0.00000000E+00  0.00000000E+00  0.00000000E+00
  0.00000000E+00  0.00000000E+00  0.00000000E+00
  0.00000000E+00  0.00000000E+00  0.00000000E+00
  0.00000000E+00  0.00000000E+00  0.00000000E+00
  0.00000000E+00  0.00000000E+00  0.00000000E+00
  0.00000000E+00  0.00000000E+00  0.00000000E+00
  0.00000000E+00  0.00000000E+00  0.00000000E+00
  0.00000000E+00  0.00000000E+00  0.00000000E+00
  0.00000000E+00  0.00000000E+00  0.00000000E+00
  0.00000000E+00  0.00000000E+00  0.00000000E+00
  0.00000000E+00  0.00000000E+00  0.00000000E+00
  0.00000000E+00  0.00000000E+00  0.00000000E+00
  0.00000000E+00  0.00000000E+00  0.00000000E+00
  0.00000000E+00  0.00000000E+00  0.00000000E+00
  0.00000000E+00  0.00000000E+00  0.00000000E+00
  0.00000000E+00  0.00000000E+00  0.00000000E+00
  0.00000000E+00  0.00000000E+00  0.00000000E+00
  0.00000000E+00  0.00000000E+00  0.00000000E+00
  0.00000000E+00  0.00000000E+00  0.00000000E+00
  0.00000000E+00  0.00000000E+00  0.00000000E+00
  0.00000000E+00  0.00000000E+00  0.00000000E+00
  0.00000000E+00  0.00000000E+00  0.00000000E+00
  0.00000000E+00  0.00000000E+00  0.00000000E+00
  0.00000000E+00  0.00000000E+00  0.00000000E+00
  0.00000000E+00  0.00000000E+00  0.00000000E+00
  0.00000000E+00  0.00000000E+00  0.00000000E+00
  0.00000000E+00  0.00000000E+00  0.00000000E+00
  0.00000000E+00  0.00000000E+00  0.00000000E+00
  0.00000000E+00  0.00000000E+00  0.00000000E+00
  0.00000000E+00  0.00000000E+00  0.00000000E+00
  0.00000000E+00  0.00000000E+00  0.00000000E+00
  0.00000000E+00  0.00000000E+00  0.00000000E+00
  0.00000000E+00  0.00000000E+00  0.00000000E+00
  0.00000000E+00  0.00000000E+00  0.00000000E+00
  0.00000000E+00  0.00000000E+00  0.00000000E+00
  0.00000000E+00  0.00000000E+00  0.00000000E+00
  0.00000000E+00  0.00000000E+00  0.00000000E+00
  0.00000000E+00  0.00000000E+00  0.00000000E+00
  0.00000000E+00  0.00000000E+00  0.00000000E+00
  0.00000000E+00  0.00000000E+00  0.00000000E+00
  0.00000000E+00  0.00000000E+00  0.00000000E+00
  0.00000000E+00  0.00000000E+00  0.00000000E+00
  0.00000000E+00  0.00000000E+00  0.00000000E+00
  0.00000000E+00  0.00000000E+00  0.00000000E+00
  0.00000000E+00  0.00000000E+00  0.00000000E+00
  0.00000000E+00  0.00000000E+00  0.00000000E+00
  0.00000000E+00  0.00000000E+00  0.00000000E+00
  0.00000000E+00  0.00000000E+00  0.00000000E+00
  0.00000000E+00  0.00000000E+00  0.00000000E+00
  0.00000000E+00  0.00000000E+00  0.00000000E+00
  0.00000000E+00  0.00000000E+00  0.00000000E+00
  0.00000000E+00  0.00000000E+00  0.00000000E+00
