generated by phonopy                    
   1.00000000000000     
     0.0000000000000000    3.3468962897951018    3.3468962897951906
     3.3468962897951395    0.0000000000000000    3.3468962897951906
     3.3468962897951395    3.3468962897951018    0.0000000000000000
   Na   Y    Sc   Ce   H 
     1     1     1     1    24
Direct
  0.2500000000000000  0.2500000000000000  0.2500000000000000
  0.7500000000000000  0.7500000000000000  0.7500000000000000
  0.0000000000000000  0.0000000000000000  0.0000000000000000
  0.5000000000000000  0.5000000000000000  0.5000000000000000
  0.1294280080032024  0.8930330825693531  0.6212650860122579
  0.8930330825693531  0.1294280080032024  0.3562738234151865
  0.6212650860122579  0.3562738234151865  0.1294280080032024
  0.3562738234151865  0.6212650860122579  0.8930330825693531
  0.6212650860122579  0.1294280080032024  0.8930330825693531
  0.3562738234151865  0.8930330825693531  0.1294280080032024
  0.1294280080032024  0.6212650860122579  0.3562738234151865
  0.8930330825693531  0.3562738234151865  0.6212650860122579
  0.8930330825693531  0.6212650860122579  0.1294280080032024
  0.1294280080032024  0.3562738234151865  0.8930330825693531
  0.3562738234151865  0.1294280080032024  0.6212650860122579
  0.6212650860122579  0.8930330825693531  0.3562738234151865
  0.1294280080032024  0.3562738234151865  0.6212650860122579
  0.3562738234151865  0.1294280080032024  0.8930330825693531
  0.6212650860122579  0.8930330825693531  0.1294280080032024
  0.8930330825693531  0.6212650860122579  0.3562738234151865
  0.6212650860122579  0.1294280080032024  0.3562738234151865
  0.8930330825693531  0.3562738234151865  0.1294280080032024
  0.1294280080032024  0.6212650860122579  0.8930330825693531
  0.3562738234151865  0.8930330825693531  0.6212650860122579
  0.3562738234151865  0.6212650860122579  0.1294280080032024
  0.1294280080032024  0.8930330825693531  0.3562738234151865
  0.8930330825693531  0.1294280080032024  0.6212650860122579
  0.6212650860122579  0.3562738234151865  0.8930330825693531
 
  0.00000000E+00  0.00000000E+00  0.00000000E+00
  0.00000000E+00  0.00000000E+00  0.00000000E+00
  0.00000000E+00  0.00000000E+00  0.00000000E+00
  0.00000000E+00  0.00000000E+00  0.00000000E+00
  0.00000000E+00  0.00000000E+00  0.00000000E+00
  0.00000000E+00  0.00000000E+00  0.00000000E+00
  0.00000000E+00  0.00000000E+00  0.00000000E+00
  0.00000000E+00  0.00000000E+00  0.00000000E+00
  0.00000000E+00  0.00000000E+00  0.00000000E+00
  0.00000000E+00  0.00000000E+00  0.00000000E+00
  0.00000000E+00  0.00000000E+00  0.00000000E+00
  0.00000000E+00  0.00000000E+00  0.00000000E+00
  0.00000000E+00  0.00000000E+00  0.00000000E+00
  0.00000000E+00  0.00000000E+00  0.00000000E+00
  0.00000000E+00  0.00000000E+00  0.00000000E+00
  0.00000000E+00  0.00000000E+00  0.00000000E+00
  0.00000000E+00  0.00000000E+00  0.00000000E+00
  0.00000000E+00  0.00000000E+00  0.00000000E+00
  0.00000000E+00  0.00000000E+00  0.00000000E+00
  0.00000000E+00  0.00000000E+00  0.00000000E+00
  0.00000000E+00  0.00000000E+00  0.00000000E+00
  0.00000000E+00  0.00000000E+00  0.00000000E+00
  0.00000000E+00  0.00000000E+00  0.00000000E+00
  0.00000000E+00  0.00000000E+00  0.00000000E+00
  0.00000000E+00  0.00000000E+00  0.00000000E+00
  0.00000000E+00  0.00000000E+00  0.00000000E+00
  0.00000000E+00  0.00000000E+00  0.00000000E+00
  0.00000000E+00  0.00000000E+00  0.00000000E+00
