generated by phonopy                    
   1.00000000000000     
     0.0000000000000000    3.2440047597442208    3.2440047597442776
     3.2440047597442412    0.0000000000000000    3.2440047597442776
     3.2440047597442412    3.2440047597442208    0.0000000000000000
   Na   Sc   Mg   Hf   H 
     1     1     1     1    24
Direct
  0.2500000000000000  0.2500000000000000  0.2500000000000000
  0.7500000000000000  0.7500000000000000  0.7500000000000000
  0.0000000000000000  0.0000000000000000  0.0000000000000000
  0.5000000000000000  0.5000000000000000  0.5000000000000000
  0.1176488195275880  0.8943328078027974  0.6257872516061269
  0.8943328078027974  0.1176488195275880  0.3622311210634876
  0.6257872516061269  0.3622311210634876  0.1176488195275880
  0.3622311210634876  0.6257872516061269  0.8943328078027974
  0.6257872516061269  0.1176488195275880  0.8943328078027974
  0.3622311210634876  0.8943328078027974  0.1176488195275880
  0.1176488195275880  0.6257872516061269  0.3622311210634876
  0.8943328078027974  0.3622311210634876  0.6257872516061269
  0.8943328078027974  0.6257872516061269  0.1176488195275880
  0.1176488195275880  0.3622311210634876  0.8943328078027974
  0.3622311210634876  0.1176488195275880  0.6257872516061269
  0.6257872516061269  0.8943328078027974  0.3622311210634876
  0.1176488195275880  0.3622311210634876  0.6257872516061269
  0.3622311210634876  0.1176488195275880  0.8943328078027974
  0.6257872516061269  0.8943328078027974  0.1176488195275880
  0.8943328078027974  0.6257872516061269  0.3622311210634876
  0.6257872516061269  0.1176488195275880  0.3622311210634876
  0.8943328078027974  0.3622311210634876  0.1176488195275880
  0.1176488195275880  0.6257872516061269  0.8943328078027974
  0.3622311210634876  0.8943328078027974  0.6257872516061269
  0.3622311210634876  0.6257872516061269  0.1176488195275880
  0.1176488195275880  0.8943328078027974  0.3622311210634876
  0.8943328078027974  0.1176488195275880  0.6257872516061269
  0.6257872516061269  0.3622311210634876  0.8943328078027974
 
  0.00000000E+00  0.00000000E+00  0.00000000E+00
  0.00000000E+00  0.00000000E+00  0.00000000E+00
  0.00000000E+00  0.00000000E+00  0.00000000E+00
  0.00000000E+00  0.00000000E+00  0.00000000E+00
  0.00000000E+00  0.00000000E+00  0.00000000E+00
  0.00000000E+00  0.00000000E+00  0.00000000E+00
  0.00000000E+00  0.00000000E+00  0.00000000E+00
  0.00000000E+00  0.00000000E+00  0.00000000E+00
  0.00000000E+00  0.00000000E+00  0.00000000E+00
  0.00000000E+00  0.00000000E+00  0.00000000E+00
  0.00000000E+00  0.00000000E+00  0.00000000E+00
  0.00000000E+00  0.00000000E+00  0.00000000E+00
  0.00000000E+00  0.00000000E+00  0.00000000E+00
  0.00000000E+00  0.00000000E+00  0.00000000E+00
  0.00000000E+00  0.00000000E+00  0.00000000E+00
  0.00000000E+00  0.00000000E+00  0.00000000E+00
  0.00000000E+00  0.00000000E+00  0.00000000E+00
  0.00000000E+00  0.00000000E+00  0.00000000E+00
  0.00000000E+00  0.00000000E+00  0.00000000E+00
  0.00000000E+00  0.00000000E+00  0.00000000E+00
  0.00000000E+00  0.00000000E+00  0.00000000E+00
  0.00000000E+00  0.00000000E+00  0.00000000E+00
  0.00000000E+00  0.00000000E+00  0.00000000E+00
  0.00000000E+00  0.00000000E+00  0.00000000E+00
  0.00000000E+00  0.00000000E+00  0.00000000E+00
  0.00000000E+00  0.00000000E+00  0.00000000E+00
  0.00000000E+00  0.00000000E+00  0.00000000E+00
  0.00000000E+00  0.00000000E+00  0.00000000E+00
