generated by phonopy                    
   1.00000000000000     
     0.0000000000000000    3.2669751190115144    3.2669751190116130
     3.2669751190115561    0.0000000000000000    3.2669751190116130
     3.2669751190115561    3.2669751190115144    0.0000000000000000
   Na   Sr   Ca   Zr   H 
     1     1     1     1    24
Direct
  0.2500000000000000  0.2500000000000000  0.2500000000000000
  0.7500000000000000  0.7500000000000000  0.7500000000000000
  0.0000000000000000  0.0000000000000000  0.0000000000000000
  0.5000000000000000  0.5000000000000000  0.5000000000000000
  0.1305831505360615  0.8973919905465948  0.6125070809765347
  0.8973919905465948  0.1305831505360615  0.3595177779408161
  0.6125070809765347  0.3595177779408161  0.1305831505360615
  0.3595177779408161  0.6125070809765347  0.8973919905465948
  0.6125070809765347  0.1305831505360615  0.8973919905465948
  0.3595177779408161  0.8973919905465948  0.1305831505360615
  0.1305831505360615  0.6125070809765347  0.3595177779408161
  0.8973919905465948  0.3595177779408161  0.6125070809765347
  0.8973919905465948  0.6125070809765347  0.1305831505360615
  0.1305831505360615  0.3595177779408161  0.8973919905465948
  0.3595177779408161  0.1305831505360615  0.6125070809765347
  0.6125070809765347  0.8973919905465948  0.3595177779408161
  0.1305831505360615  0.3595177779408161  0.6125070809765347
  0.3595177779408161  0.1305831505360615  0.8973919905465948
  0.6125070809765347  0.8973919905465948  0.1305831505360615
  0.8973919905465948  0.6125070809765347  0.3595177779408161
  0.6125070809765347  0.1305831505360615  0.3595177779408161
  0.8973919905465948  0.3595177779408161  0.1305831505360615
  0.1305831505360615  0.6125070809765347  0.8973919905465948
  0.3595177779408161  0.8973919905465948  0.6125070809765347
  0.3595177779408161  0.6125070809765347  0.1305831505360615
  0.1305831505360615  0.8973919905465948  0.3595177779408161
  0.8973919905465948  0.1305831505360615  0.6125070809765347
  0.6125070809765347  0.3595177779408161  0.8973919905465948
 
  0.00000000E+00  0.00000000E+00  0.00000000E+00
  0.00000000E+00  0.00000000E+00  0.00000000E+00
  0.00000000E+00  0.00000000E+00  0.00000000E+00
  0.00000000E+00  0.00000000E+00  0.00000000E+00
  0.00000000E+00  0.00000000E+00  0.00000000E+00
  0.00000000E+00  0.00000000E+00  0.00000000E+00
  0.00000000E+00  0.00000000E+00  0.00000000E+00
  0.00000000E+00  0.00000000E+00  0.00000000E+00
  0.00000000E+00  0.00000000E+00  0.00000000E+00
  0.00000000E+00  0.00000000E+00  0.00000000E+00
  0.00000000E+00  0.00000000E+00  0.00000000E+00
  0.00000000E+00  0.00000000E+00  0.00000000E+00
  0.00000000E+00  0.00000000E+00  0.00000000E+00
  0.00000000E+00  0.00000000E+00  0.00000000E+00
  0.00000000E+00  0.00000000E+00  0.00000000E+00
  0.00000000E+00  0.00000000E+00  0.00000000E+00
  0.00000000E+00  0.00000000E+00  0.00000000E+00
  0.00000000E+00  0.00000000E+00  0.00000000E+00
  0.00000000E+00  0.00000000E+00  0.00000000E+00
  0.00000000E+00  0.00000000E+00  0.00000000E+00
  0.00000000E+00  0.00000000E+00  0.00000000E+00
  0.00000000E+00  0.00000000E+00  0.00000000E+00
  0.00000000E+00  0.00000000E+00  0.00000000E+00
  0.00000000E+00  0.00000000E+00  0.00000000E+00
  0.00000000E+00  0.00000000E+00  0.00000000E+00
  0.00000000E+00  0.00000000E+00  0.00000000E+00
  0.00000000E+00  0.00000000E+00  0.00000000E+00
  0.00000000E+00  0.00000000E+00  0.00000000E+00
