       N       E                     dE             d eps       ncg     rms          rms(c)
DAV:   1     0.114776871733E+05    0.11478E+05   -0.28855E+05148688   0.181E+03
DAV:   2     0.149705987141E+04   -0.99806E+04   -0.93660E+04203360   0.818E+02
DAV:   3    -0.325228386021E+03   -0.18223E+04   -0.16890E+04247760   0.366E+02
DAV:   4    -0.599608447309E+03   -0.27438E+03   -0.26025E+03278616   0.182E+02
DAV:   5    -0.633215025891E+03   -0.33607E+02   -0.32106E+02280768   0.771E+01
DAV:   6    -0.639792439264E+03   -0.65774E+01   -0.64045E+01280768   0.317E+01
DAV:   7    -0.641094265644E+03   -0.13018E+01   -0.12828E+01280768   0.161E+01
DAV:   8    -0.641348172523E+03   -0.25391E+00   -0.25170E+00280768   0.674E+00
DAV:   9    -0.641395259766E+03   -0.47087E-01   -0.46841E-01280768   0.312E+00
DAV:  10    -0.641404135189E+03   -0.88754E-02   -0.88452E-02280768   0.122E+00
DAV:  11    -0.641405865207E+03   -0.17300E-02   -0.17258E-02280768   0.542E-01
DAV:  12    -0.641406217599E+03   -0.35239E-03   -0.35178E-03280768   0.216E-01
DAV:  13    -0.641406292006E+03   -0.74407E-04   -0.74312E-04280768   0.976E-02
DAV:  14    -0.641406308221E+03   -0.16215E-04   -0.16202E-04280768   0.401E-02
DAV:  15    -0.641406311840E+03   -0.36186E-05   -0.36179E-05257344   0.183E-02
DAV:  16    -0.641406312662E+03   -0.82183E-06   -0.82085E-06207680   0.772E-03
DAV:  17    -0.641406312848E+03   -0.18690E-06   -0.18741E-06159480   0.365E-03
DAV:  18    -0.641406312893E+03   -0.45038E-07   -0.44685E-07144864   0.199E-03
   1 F= -.64140631E+03 E0= -.64140631E+03  d E =0.000000E+00
