generated by phonopy                    
   1.00000000000000     
     0.0000000000000000    3.3843465825896479    3.3843465825897558
     3.3843465825896892    0.0000000000000000    3.3843465825897558
     3.3843465825896892    3.3843465825896479    0.0000000000000000
   Sr   Y    Zr   Ce   H 
     1     1     1     1    24
Direct
  0.2500000000000000  0.2500000000000000  0.2500000000000000
  0.7500000000000000  0.7500000000000000  0.7500000000000000
  0.0000000000000000  0.0000000000000000  0.0000000000000000
  0.5000000000000000  0.5000000000000000  0.5000000000000000
  0.1205645528340753  0.8768298080056383  0.6300561342938522
  0.8768298080056383  0.1205645528340753  0.3725495048664271
  0.6300561342938522  0.3725495048664271  0.1205645528340753
  0.3725495048664271  0.6300561342938522  0.8768298080056383
  0.6300561342938522  0.1205645528340753  0.8768298080056383
  0.3725495048664271  0.8768298080056383  0.1205645528340753
  0.1205645528340753  0.6300561342938522  0.3725495048664271
  0.8768298080056383  0.3725495048664271  0.6300561342938522
  0.8768298080056383  0.6300561342938522  0.1205645528340753
  0.1205645528340753  0.3725495048664271  0.8768298080056383
  0.3725495048664271  0.1205645528340753  0.6300561342938522
  0.6300561342938522  0.8768298080056383  0.3725495048664271
  0.1205645528340753  0.3725495048664271  0.6300561342938522
  0.3725495048664271  0.1205645528340753  0.8768298080056383
  0.6300561342938522  0.8768298080056383  0.1205645528340753
  0.8768298080056383  0.6300561342938522  0.3725495048664271
  0.6300561342938522  0.1205645528340753  0.3725495048664271
  0.8768298080056383  0.3725495048664271  0.1205645528340753
  0.1205645528340753  0.6300561342938522  0.8768298080056383
  0.3725495048664271  0.8768298080056383  0.6300561342938522
  0.3725495048664271  0.6300561342938522  0.1205645528340753
  0.1205645528340753  0.8768298080056383  0.3725495048664271
  0.8768298080056383  0.1205645528340753  0.6300561342938522
  0.6300561342938522  0.3725495048664271  0.8768298080056383
 
  0.00000000E+00  0.00000000E+00  0.00000000E+00
  0.00000000E+00  0.00000000E+00  0.00000000E+00
  0.00000000E+00  0.00000000E+00  0.00000000E+00
  0.00000000E+00  0.00000000E+00  0.00000000E+00
  0.00000000E+00  0.00000000E+00  0.00000000E+00
  0.00000000E+00  0.00000000E+00  0.00000000E+00
  0.00000000E+00  0.00000000E+00  0.00000000E+00
  0.00000000E+00  0.00000000E+00  0.00000000E+00
  0.00000000E+00  0.00000000E+00  0.00000000E+00
  0.00000000E+00  0.00000000E+00  0.00000000E+00
  0.00000000E+00  0.00000000E+00  0.00000000E+00
  0.00000000E+00  0.00000000E+00  0.00000000E+00
  0.00000000E+00  0.00000000E+00  0.00000000E+00
  0.00000000E+00  0.00000000E+00  0.00000000E+00
  0.00000000E+00  0.00000000E+00  0.00000000E+00
  0.00000000E+00  0.00000000E+00  0.00000000E+00
  0.00000000E+00  0.00000000E+00  0.00000000E+00
  0.00000000E+00  0.00000000E+00  0.00000000E+00
  0.00000000E+00  0.00000000E+00  0.00000000E+00
  0.00000000E+00  0.00000000E+00  0.00000000E+00
  0.00000000E+00  0.00000000E+00  0.00000000E+00
  0.00000000E+00  0.00000000E+00  0.00000000E+00
  0.00000000E+00  0.00000000E+00  0.00000000E+00
  0.00000000E+00  0.00000000E+00  0.00000000E+00
  0.00000000E+00  0.00000000E+00  0.00000000E+00
  0.00000000E+00  0.00000000E+00  0.00000000E+00
  0.00000000E+00  0.00000000E+00  0.00000000E+00
  0.00000000E+00  0.00000000E+00  0.00000000E+00
