generated by phonopy                    
   1.00000000000000     
     0.0000000000000000    3.2305866768207920    3.2305866768208853
     3.2305866768208333    0.0000000000000000    3.2305866768208853
     3.2305866768208333    3.2305866768207920    0.0000000000000000
   Na   Y    K    Sc   H 
     1     1     1     1    24
Direct
  0.2500000000000000  0.2500000000000000  0.2500000000000000
  0.7500000000000000  0.7500000000000000  0.7500000000000000
  0.0000000000000000  0.0000000000000000  0.0000000000000000
  0.5000000000000000  0.5000000000000000  0.5000000000000000
  0.1408149001426722  0.8868686861930826  0.6097503351989388
  0.8868686861930826  0.1408149001426722  0.3625660784653064
  0.6097503351989388  0.3625660784653064  0.1408149001426722
  0.3625660784653064  0.6097503351989388  0.8868686861930826
  0.6097503351989388  0.1408149001426722  0.8868686861930826
  0.3625660784653064  0.8868686861930826  0.1408149001426722
  0.1408149001426722  0.6097503351989388  0.3625660784653064
  0.8868686861930826  0.3625660784653064  0.6097503351989388
  0.8868686861930826  0.6097503351989388  0.1408149001426722
  0.1408149001426722  0.3625660784653064  0.8868686861930826
  0.3625660784653064  0.1408149001426722  0.6097503351989388
  0.6097503351989388  0.8868686861930826  0.3625660784653064
  0.1408149001426722  0.3625660784653064  0.6097503351989388
  0.3625660784653064  0.1408149001426722  0.8868686861930826
  0.6097503351989388  0.8868686861930826  0.1408149001426722
  0.8868686861930826  0.6097503351989388  0.3625660784653064
  0.6097503351989388  0.1408149001426722  0.3625660784653064
  0.8868686861930826  0.3625660784653064  0.1408149001426722
  0.1408149001426722  0.6097503351989388  0.8868686861930826
  0.3625660784653064  0.8868686861930826  0.6097503351989388
  0.3625660784653064  0.6097503351989388  0.1408149001426722
  0.1408149001426722  0.8868686861930826  0.3625660784653064
  0.8868686861930826  0.1408149001426722  0.6097503351989388
  0.6097503351989388  0.3625660784653064  0.8868686861930826
 
  0.00000000E+00  0.00000000E+00  0.00000000E+00
  0.00000000E+00  0.00000000E+00  0.00000000E+00
  0.00000000E+00  0.00000000E+00  0.00000000E+00
  0.00000000E+00  0.00000000E+00  0.00000000E+00
  0.00000000E+00  0.00000000E+00  0.00000000E+00
  0.00000000E+00  0.00000000E+00  0.00000000E+00
  0.00000000E+00  0.00000000E+00  0.00000000E+00
  0.00000000E+00  0.00000000E+00  0.00000000E+00
  0.00000000E+00  0.00000000E+00  0.00000000E+00
  0.00000000E+00  0.00000000E+00  0.00000000E+00
  0.00000000E+00  0.00000000E+00  0.00000000E+00
  0.00000000E+00  0.00000000E+00  0.00000000E+00
  0.00000000E+00  0.00000000E+00  0.00000000E+00
  0.00000000E+00  0.00000000E+00  0.00000000E+00
  0.00000000E+00  0.00000000E+00  0.00000000E+00
  0.00000000E+00  0.00000000E+00  0.00000000E+00
  0.00000000E+00  0.00000000E+00  0.00000000E+00
  0.00000000E+00  0.00000000E+00  0.00000000E+00
  0.00000000E+00  0.00000000E+00  0.00000000E+00
  0.00000000E+00  0.00000000E+00  0.00000000E+00
  0.00000000E+00  0.00000000E+00  0.00000000E+00
  0.00000000E+00  0.00000000E+00  0.00000000E+00
  0.00000000E+00  0.00000000E+00  0.00000000E+00
  0.00000000E+00  0.00000000E+00  0.00000000E+00
  0.00000000E+00  0.00000000E+00  0.00000000E+00
  0.00000000E+00  0.00000000E+00  0.00000000E+00
  0.00000000E+00  0.00000000E+00  0.00000000E+00
  0.00000000E+00  0.00000000E+00  0.00000000E+00
