POSCAR                                  
   1.00000000000000     
    10.1069537502216118   -0.0365918804254906   -0.0003437995158772
    -0.0365081562499670   10.0690834532330626   -0.0119367464223159
    -0.0002516662176602   -0.0080018811326354    6.7193779166719452
   Zr   Sr   Ca   Sc   H 
     9     9     9     9   216
Direct
  0.1717881900050031  0.1684165990481645  0.2508415682657912
  0.4939749686813713  0.5033445617311330  0.2496924248028947
  0.8315487569178757  0.1613673649022260  0.2497307198747407
  0.6650416983960099  0.3345543635772827  0.4975699169503471
  0.6667307429671254  0.3343525306329127  0.0037287673203679
  0.0022116559635350  0.3357606950587879  0.5003866010794766
  0.0082112106266621  0.6672132901146384  0.4994532179236089
  0.6647704929318365  0.9926545029132399  0.0041314250046085
  0.0045688818379546  0.9996229644757761  0.4994828461683767
  0.1668642133151224  0.1666689346127157  0.7537687017764227
  0.5011551555194131  0.1713831724394481  0.7512382510379965
  0.3331810578621983  0.3266283227643711  0.9909064011196804
  0.8335305961765158  0.5073364903372308  0.2491013636638115
  0.5041863638857222  0.8314874257893052  0.7507875859731499
  0.8346062288601672  0.5061672404245172  0.7545951181430581
  0.6615715362626631  0.6683899947314771  0.9970708018923702
  0.6679470981260565  0.0016528956401700  0.5045924488468003
  0.9956072966743434  0.6615819216344008  0.0005592827868597
  0.1705011645290213  0.5005842874110087  0.2471032360255379
  0.3345208960296944  0.3379365706592523  0.4950430089777527
  0.3329782555426419  0.6679336607614985  0.5007296355201447
  0.1662295734318917  0.8302766259759551  0.7511001245224520
  0.4974782531476549  0.5034920547120691  0.7480878960312580
  0.8357323784178874  0.1645322350520146  0.7512238769539508
  0.3317320893826050  0.9963511026169911  0.5037504053325819
  0.3281299929356720  0.9942548006013752  0.9986033974094894
  0.9989520469900839  0.3260103648974280  0.9994402882786702
  0.4969774983325976  0.1575165941787304  0.2530258869972073
  0.1705603928952257  0.5009029482070844  0.7506282069361205
  0.1675214126777007  0.8284611963206530  0.2481662547557164
  0.3302587115560272  0.6688899100936041  0.9988702825778688
  0.4866297962712238  0.8383518733287758  0.2521248267640885
  0.6605156056008781  0.6752162716608936  0.4961010384279518
  0.8436603827892810  0.8365359647578927  0.2527027670496906
  0.8382171900425632  0.8366879705385060  0.7475950247499412
  0.0070261337014017  0.9969601237903518  0.0030125916474972
  0.1645035399027961  0.0766349225349217  0.0106644364266231
  0.1699940566588580  0.0823010252189107  0.4923174302030873
  0.1643374321386659  0.4149144204842727  0.0046649121053477
  0.4998147007772360  0.0806860911053917  0.0108032455796021
  0.3459943392048572  0.2501299500069578  0.2544990522119477
  0.1681959018418340  0.4193973179828205  0.4961068101372774
  0.4940247700911229  0.0841292306655390  0.4917675430044284
  0.3326120967893615  0.2535560474889280  0.7270795339909100
  0.1695098534524675  0.7464635847162597  0.9969158054779541
  0.4970418417253484  0.4183175471278915  0.0002836901811065
  0.3300710129305031  0.5890195908574327  0.2467617457315114
  0.1710950147089747  0.7498583398188146  0.5000911316209766
  0.8300372870766921  0.0793603436344128  0.9973587491414762
  0.6547855303120755  0.2487416557728963  0.2465119009892689
  0.5005587090882244  0.4199046894463407  0.4996345587198334
  0.3325760952338541  0.5848076089883207  0.7481269460094566
  0.8422604788129675  0.0837307515712311  0.5030336750442643
  0.6750199094851723  0.2505156475289354  0.7563979791297797
  0.4888507882567552  0.7511106996019024  0.0188045499970855
  0.3266525860424920  0.9148590412562072  0.2492038388527362
  0.8372927982369092  0.4116189730056021  0.0026282195284679
  0.6574607007409625  0.5891881126480456  0.2640559491283412
  0.4964505705626578  0.7510522542875648  0.4845106487781408
  0.3296498184037802  0.9113344570756681  0.7515013738333067
  0.9986479053482782  0.2458428310694316  0.2495405772952282
  0.8315006944645873  0.4190046007814914  0.5011515600959768
  0.6605767953596384  0.5850932396552651  0.7266804082686065
  0.9973347915426203  0.2497846167775535  0.7471225476561472
  0.8321509136927432  0.7602136520968372  0.0003185280273570
  0.6529056292012001  0.9139666417862742  0.2498461623821910
  0.0112594500383949  0.5807496197895645  0.2615159408360483
  0.8332356791091087  0.7560159520183873  0.5002814160352358
  0.6800948924008381  0.9173498312208750  0.7566687624482071
  0.0132721682590500  0.5796313860031717  0.7384216892435376
  0.0073069100349912  0.9168483178831508  0.2499204703753435
  0.9998166233892576  0.9143841540986202  0.7475822274197839
  0.0790386702420918  0.1602136079631364  0.0106078305305388
  0.0829415732115208  0.1685349476869078  0.4936068947155263
  0.0892459462524826  0.4941732604901645  0.9972848838150412
  0.4186943223510866  0.1546649394480539  0.0186292147784926
  0.2532057010562312  0.3376021070407162  0.2531202218599873
  0.0900348783406244  0.4968701026261257  0.5005748556663860
  0.4145854861626006  0.1671034965794931  0.4889165332753791
  0.2494675382319258  0.3436369749983825  0.7323837737691719
  0.0825734646620120  0.8341316822326945  0.9992972526526813
  0.4120260554945361  0.5023381216182017  0.9960931500439330
  0.2512762479286934  0.6660625539544327  0.2495566343250815
  0.0856069063480334  0.8345143897823988  0.5001688536907096
  0.7511431133721018  0.1623952344017141  0.9975995301094542
  0.5810654582489292  0.3237479269867407  0.2495793529263679
  0.4154603717981900  0.5043870840214808  0.5007906780783671
  0.2491139796050845  0.6642297198518250  0.7469081806893385
  0.7540942684917482  0.1737313906865339  0.5011809248608685
  0.5862792323393649  0.3433283089046739  0.7485877090488557
  0.4120197208519940  0.8326950479491870  0.0077960103713366
  0.2486445773363641  0.9956377528079869  0.2525360683426925
  0.7447604910126131  0.4953613521293789  0.0012252590117185
  0.5803018524523793  0.6872086397153936  0.2557118711994448
  0.4138210971319722  0.8304922495582261  0.4929260921229854
  0.2467228457490620  0.9921465599831549  0.7463352988546674
  0.9155775541721383  0.3285568030720398  0.2498135359380314
  0.7456550903443429  0.5074448951300639  0.5012663601553768
  0.5847342845192856  0.6623736631990482  0.7340898092068855
  0.9142601819390421  0.3322813903880117  0.7504773290382190
  0.7531343977220288  0.8339543286927125  0.0253581304451131
  0.5804757252236143  0.9927140299828565  0.2505659032848371
  0.9151165799859271  0.6805798340787419  0.2652788574425458
  0.7514999272712686  0.8304157154604965  0.4803235281889755
  0.5874591760104266  0.0013862404641074  0.7614809642324829
  0.9147767543387459  0.6787947649381536  0.7323509977820635
  0.9199504671036607  0.9974893711068802  0.2336784455622549
  0.9161681799168164  0.9984789998534751  0.7705746155390756
  0.1641265929464168  0.9900982306449180  0.1267789250554188
  0.1684585058304009  0.9923548620528493  0.6278731083406583
  0.1610686824208685  0.3393972553601117  0.1209448687224324
  0.4918300721412692  0.9972206714170042  0.1289538330684223
  0.3362325188660193  0.1653031481217724  0.3758581654400501
  0.1691324882780663  0.3398388579244056  0.6229157709568724
  0.4930402437029002  0.0012807007172810  0.6253295597800843
  0.3338804788057104  0.1501222279661221  0.8744394247370266
  0.1703324648311479  0.6668228696743626  0.1220060344358842
  0.5032063402606823  0.3354381558580641  0.1284404416024501
  0.3307534720638188  0.5041149917608152  0.3767592420808796
  0.1730438214980978  0.6643186949336979  0.6289826702828520
  0.8434741190103807  0.9933131351026177  0.1211426196116747
  0.6615660756165056  0.1709245525685219  0.3682045333746444
  0.4987641799485090  0.3425257594845235  0.6206644776992434
  0.3315431375992972  0.5054223781669691  0.8732565850194050
  0.8418399547639766  0.9980348299579020  0.6300075992402796
  0.6741146420272202  0.1680515680407666  0.8794533062266083
  0.4909449753740702  0.6704565134066058  0.1277724771915629
  0.3246047569412767  0.8306422173297321  0.3741770714493242
  0.8331876312256910  0.3282636477319159  0.1260825349114612
  0.6603726613391316  0.5041019383822416  0.3801777753338769
  0.4988543622634509  0.6625140461030696  0.6175101459008729
  0.3293971274798579  0.8301708852610048  0.8752326147589926
  0.9999141820478314  0.1639263451339446  0.3682821648162360
  0.8318974803335735  0.3301552369978964  0.6286373908219005
  0.6584767182816122  0.4939232879671209  0.8707264051358408
  0.9953201459579972  0.1570702445865209  0.8818023052987698
  0.8279052639579305  0.6852687847422132  0.1305803511940553
  0.6859468067951084  0.8321023151153568  0.3742731015583516
  0.0095332127497088  0.5003761780118552  0.3748294418735227
  0.8311600793639897  0.6773719868478167  0.6172495100110282
  0.6834219459301067  0.8345539898475920  0.8721933134639031
  0.0127668729819135  0.4880392297063807  0.8722800139562565
  0.0036384463582237  0.8355704762483924  0.3716179737487266
  0.9987121998883026  0.8375993710928356  0.8773832560828367
  0.0863740003071669  0.9967223252927369  0.2444327140758986
  0.0826529590668912  0.9914416890770141  0.7584116273434915
  0.0831213219239757  0.3319859533520315  0.2468358644465525
  0.4083594281427878  0.0017257979916181  0.2492428299584546
  0.2540533971083292  0.1659784527440991  0.4962417907619141
  0.0837103413386444  0.3406310534586936  0.7537192334087592
  0.4128420371694546  0.0012770216716760  0.7521018126273304
  0.2516518141387891  0.1537572771423967  0.0112906147237126
  0.0888814483105520  0.6692055644464077  0.2484354291415514
  0.4180080598993214  0.3239355538652973  0.2509616285250615
  0.2500221172652886  0.5036739301531910  0.5002179003334888
  0.0887083918192602  0.6645962849600977  0.7531477927974990
  0.7515502739191433  0.9896886650612728  0.2446802270076063
  0.5804063157094532  0.1706884331119198  0.4867779721811587
  0.4173583941843972  0.3432910398577320  0.7341180354714965
  0.2524082422567133  0.5039935844781240  0.9993825719537455
  0.7576630611146697  0.9967754836102927  0.7605537624021963
  0.5832600732563478  0.1618449397324540  0.0138622544629285
  0.4092748448640791  0.6739765981040051  0.2502428957726721
  0.2483525992876707  0.8305280847079928  0.4942840972458598
  0.7495206781661921  0.3306889271885254  0.2528381138724285
  0.5796542617431015  0.5065519734785866  0.4980974473695738
  0.4097435818730304  0.6616574247028240  0.7517516301764786
  0.2475304831766962  0.8296414139804611  0.0060315298981095
  0.9174568918444237  0.1713893025777864  0.5000532901046526
  0.7543284529979033  0.3301288014354853  0.7466808224029364
  0.5734545406927722  0.5009338597959783  0.0016030197793171
  0.9162811285101995  0.1582406212037242  0.0004195491295462
  0.7478806419808564  0.6839714782886261  0.2637242356516936
  0.5813878402724839  0.8314645587230203  0.4758688685618537
  0.9186073530447416  0.4991722489334620  0.5031886623218043
  0.7514828705589665  0.6798732897926243  0.7291954918609918
  0.5775182031526427  0.8346673933060558  0.0269511141541727
  0.9202136991680234  0.4823201902703858  0.0010763338248907
  0.9203027368955787  0.8285331334707067  0.4991378667691606
  0.9191091032126053  0.8411135822436364  0.0003238107335548
  0.9981154557939433  0.1592064378407230  0.1255035826531739
  0.9960035012871984  0.1648287335602205  0.6294120251297315
  0.0097783900024808  0.4878062853172196  0.1239173692833049
  0.3384734329159969  0.1573202882426372  0.1279917422040313
  0.1690420348190074  0.3391890473629502  0.3766454637367005
  0.0093246480725568  0.5012522537319555  0.6293210487107785
  0.3338873295055009  0.1691856314568483  0.6152592515973652
  0.1582693794377050  0.3442384796200244  0.8685127643055850
  0.0026100926594381  0.8366088325184080  0.1244884813187710
  0.3298836125012272  0.5049171952791056  0.1164099945490733
  0.1730935052420080  0.6666757571902764  0.3729325569903423
  0.0001272327664665  0.8335789844635499  0.6278202435463385
  0.6660256530119284  0.1695242082225903  0.1234312226360217
  0.5007573433260148  0.3343820885964348  0.3706953185035999
  0.3311401589758134  0.5046022311446734  0.6275551858647219
  0.1690573920597203  0.6651698466548481  0.8754422400491535
  0.6743510382738265  0.1746619185101324  0.6317862018849922
  0.5074716502290713  0.3455733066299871  0.8733360463128861
  0.3238434979310725  0.8297994793301626  0.1230611985720742
  0.1684619020241129  0.9914142774936181  0.3722638048737181
  0.6569633398265537  0.4967954619679986  0.1284001644519464
  0.4940603853217240  0.6698839872140567  0.3697962949062870
  0.3295056735041157  0.8318578947774782  0.6274080377491629
  0.1612202456093428  0.9920534433854229  0.8761093157983026
  0.8321056569925886  0.3297918005232745  0.3728887521355233
  0.6623996354714237  0.5052020772502530  0.6255093812089854
  0.4866593778822121  0.6608082607855010  0.8807534155997203
  0.8333466206902571  0.3290811804405820  0.8730342141237699
  0.6869600813102679  0.8331238022034810  0.1320131628392076
  0.4959989785501620  0.9974753385260371  0.3743217251176887
  0.8241667677910840  0.6821271443815533  0.3801859396648410
  0.6792595147748557  0.8299996578179361  0.6233511393381050
  0.4940336347451151  0.0015821587430196  0.8827142375506156
  0.8297988263741871  0.6850046109383356  0.8701064059918977
  0.8401920702050489  0.9946185520674788  0.3734788916198895
  0.8469862972921760  0.9962018776221413  0.8767435856285459
  0.0042900151595617  0.0792961153461604  0.2486156651669091
  0.9948693642611417  0.0812112614327276  0.7505438053828755
  0.0052400788418154  0.4137042777232622  0.2477191405392034
  0.3346442323518986  0.0764447787350591  0.2525537659052333
  0.1683281905485288  0.2525115603038230  0.4964487793281691
  0.0083496102317611  0.4169560950323827  0.7501858188278590
  0.3365386141978561  0.0773067497235544  0.7548956440734997
  0.1589943085977197  0.2468085924932240  0.0112707290935887
  0.0073165647650200  0.7544536592595961  0.2521482088518212
  0.3311252111910647  0.4166833077309988  0.2477287585087424
  0.1717510183389308  0.5810360513134825  0.5003949634412592
  0.0014046077553189  0.7522592726368700  0.7465334446909893
  0.6604439237987876  0.0829897230196082  0.2437550004472584
  0.4960776569517193  0.2530625573322496  0.4838974627772146
  0.3304285405429965  0.4230619014701134  0.7419504361058458
  0.1697996256836305  0.5814469576395425  0.9976700065444533
  0.6735751602167568  0.0854110274244277  0.7659609447877429
  0.5057027517244279  0.2455278506325911  0.0216494750503244
  0.3350626939158232  0.7485268289312899  0.2495589383063077
  0.1671803527754392  0.9135248592955207  0.4912367903341064
  0.6605607771346200  0.4198344660618787  0.2578575707210362
  0.5001188336464608  0.5874842680923962  0.5026704423758588
  0.3283998640122618  0.7467169278219572  0.7525066187141860
  0.1666443497396770  0.9117711285840286  0.0094491516999184
  0.8396579594700100  0.2479801373263300  0.5019084789310497
  0.6612915991540618  0.4234859963997266  0.7378818001128025
  0.4899906773187084  0.5863270885113394  0.9973537527489853
  0.8339196277849439  0.2411059248510909  0.0001410460740487
  0.6451077291843603  0.7542579809022953  0.2548495686826939
  0.4959555767836719  0.9162678137584663  0.4863518524223096
  0.8257327993268078  0.5938224120165927  0.5029084762012701
  0.6795078643117165  0.7511326013683757  0.7379499632224693
  0.4897034978551034  0.9166343128145016  0.0157131099307506
  0.8244502589195477  0.5891940988267379  0.0016230242644895
  0.8391686640744851  0.9135317403842294  0.5021608907864632
  0.8367564721851224  0.9202591663351356  0.9982584550167886
 
  0.00000000E+00  0.00000000E+00  0.00000000E+00
  0.00000000E+00  0.00000000E+00  0.00000000E+00
  0.00000000E+00  0.00000000E+00  0.00000000E+00
  0.00000000E+00  0.00000000E+00  0.00000000E+00
  0.00000000E+00  0.00000000E+00  0.00000000E+00
  0.00000000E+00  0.00000000E+00  0.00000000E+00
  0.00000000E+00  0.00000000E+00  0.00000000E+00
  0.00000000E+00  0.00000000E+00  0.00000000E+00
  0.00000000E+00  0.00000000E+00  0.00000000E+00
  0.00000000E+00  0.00000000E+00  0.00000000E+00
  0.00000000E+00  0.00000000E+00  0.00000000E+00
  0.00000000E+00  0.00000000E+00  0.00000000E+00
  0.00000000E+00  0.00000000E+00  0.00000000E+00
  0.00000000E+00  0.00000000E+00  0.00000000E+00
  0.00000000E+00  0.00000000E+00  0.00000000E+00
  0.00000000E+00  0.00000000E+00  0.00000000E+00
  0.00000000E+00  0.00000000E+00  0.00000000E+00
  0.00000000E+00  0.00000000E+00  0.00000000E+00
  0.00000000E+00  0.00000000E+00  0.00000000E+00
  0.00000000E+00  0.00000000E+00  0.00000000E+00
  0.00000000E+00  0.00000000E+00  0.00000000E+00
  0.00000000E+00  0.00000000E+00  0.00000000E+00
  0.00000000E+00  0.00000000E+00  0.00000000E+00
  0.00000000E+00  0.00000000E+00  0.00000000E+00
  0.00000000E+00  0.00000000E+00  0.00000000E+00
  0.00000000E+00  0.00000000E+00  0.00000000E+00
  0.00000000E+00  0.00000000E+00  0.00000000E+00
  0.00000000E+00  0.00000000E+00  0.00000000E+00
  0.00000000E+00  0.00000000E+00  0.00000000E+00
  0.00000000E+00  0.00000000E+00  0.00000000E+00
  0.00000000E+00  0.00000000E+00  0.00000000E+00
  0.00000000E+00  0.00000000E+00  0.00000000E+00
  0.00000000E+00  0.00000000E+00  0.00000000E+00
  0.00000000E+00  0.00000000E+00  0.00000000E+00
  0.00000000E+00  0.00000000E+00  0.00000000E+00
  0.00000000E+00  0.00000000E+00  0.00000000E+00
  0.00000000E+00  0.00000000E+00  0.00000000E+00
  0.00000000E+00  0.00000000E+00  0.00000000E+00
  0.00000000E+00  0.00000000E+00  0.00000000E+00
  0.00000000E+00  0.00000000E+00  0.00000000E+00
  0.00000000E+00  0.00000000E+00  0.00000000E+00
  0.00000000E+00  0.00000000E+00  0.00000000E+00
  0.00000000E+00  0.00000000E+00  0.00000000E+00
  0.00000000E+00  0.00000000E+00  0.00000000E+00
  0.00000000E+00  0.00000000E+00  0.00000000E+00
  0.00000000E+00  0.00000000E+00  0.00000000E+00
  0.00000000E+00  0.00000000E+00  0.00000000E+00
  0.00000000E+00  0.00000000E+00  0.00000000E+00
  0.00000000E+00  0.00000000E+00  0.00000000E+00
  0.00000000E+00  0.00000000E+00  0.00000000E+00
  0.00000000E+00  0.00000000E+00  0.00000000E+00
  0.00000000E+00  0.00000000E+00  0.00000000E+00
  0.00000000E+00  0.00000000E+00  0.00000000E+00
  0.00000000E+00  0.00000000E+00  0.00000000E+00
  0.00000000E+00  0.00000000E+00  0.00000000E+00
  0.00000000E+00  0.00000000E+00  0.00000000E+00
  0.00000000E+00  0.00000000E+00  0.00000000E+00
  0.00000000E+00  0.00000000E+00  0.00000000E+00
  0.00000000E+00  0.00000000E+00  0.00000000E+00
  0.00000000E+00  0.00000000E+00  0.00000000E+00
  0.00000000E+00  0.00000000E+00  0.00000000E+00
  0.00000000E+00  0.00000000E+00  0.00000000E+00
  0.00000000E+00  0.00000000E+00  0.00000000E+00
  0.00000000E+00  0.00000000E+00  0.00000000E+00
  0.00000000E+00  0.00000000E+00  0.00000000E+00
  0.00000000E+00  0.00000000E+00  0.00000000E+00
  0.00000000E+00  0.00000000E+00  0.00000000E+00
  0.00000000E+00  0.00000000E+00  0.00000000E+00
  0.00000000E+00  0.00000000E+00  0.00000000E+00
  0.00000000E+00  0.00000000E+00  0.00000000E+00
  0.00000000E+00  0.00000000E+00  0.00000000E+00
  0.00000000E+00  0.00000000E+00  0.00000000E+00
  0.00000000E+00  0.00000000E+00  0.00000000E+00
  0.00000000E+00  0.00000000E+00  0.00000000E+00
  0.00000000E+00  0.00000000E+00  0.00000000E+00
  0.00000000E+00  0.00000000E+00  0.00000000E+00
  0.00000000E+00  0.00000000E+00  0.00000000E+00
  0.00000000E+00  0.00000000E+00  0.00000000E+00
  0.00000000E+00  0.00000000E+00  0.00000000E+00
  0.00000000E+00  0.00000000E+00  0.00000000E+00
  0.00000000E+00  0.00000000E+00  0.00000000E+00
  0.00000000E+00  0.00000000E+00  0.00000000E+00
  0.00000000E+00  0.00000000E+00  0.00000000E+00
  0.00000000E+00  0.00000000E+00  0.00000000E+00
  0.00000000E+00  0.00000000E+00  0.00000000E+00
  0.00000000E+00  0.00000000E+00  0.00000000E+00
  0.00000000E+00  0.00000000E+00  0.00000000E+00
  0.00000000E+00  0.00000000E+00  0.00000000E+00
  0.00000000E+00  0.00000000E+00  0.00000000E+00
  0.00000000E+00  0.00000000E+00  0.00000000E+00
  0.00000000E+00  0.00000000E+00  0.00000000E+00
  0.00000000E+00  0.00000000E+00  0.00000000E+00
  0.00000000E+00  0.00000000E+00  0.00000000E+00
  0.00000000E+00  0.00000000E+00  0.00000000E+00
  0.00000000E+00  0.00000000E+00  0.00000000E+00
  0.00000000E+00  0.00000000E+00  0.00000000E+00
  0.00000000E+00  0.00000000E+00  0.00000000E+00
  0.00000000E+00  0.00000000E+00  0.00000000E+00
  0.00000000E+00  0.00000000E+00  0.00000000E+00
  0.00000000E+00  0.00000000E+00  0.00000000E+00
  0.00000000E+00  0.00000000E+00  0.00000000E+00
  0.00000000E+00  0.00000000E+00  0.00000000E+00
  0.00000000E+00  0.00000000E+00  0.00000000E+00
  0.00000000E+00  0.00000000E+00  0.00000000E+00
  0.00000000E+00  0.00000000E+00  0.00000000E+00
  0.00000000E+00  0.00000000E+00  0.00000000E+00
  0.00000000E+00  0.00000000E+00  0.00000000E+00
  0.00000000E+00  0.00000000E+00  0.00000000E+00
  0.00000000E+00  0.00000000E+00  0.00000000E+00
  0.00000000E+00  0.00000000E+00  0.00000000E+00
  0.00000000E+00  0.00000000E+00  0.00000000E+00
  0.00000000E+00  0.00000000E+00  0.00000000E+00
  0.00000000E+00  0.00000000E+00  0.00000000E+00
  0.00000000E+00  0.00000000E+00  0.00000000E+00
  0.00000000E+00  0.00000000E+00  0.00000000E+00
  0.00000000E+00  0.00000000E+00  0.00000000E+00
  0.00000000E+00  0.00000000E+00  0.00000000E+00
  0.00000000E+00  0.00000000E+00  0.00000000E+00
  0.00000000E+00  0.00000000E+00  0.00000000E+00
  0.00000000E+00  0.00000000E+00  0.00000000E+00
  0.00000000E+00  0.00000000E+00  0.00000000E+00
  0.00000000E+00  0.00000000E+00  0.00000000E+00
  0.00000000E+00  0.00000000E+00  0.00000000E+00
  0.00000000E+00  0.00000000E+00  0.00000000E+00
  0.00000000E+00  0.00000000E+00  0.00000000E+00
  0.00000000E+00  0.00000000E+00  0.00000000E+00
  0.00000000E+00  0.00000000E+00  0.00000000E+00
  0.00000000E+00  0.00000000E+00  0.00000000E+00
  0.00000000E+00  0.00000000E+00  0.00000000E+00
  0.00000000E+00  0.00000000E+00  0.00000000E+00
  0.00000000E+00  0.00000000E+00  0.00000000E+00
  0.00000000E+00  0.00000000E+00  0.00000000E+00
  0.00000000E+00  0.00000000E+00  0.00000000E+00
  0.00000000E+00  0.00000000E+00  0.00000000E+00
  0.00000000E+00  0.00000000E+00  0.00000000E+00
  0.00000000E+00  0.00000000E+00  0.00000000E+00
  0.00000000E+00  0.00000000E+00  0.00000000E+00
  0.00000000E+00  0.00000000E+00  0.00000000E+00
  0.00000000E+00  0.00000000E+00  0.00000000E+00
  0.00000000E+00  0.00000000E+00  0.00000000E+00
  0.00000000E+00  0.00000000E+00  0.00000000E+00
  0.00000000E+00  0.00000000E+00  0.00000000E+00
  0.00000000E+00  0.00000000E+00  0.00000000E+00
  0.00000000E+00  0.00000000E+00  0.00000000E+00
  0.00000000E+00  0.00000000E+00  0.00000000E+00
  0.00000000E+00  0.00000000E+00  0.00000000E+00
  0.00000000E+00  0.00000000E+00  0.00000000E+00
  0.00000000E+00  0.00000000E+00  0.00000000E+00
  0.00000000E+00  0.00000000E+00  0.00000000E+00
  0.00000000E+00  0.00000000E+00  0.00000000E+00
  0.00000000E+00  0.00000000E+00  0.00000000E+00
  0.00000000E+00  0.00000000E+00  0.00000000E+00
  0.00000000E+00  0.00000000E+00  0.00000000E+00
  0.00000000E+00  0.00000000E+00  0.00000000E+00
  0.00000000E+00  0.00000000E+00  0.00000000E+00
  0.00000000E+00  0.00000000E+00  0.00000000E+00
  0.00000000E+00  0.00000000E+00  0.00000000E+00
  0.00000000E+00  0.00000000E+00  0.00000000E+00
  0.00000000E+00  0.00000000E+00  0.00000000E+00
  0.00000000E+00  0.00000000E+00  0.00000000E+00
  0.00000000E+00  0.00000000E+00  0.00000000E+00
  0.00000000E+00  0.00000000E+00  0.00000000E+00
  0.00000000E+00  0.00000000E+00  0.00000000E+00
  0.00000000E+00  0.00000000E+00  0.00000000E+00
  0.00000000E+00  0.00000000E+00  0.00000000E+00
  0.00000000E+00  0.00000000E+00  0.00000000E+00
  0.00000000E+00  0.00000000E+00  0.00000000E+00
  0.00000000E+00  0.00000000E+00  0.00000000E+00
  0.00000000E+00  0.00000000E+00  0.00000000E+00
  0.00000000E+00  0.00000000E+00  0.00000000E+00
  0.00000000E+00  0.00000000E+00  0.00000000E+00
  0.00000000E+00  0.00000000E+00  0.00000000E+00
  0.00000000E+00  0.00000000E+00  0.00000000E+00
  0.00000000E+00  0.00000000E+00  0.00000000E+00
  0.00000000E+00  0.00000000E+00  0.00000000E+00
  0.00000000E+00  0.00000000E+00  0.00000000E+00
  0.00000000E+00  0.00000000E+00  0.00000000E+00
  0.00000000E+00  0.00000000E+00  0.00000000E+00
  0.00000000E+00  0.00000000E+00  0.00000000E+00
  0.00000000E+00  0.00000000E+00  0.00000000E+00
  0.00000000E+00  0.00000000E+00  0.00000000E+00
  0.00000000E+00  0.00000000E+00  0.00000000E+00
  0.00000000E+00  0.00000000E+00  0.00000000E+00
  0.00000000E+00  0.00000000E+00  0.00000000E+00
  0.00000000E+00  0.00000000E+00  0.00000000E+00
  0.00000000E+00  0.00000000E+00  0.00000000E+00
  0.00000000E+00  0.00000000E+00  0.00000000E+00
  0.00000000E+00  0.00000000E+00  0.00000000E+00
  0.00000000E+00  0.00000000E+00  0.00000000E+00
  0.00000000E+00  0.00000000E+00  0.00000000E+00
  0.00000000E+00  0.00000000E+00  0.00000000E+00
  0.00000000E+00  0.00000000E+00  0.00000000E+00
  0.00000000E+00  0.00000000E+00  0.00000000E+00
  0.00000000E+00  0.00000000E+00  0.00000000E+00
  0.00000000E+00  0.00000000E+00  0.00000000E+00
  0.00000000E+00  0.00000000E+00  0.00000000E+00
  0.00000000E+00  0.00000000E+00  0.00000000E+00
  0.00000000E+00  0.00000000E+00  0.00000000E+00
  0.00000000E+00  0.00000000E+00  0.00000000E+00
  0.00000000E+00  0.00000000E+00  0.00000000E+00
  0.00000000E+00  0.00000000E+00  0.00000000E+00
  0.00000000E+00  0.00000000E+00  0.00000000E+00
  0.00000000E+00  0.00000000E+00  0.00000000E+00
  0.00000000E+00  0.00000000E+00  0.00000000E+00
  0.00000000E+00  0.00000000E+00  0.00000000E+00
  0.00000000E+00  0.00000000E+00  0.00000000E+00
  0.00000000E+00  0.00000000E+00  0.00000000E+00
  0.00000000E+00  0.00000000E+00  0.00000000E+00
  0.00000000E+00  0.00000000E+00  0.00000000E+00
  0.00000000E+00  0.00000000E+00  0.00000000E+00
  0.00000000E+00  0.00000000E+00  0.00000000E+00
  0.00000000E+00  0.00000000E+00  0.00000000E+00
  0.00000000E+00  0.00000000E+00  0.00000000E+00
  0.00000000E+00  0.00000000E+00  0.00000000E+00
  0.00000000E+00  0.00000000E+00  0.00000000E+00
  0.00000000E+00  0.00000000E+00  0.00000000E+00
  0.00000000E+00  0.00000000E+00  0.00000000E+00
  0.00000000E+00  0.00000000E+00  0.00000000E+00
  0.00000000E+00  0.00000000E+00  0.00000000E+00
  0.00000000E+00  0.00000000E+00  0.00000000E+00
  0.00000000E+00  0.00000000E+00  0.00000000E+00
  0.00000000E+00  0.00000000E+00  0.00000000E+00
  0.00000000E+00  0.00000000E+00  0.00000000E+00
  0.00000000E+00  0.00000000E+00  0.00000000E+00
  0.00000000E+00  0.00000000E+00  0.00000000E+00
  0.00000000E+00  0.00000000E+00  0.00000000E+00
  0.00000000E+00  0.00000000E+00  0.00000000E+00
  0.00000000E+00  0.00000000E+00  0.00000000E+00
  0.00000000E+00  0.00000000E+00  0.00000000E+00
  0.00000000E+00  0.00000000E+00  0.00000000E+00
  0.00000000E+00  0.00000000E+00  0.00000000E+00
  0.00000000E+00  0.00000000E+00  0.00000000E+00
  0.00000000E+00  0.00000000E+00  0.00000000E+00
  0.00000000E+00  0.00000000E+00  0.00000000E+00
  0.00000000E+00  0.00000000E+00  0.00000000E+00
  0.00000000E+00  0.00000000E+00  0.00000000E+00
  0.00000000E+00  0.00000000E+00  0.00000000E+00
  0.00000000E+00  0.00000000E+00  0.00000000E+00
  0.00000000E+00  0.00000000E+00  0.00000000E+00
  0.00000000E+00  0.00000000E+00  0.00000000E+00
  0.00000000E+00  0.00000000E+00  0.00000000E+00
  0.00000000E+00  0.00000000E+00  0.00000000E+00
  0.00000000E+00  0.00000000E+00  0.00000000E+00
  0.00000000E+00  0.00000000E+00  0.00000000E+00
  0.00000000E+00  0.00000000E+00  0.00000000E+00
  0.00000000E+00  0.00000000E+00  0.00000000E+00
  0.00000000E+00  0.00000000E+00  0.00000000E+00
  0.00000000E+00  0.00000000E+00  0.00000000E+00
  0.00000000E+00  0.00000000E+00  0.00000000E+00
  0.00000000E+00  0.00000000E+00  0.00000000E+00
  0.00000000E+00  0.00000000E+00  0.00000000E+00
  0.00000000E+00  0.00000000E+00  0.00000000E+00
