POSCAR                                  
   1.00000000000000     
     9.8900452130514918   -0.0137560548607252    0.0428491094069989
    -0.0137921151662185    9.9081440543447616   -0.0084804998025765
     0.0284805896480631   -0.0055603168899256    6.5518353784800194
   Sc   Hf   K    Na   H 
     9     9     9     9   216
Direct
  0.1662978148418759  0.1598154235851581  0.2518740018836993
  0.1625923180008186  0.8386784710498461  0.2478038799910323
  0.3384066516959905  0.6764045377543937  0.4910628180878476
  0.3331149648535359  0.0017800694356609  0.4964295614867140
  0.8310478501630172  0.5055748936755151  0.2557485961463399
  0.9874379387231329  0.3258386425326663  0.4948789017255635
  0.8403111148607323  0.5092561350905740  0.7526092670881823
  0.6730381700059951  0.9907744632953950  0.4995476823431346
  0.9957761763490822  0.6796701128613378  0.5003734194072038
  0.1522602643338118  0.1585339677988600  0.7543520842955687
  0.1649888989145296  0.5062899167197727  0.2476786518999745
  0.5032229326614868  0.1605634445353274  0.7445262621682289
  0.3397778257786257  0.3376965572871242  0.0071865506613378
  0.3328283783997747  0.6694435978540909  0.9860321110818049
  0.8364684831595710  0.1517294949149814  0.7520717355104765
  0.3400998047010404  0.9954854312171122  0.0003306854680574
  0.6766232519058946  0.6711580506629602  0.0071659941106290
  0.9870800807581901  0.3342944443742795  0.0072141468402123
  0.5133753852323579  0.1786301762607110  0.2494290894353597
  0.3112455610463840  0.3450918731030157  0.5133498169190105
  0.1733259970032819  0.4886740345191427  0.7349932719956982
  0.1687173340404726  0.8301058087870175  0.7496036519261153
  0.6497929403695792  0.3335726672128416  0.5122671139516228
  0.5198028870113234  0.5011732567000564  0.7206659908198034
  0.6614837080524794  0.3188561691172964  0.0203691893914453
  0.6581818582754977  0.6649265413763814  0.5117113844011243
  0.8352464507751094  0.8402268563726594  0.2467752270651218
  0.5004007495830933  0.5140144364911237  0.2293811852673855
  0.8374168312929910  0.1675414518762182  0.2536423929928020
  0.5046343859258045  0.8376086546254555  0.2445985348039201
  0.5076600844368500  0.8319143042949406  0.7448820691830633
  0.8355556779977178  0.8323287863940365  0.7504984917188153
  0.6724968055650038  0.9938661018008403  0.0019137014240513
  0.0048792744813397  0.6686419831599935  0.9985044966597059
  0.9980516336559262  0.9954332473338496  0.5019706345290800
  0.9938017228393150  0.9907088351666076  0.0098488431940993
  0.1565181968839227  0.0779738007395210  0.0153058264812458
  0.1558542955426248  0.0804177317903125  0.4880814083190472
  0.1650593644887692  0.4143612113832589  0.0000514671091310
  0.5127995112769241  0.0805019173214774  0.0088263956675121
  0.3323698616955824  0.2529138270501008  0.2602874544750975
  0.1368793490588232  0.4145898054186503  0.4820129982603447
  0.5011294292887598  0.0802491511647219  0.4876326365282182
  0.3389798896800400  0.2460983109715684  0.7601037963607240
  0.1631200690255312  0.7492815758706897  0.0069219354950718
  0.5003500403912966  0.4193224422430717  0.9858742534288254
  0.3404340467114437  0.5912477819573567  0.2457262714662463
  0.1677649254685392  0.7540437156112034  0.4891308283050861
  0.8361547530157551  0.0731350040196261  0.0321919999382061
  0.6913245463377038  0.2465666971767391  0.2777691310017119
  0.4793634566868690  0.4228120702531015  0.4556301318331251
  0.3439166004388525  0.5786430296492711  0.7339726899461496
  0.8381676530357254  0.0797770066705183  0.4876735812689077
  0.6816148078245021  0.2523511413081820  0.7574297668032628
  0.5019275977907256  0.7566769588360174  0.9953793492489567
  0.3354470212960905  0.9158976759132074  0.2529966227704961
  0.8196141570764652  0.4184696773983418  0.0017891985463763
  0.6685494087907671  0.5851426787782827  0.2519067651251987
  0.4974084856436605  0.7602861783134216  0.4965031364655346
  0.3414194155126040  0.9141249759448584  0.7381403499665353
  0.9954421835719955  0.2454231968964180  0.2531076299563821
  0.8257738615734951  0.4167201383769807  0.4963236201813075
  0.6837849128983891  0.5817901187842693  0.7682800400845053
  0.9851233056285764  0.2551404980615644  0.7521976818585188
  0.8482732265603445  0.7559540668068649  0.9938426046906486
  0.6644214269560962  0.9136473705498105  0.2326858475452411
  0.9960408018512439  0.5876915555025874  0.2508392629631189
  0.8309467606369267  0.7553860786426014  0.5081358211598328
  0.6663432181910949  0.9109602994923733  0.7606041805821491
  0.0050793041256867  0.5798487336333906  0.7544650626751093
  0.0054662213680530  0.9189879873238169  0.2596522800010419
  0.9964021822645890  0.9071924641493680  0.7591386710640862
  0.0822138873719993  0.1530678938784362  0.0116391570390562
  0.0799971861459525  0.1483955026982287  0.4934774926202792
  0.0803974745530027  0.5038597344036262  0.9914261648173692
  0.4167737087605801  0.1604146122198173  0.0093013547377652
  0.2399500543222857  0.3347334155703905  0.2506816075255500
  0.0781958221989356  0.5224316322732747  0.4995437917684313
  0.4120368834090158  0.1748925390578293  0.4920745306501644
  0.2466531756060064  0.3156410390872466  0.7762590814945085
  0.0848048528745551  0.8394533533911002  0.0048344772491120
  0.4290958164134935  0.5112101887251654  0.9876155864543250
  0.2469432567500007  0.6736823778222174  0.2577868761432711
  0.0866737031407681  0.8404701228324711  0.4984759847736768
  0.7548505933543623  0.1553240710976240  0.9994066720914887
  0.5708854588574468  0.3620546276019567  0.2507161820962835
  0.4169187865083899  0.5129992974744724  0.4793776469969728
  0.2485643580469414  0.6608223683630357  0.7287929653432386
  0.7493310776177182  0.1649795139694348  0.4968409831628691
  0.5808502304658703  0.3246331091012706  0.7778764810057339
  0.4239313951022723  0.8303809263135378  0.0059185182364345
  0.2509784269942799  0.9993975603345078  0.2567679132389955
  0.7519528864006233  0.4955278786382777  0.0137484523660234
  0.5792302512591334  0.6741253516310550  0.2473516513096428
  0.4161715012586527  0.8404468876260793  0.4791102373899534
  0.2497584482166886  0.0006645091348005  0.7431217783774215
  0.9066919314178392  0.3338350280484761  0.2604505079579269
  0.7502048467631468  0.4971647468368801  0.5085638212152475
  0.5870457432421503  0.6769536844965103  0.7744149456044767
  0.9061425876667357  0.3334349417182807  0.7414111398020822
  0.7506694539045498  0.8367388910204951  0.9877225577301232
  0.5822185902732357  0.0020812499283807  0.2503444433511319
  0.9229906972967541  0.6733267790399040  0.2425696764297882
  0.7490858921116725  0.8290322650564548  0.5141742004914818
  0.5890690994780243  0.9919986449508613  0.7549963085051843
  0.9256776722360840  0.6813250215563045  0.7620124320236670
  0.9203666719530972  0.0088649168823238  0.2645591909627001
  0.9168246165341145  0.9899028264322425  0.7488848767493437
  0.1616488143557149  0.0018753769646196  0.1244136119097519
  0.1660269114033568  0.9947976084657739  0.6217627478996803
  0.1566254961710172  0.3226921891239272  0.1241548329575863
  0.5165567383466438  0.0008690579870105  0.1304878094176445
  0.3321339207822405  0.1686388199503455  0.3758652954256476
  0.1395454935840519  0.3190471263695045  0.6253766846190203
  0.4936723431113776  0.9852458514657911  0.6187371562275104
  0.3329187331742389  0.1623136439926114  0.8760470841654140
  0.1583690265537570  0.6736125766005614  0.1255114541863591
  0.5053044690497828  0.3550995176986760  0.1551654469883488
  0.3400900520704013  0.5059498235677680  0.3617938742962536
  0.1721330769989677  0.6630508115572766  0.6215327860655648
  0.8288729084102329  0.0128454880270752  0.1314499169033709
  0.6779916988060535  0.1506825368574525  0.3864857448999004
  0.4766860625916820  0.3253840112029849  0.6283931447100528
  0.3412418734082792  0.5060919811974927  0.8608428917726769
  0.8410730631011987  0.9803686842277415  0.6199929945348188
  0.6717540767944925  0.1499996192233155  0.8818888293176741
  0.5002813626505755  0.6758387428180583  0.1218769128397810
  0.3482281849422293  0.8407525537775911  0.3740347645852609
  0.8253272696035481  0.3361229370379561  0.1372544136437739
  0.6466641356385239  0.4973363567794351  0.3767005433803163
  0.4866097606573874  0.6807789022321344  0.6167307413203673
  0.3459238234932016  0.8339138958323531  0.8593981892063596
  0.9989140359194408  0.1620911771026172  0.3727679291482602
  0.8313174267826255  0.3488272133093986  0.6272610087510557
  0.6778121987622683  0.4811447493894576  0.8714106204668965
  0.9935200949582068  0.1530041792770049  0.8942707513675998
  0.8449780125467043  0.6669469347573056  0.1302586147398728
  0.6616054458817544  0.8316688354491575  0.3768015385106551
  0.9897845780258550  0.4983096086243606  0.3772834264443503
  0.8316546694713551  0.6727756613139135  0.6283078058183946
  0.6764511653557790  0.8423925343045653  0.8759281713812541
  0.0038434628067989  0.5135702193925482  0.8654897064268070
  0.9972517434994259  0.8397083885257501  0.3778091845984903
  0.9927648448498871  0.8403183278369184  0.8754500033131549
  0.0822209513942553  0.9971216330631236  0.2522604167747176
  0.0791456286635892  0.9915852067433164  0.7548797714943305
  0.0785516199775813  0.3332175930716446  0.2500128132510753
  0.4212467265714963  0.0028329775079285  0.2595308252551831
  0.2483395866202258  0.1646433875068141  0.5082337041436702
  0.0786232410474526  0.3314583572854133  0.7521531637719221
  0.4242340887105982  0.9910507716914410  0.7365528946052109
  0.2471109797240203  0.1681002637240425  0.9947268570282191
  0.0813726960299803  0.6714201796586181  0.2497449065104149
  0.4027688393610376  0.3377980625619301  0.2616219665669419
  0.2481012415558297  0.5241931230468140  0.4847239884510088
  0.0864047370793486  0.6603804466705938  0.7510272847911637
  0.7500418414508587  0.0054843041902117  0.2582601485136493
  0.5871088855135227  0.1471178799413906  0.4999895769440457
  0.4184900560176743  0.3428507678476791  0.7317673779636422
  0.2450312627617777  0.4995403559196774  0.9920031449324611
  0.7494324875519069  0.9930285331936162  0.7600181405333117
  0.5852400382579575  0.1431895184180192  0.9876079012400112
  0.4169881558842334  0.6751406369280417  0.2389557748750093
  0.2488277155875878  0.8340830746856014  0.4886575080352529
  0.7389399235723104  0.3135187865534519  0.2684105288217751
  0.5785518668211438  0.5021349999438769  0.4511228483312735
  0.4270744411730121  0.6674622251764930  0.7343776181936192
  0.2487989148314256  0.8349882111493017  0.0057879256456062
  0.9159075884888637  0.1534476414733348  0.4923127191594077
  0.7460298914414878  0.3154735553398709  0.7584141112652318
  0.5911399621313365  0.5033934036981123  0.9959638467335878
  0.9183247634429250  0.1495840678225946  0.0101277135365052
  0.7510458204453698  0.6718524938833923  0.2657926495758929
  0.5788898023936824  0.8376527995022514  0.4886778197192356
  0.9184328846420016  0.5060970220271912  0.5002755287060552
  0.7590556114648592  0.6765191205203962  0.7466501935676177
  0.5799692108292192  0.8348107378459844  0.9896860831097740
  0.9164532352456334  0.5109465507481730  0.9995553443683818
  0.9211372298895952  0.8363743896774167  0.5039969501167434
  0.9230996103310858  0.8218364701769616  0.9844628998049032
  0.9988250784785251  0.1514905848459946  0.1373147358314881
  0.9983044936039818  0.1613174965790378  0.6119961763299315
  0.9965756848491338  0.5080295202428999  0.1271635872963799
  0.3342912366981992  0.1635526192183505  0.1347021774595802
  0.1508800398800858  0.3197015508197794  0.3796759552091160
  0.9964514302520300  0.5003512255716061  0.6178245447893289
  0.3286304966331102  0.1642602397428163  0.6215477639985920
  0.1508380552878634  0.3290438002867049  0.8763332625325191
  0.0036116952619594  0.8247357458032241  0.1285505737808919
  0.3407328300859120  0.5062772733460150  0.1198859886386785
  0.1671164528600997  0.6777602515011978  0.3783175637212963
  0.9946333807083292  0.8396572478883400  0.6270283074910807
  0.6834166908657906  0.1421074427721436  0.1282851995712306
  0.4830543774693012  0.3523664796239174  0.3871446059067409
  0.3469796818142967  0.5207353225961882  0.6116500581051554
  0.1553943841423546  0.6592150433032202  0.8632353863814330
  0.6717917591950879  0.1575739761845583  0.6246327420302791
  0.5098549744151697  0.3422423976002662  0.8724389319911410
  0.3422300096945463  0.8359127502275570  0.1355591409395416
  0.1631583431393722  0.0020079755893079  0.3770585654001266
  0.6720059796020976  0.4946330853130547  0.1302810205390585
  0.4983210132677556  0.6712096000210437  0.3641635810903026
  0.3452893048068049  0.8381317886916335  0.6216262301167461
  0.1617305313862332  0.9939909912806542  0.8791081334224700
  0.8256444211329992  0.3360505129356639  0.3866607266303106
  0.6946955782619071  0.4991913305816951  0.6269755701368069
  0.5062597167810452  0.6708861417140497  0.8597087401737369
  0.8282901270506642  0.3438745591802714  0.8782824537501526
  0.6639226454992126  0.8503041327707095  0.1342028630980465
  0.5023348618576122  0.0008674903993509  0.3701583650182769
  0.8298119035214810  0.6661462081165155  0.3802492274706637
  0.6767007049171312  0.8347447562066677  0.6281737137046477
  0.5058755700036173  0.9880258989687292  0.8718711968341424
  0.8468481355020430  0.6687330633740629  0.8757161939494438
  0.8345670027404779  0.0112795650471895  0.3712105651847253
  0.8362969226555848  0.9778822484223468  0.8867384548933757
  0.9925992672043478  0.0792107701965676  0.2481261439073492
  0.9974197630850696  0.0673145512059889  0.7569167585559029
  0.9926975022608531  0.4189703054412632  0.2643891111754044
  0.3363089342239505  0.0885168681318191  0.2521320934951277
  0.1526840427126430  0.2481466114657280  0.4808577835886823
  0.9952871217790005  0.4165244805277410  0.7417906250835387
  0.3352866700294754  0.0801269299750373  0.7479911657864093
  0.1631446418747586  0.2494814108142904  0.0207699515856135
  0.9989988862807735  0.7510084506175332  0.2375074838588702
  0.3464272514199109  0.4246989700574773  0.2606050339748549
  0.1495694659691935  0.5864783294286084  0.5025783169600544
  0.9928989110903501  0.7460385931127931  0.7524295285056937
  0.6795201170750929  0.0869095616663316  0.2303499986744413
  0.4754099185667044  0.2502174911487245  0.4999364436836160
  0.3529113104602359  0.4166934969520710  0.7669848755730300
  0.1619625310823380  0.5799168553430931  0.9867877475579050
  0.6698910003941307  0.0701209109156480  0.7611749954692257
  0.4906400117793979  0.2493615243648861  0.9913524816676613
  0.3326609122132425  0.7572615961791058  0.2493324959386811
  0.1604250196037782  0.9172523148677314  0.4974181223134337
  0.6774621339878308  0.4219159862811068  0.2568511589953957
  0.4890559213087329  0.5914449241608821  0.4627062501491537
  0.3449157111939058  0.7577756301899043  0.7382042791394738
  0.1511058437483612  0.9119612580577012  0.0020219710014260
  0.8214442203155841  0.2490218696803908  0.4977135902738539
  0.6885697019627770  0.4153666496215394  0.7758915516031664
  0.4980869978431599  0.5810397458517826  0.9829335398045842
  0.8286889245424334  0.2431732771103725  0.0069806128208043
  0.6662763189200973  0.7515911467313501  0.2647340843523409
  0.5083918536311600  0.9166204527543229  0.5040622309025125
  0.8386893917182050  0.5883297101081979  0.4950893003565113
  0.6769908157592397  0.7527893636676026  0.7563370727706058
  0.5137422292004175  0.9142912827807663  0.9922777262017846
  0.8483495384727817  0.5849991028723309  0.0014700202887425
  0.8341525712192421  0.9168832203392654  0.5135185195435525
  0.8334069864985310  0.9156633267243848  0.9828732312874209
 
  0.00000000E+00  0.00000000E+00  0.00000000E+00
  0.00000000E+00  0.00000000E+00  0.00000000E+00
  0.00000000E+00  0.00000000E+00  0.00000000E+00
  0.00000000E+00  0.00000000E+00  0.00000000E+00
  0.00000000E+00  0.00000000E+00  0.00000000E+00
  0.00000000E+00  0.00000000E+00  0.00000000E+00
  0.00000000E+00  0.00000000E+00  0.00000000E+00
  0.00000000E+00  0.00000000E+00  0.00000000E+00
  0.00000000E+00  0.00000000E+00  0.00000000E+00
  0.00000000E+00  0.00000000E+00  0.00000000E+00
  0.00000000E+00  0.00000000E+00  0.00000000E+00
  0.00000000E+00  0.00000000E+00  0.00000000E+00
  0.00000000E+00  0.00000000E+00  0.00000000E+00
  0.00000000E+00  0.00000000E+00  0.00000000E+00
  0.00000000E+00  0.00000000E+00  0.00000000E+00
  0.00000000E+00  0.00000000E+00  0.00000000E+00
  0.00000000E+00  0.00000000E+00  0.00000000E+00
  0.00000000E+00  0.00000000E+00  0.00000000E+00
  0.00000000E+00  0.00000000E+00  0.00000000E+00
  0.00000000E+00  0.00000000E+00  0.00000000E+00
  0.00000000E+00  0.00000000E+00  0.00000000E+00
  0.00000000E+00  0.00000000E+00  0.00000000E+00
  0.00000000E+00  0.00000000E+00  0.00000000E+00
  0.00000000E+00  0.00000000E+00  0.00000000E+00
  0.00000000E+00  0.00000000E+00  0.00000000E+00
  0.00000000E+00  0.00000000E+00  0.00000000E+00
  0.00000000E+00  0.00000000E+00  0.00000000E+00
  0.00000000E+00  0.00000000E+00  0.00000000E+00
  0.00000000E+00  0.00000000E+00  0.00000000E+00
  0.00000000E+00  0.00000000E+00  0.00000000E+00
  0.00000000E+00  0.00000000E+00  0.00000000E+00
  0.00000000E+00  0.00000000E+00  0.00000000E+00
  0.00000000E+00  0.00000000E+00  0.00000000E+00
  0.00000000E+00  0.00000000E+00  0.00000000E+00
  0.00000000E+00  0.00000000E+00  0.00000000E+00
  0.00000000E+00  0.00000000E+00  0.00000000E+00
  0.00000000E+00  0.00000000E+00  0.00000000E+00
  0.00000000E+00  0.00000000E+00  0.00000000E+00
  0.00000000E+00  0.00000000E+00  0.00000000E+00
  0.00000000E+00  0.00000000E+00  0.00000000E+00
  0.00000000E+00  0.00000000E+00  0.00000000E+00
  0.00000000E+00  0.00000000E+00  0.00000000E+00
  0.00000000E+00  0.00000000E+00  0.00000000E+00
  0.00000000E+00  0.00000000E+00  0.00000000E+00
  0.00000000E+00  0.00000000E+00  0.00000000E+00
  0.00000000E+00  0.00000000E+00  0.00000000E+00
  0.00000000E+00  0.00000000E+00  0.00000000E+00
  0.00000000E+00  0.00000000E+00  0.00000000E+00
  0.00000000E+00  0.00000000E+00  0.00000000E+00
  0.00000000E+00  0.00000000E+00  0.00000000E+00
  0.00000000E+00  0.00000000E+00  0.00000000E+00
  0.00000000E+00  0.00000000E+00  0.00000000E+00
  0.00000000E+00  0.00000000E+00  0.00000000E+00
  0.00000000E+00  0.00000000E+00  0.00000000E+00
  0.00000000E+00  0.00000000E+00  0.00000000E+00
  0.00000000E+00  0.00000000E+00  0.00000000E+00
  0.00000000E+00  0.00000000E+00  0.00000000E+00
  0.00000000E+00  0.00000000E+00  0.00000000E+00
  0.00000000E+00  0.00000000E+00  0.00000000E+00
  0.00000000E+00  0.00000000E+00  0.00000000E+00
  0.00000000E+00  0.00000000E+00  0.00000000E+00
  0.00000000E+00  0.00000000E+00  0.00000000E+00
  0.00000000E+00  0.00000000E+00  0.00000000E+00
  0.00000000E+00  0.00000000E+00  0.00000000E+00
  0.00000000E+00  0.00000000E+00  0.00000000E+00
  0.00000000E+00  0.00000000E+00  0.00000000E+00
  0.00000000E+00  0.00000000E+00  0.00000000E+00
  0.00000000E+00  0.00000000E+00  0.00000000E+00
  0.00000000E+00  0.00000000E+00  0.00000000E+00
  0.00000000E+00  0.00000000E+00  0.00000000E+00
  0.00000000E+00  0.00000000E+00  0.00000000E+00
  0.00000000E+00  0.00000000E+00  0.00000000E+00
  0.00000000E+00  0.00000000E+00  0.00000000E+00
  0.00000000E+00  0.00000000E+00  0.00000000E+00
  0.00000000E+00  0.00000000E+00  0.00000000E+00
  0.00000000E+00  0.00000000E+00  0.00000000E+00
  0.00000000E+00  0.00000000E+00  0.00000000E+00
  0.00000000E+00  0.00000000E+00  0.00000000E+00
  0.00000000E+00  0.00000000E+00  0.00000000E+00
  0.00000000E+00  0.00000000E+00  0.00000000E+00
  0.00000000E+00  0.00000000E+00  0.00000000E+00
  0.00000000E+00  0.00000000E+00  0.00000000E+00
  0.00000000E+00  0.00000000E+00  0.00000000E+00
  0.00000000E+00  0.00000000E+00  0.00000000E+00
  0.00000000E+00  0.00000000E+00  0.00000000E+00
  0.00000000E+00  0.00000000E+00  0.00000000E+00
  0.00000000E+00  0.00000000E+00  0.00000000E+00
  0.00000000E+00  0.00000000E+00  0.00000000E+00
  0.00000000E+00  0.00000000E+00  0.00000000E+00
  0.00000000E+00  0.00000000E+00  0.00000000E+00
  0.00000000E+00  0.00000000E+00  0.00000000E+00
  0.00000000E+00  0.00000000E+00  0.00000000E+00
  0.00000000E+00  0.00000000E+00  0.00000000E+00
  0.00000000E+00  0.00000000E+00  0.00000000E+00
  0.00000000E+00  0.00000000E+00  0.00000000E+00
  0.00000000E+00  0.00000000E+00  0.00000000E+00
  0.00000000E+00  0.00000000E+00  0.00000000E+00
  0.00000000E+00  0.00000000E+00  0.00000000E+00
  0.00000000E+00  0.00000000E+00  0.00000000E+00
  0.00000000E+00  0.00000000E+00  0.00000000E+00
  0.00000000E+00  0.00000000E+00  0.00000000E+00
  0.00000000E+00  0.00000000E+00  0.00000000E+00
  0.00000000E+00  0.00000000E+00  0.00000000E+00
  0.00000000E+00  0.00000000E+00  0.00000000E+00
  0.00000000E+00  0.00000000E+00  0.00000000E+00
  0.00000000E+00  0.00000000E+00  0.00000000E+00
  0.00000000E+00  0.00000000E+00  0.00000000E+00
  0.00000000E+00  0.00000000E+00  0.00000000E+00
  0.00000000E+00  0.00000000E+00  0.00000000E+00
  0.00000000E+00  0.00000000E+00  0.00000000E+00
  0.00000000E+00  0.00000000E+00  0.00000000E+00
  0.00000000E+00  0.00000000E+00  0.00000000E+00
  0.00000000E+00  0.00000000E+00  0.00000000E+00
  0.00000000E+00  0.00000000E+00  0.00000000E+00
  0.00000000E+00  0.00000000E+00  0.00000000E+00
  0.00000000E+00  0.00000000E+00  0.00000000E+00
  0.00000000E+00  0.00000000E+00  0.00000000E+00
  0.00000000E+00  0.00000000E+00  0.00000000E+00
  0.00000000E+00  0.00000000E+00  0.00000000E+00
  0.00000000E+00  0.00000000E+00  0.00000000E+00
  0.00000000E+00  0.00000000E+00  0.00000000E+00
  0.00000000E+00  0.00000000E+00  0.00000000E+00
  0.00000000E+00  0.00000000E+00  0.00000000E+00
  0.00000000E+00  0.00000000E+00  0.00000000E+00
  0.00000000E+00  0.00000000E+00  0.00000000E+00
  0.00000000E+00  0.00000000E+00  0.00000000E+00
  0.00000000E+00  0.00000000E+00  0.00000000E+00
  0.00000000E+00  0.00000000E+00  0.00000000E+00
  0.00000000E+00  0.00000000E+00  0.00000000E+00
  0.00000000E+00  0.00000000E+00  0.00000000E+00
  0.00000000E+00  0.00000000E+00  0.00000000E+00
  0.00000000E+00  0.00000000E+00  0.00000000E+00
  0.00000000E+00  0.00000000E+00  0.00000000E+00
  0.00000000E+00  0.00000000E+00  0.00000000E+00
  0.00000000E+00  0.00000000E+00  0.00000000E+00
  0.00000000E+00  0.00000000E+00  0.00000000E+00
  0.00000000E+00  0.00000000E+00  0.00000000E+00
  0.00000000E+00  0.00000000E+00  0.00000000E+00
  0.00000000E+00  0.00000000E+00  0.00000000E+00
  0.00000000E+00  0.00000000E+00  0.00000000E+00
  0.00000000E+00  0.00000000E+00  0.00000000E+00
  0.00000000E+00  0.00000000E+00  0.00000000E+00
  0.00000000E+00  0.00000000E+00  0.00000000E+00
  0.00000000E+00  0.00000000E+00  0.00000000E+00
  0.00000000E+00  0.00000000E+00  0.00000000E+00
  0.00000000E+00  0.00000000E+00  0.00000000E+00
  0.00000000E+00  0.00000000E+00  0.00000000E+00
  0.00000000E+00  0.00000000E+00  0.00000000E+00
  0.00000000E+00  0.00000000E+00  0.00000000E+00
  0.00000000E+00  0.00000000E+00  0.00000000E+00
  0.00000000E+00  0.00000000E+00  0.00000000E+00
  0.00000000E+00  0.00000000E+00  0.00000000E+00
  0.00000000E+00  0.00000000E+00  0.00000000E+00
  0.00000000E+00  0.00000000E+00  0.00000000E+00
  0.00000000E+00  0.00000000E+00  0.00000000E+00
  0.00000000E+00  0.00000000E+00  0.00000000E+00
  0.00000000E+00  0.00000000E+00  0.00000000E+00
  0.00000000E+00  0.00000000E+00  0.00000000E+00
  0.00000000E+00  0.00000000E+00  0.00000000E+00
  0.00000000E+00  0.00000000E+00  0.00000000E+00
  0.00000000E+00  0.00000000E+00  0.00000000E+00
  0.00000000E+00  0.00000000E+00  0.00000000E+00
  0.00000000E+00  0.00000000E+00  0.00000000E+00
  0.00000000E+00  0.00000000E+00  0.00000000E+00
  0.00000000E+00  0.00000000E+00  0.00000000E+00
  0.00000000E+00  0.00000000E+00  0.00000000E+00
  0.00000000E+00  0.00000000E+00  0.00000000E+00
  0.00000000E+00  0.00000000E+00  0.00000000E+00
  0.00000000E+00  0.00000000E+00  0.00000000E+00
  0.00000000E+00  0.00000000E+00  0.00000000E+00
  0.00000000E+00  0.00000000E+00  0.00000000E+00
  0.00000000E+00  0.00000000E+00  0.00000000E+00
  0.00000000E+00  0.00000000E+00  0.00000000E+00
  0.00000000E+00  0.00000000E+00  0.00000000E+00
  0.00000000E+00  0.00000000E+00  0.00000000E+00
  0.00000000E+00  0.00000000E+00  0.00000000E+00
  0.00000000E+00  0.00000000E+00  0.00000000E+00
  0.00000000E+00  0.00000000E+00  0.00000000E+00
  0.00000000E+00  0.00000000E+00  0.00000000E+00
  0.00000000E+00  0.00000000E+00  0.00000000E+00
  0.00000000E+00  0.00000000E+00  0.00000000E+00
  0.00000000E+00  0.00000000E+00  0.00000000E+00
  0.00000000E+00  0.00000000E+00  0.00000000E+00
  0.00000000E+00  0.00000000E+00  0.00000000E+00
  0.00000000E+00  0.00000000E+00  0.00000000E+00
  0.00000000E+00  0.00000000E+00  0.00000000E+00
  0.00000000E+00  0.00000000E+00  0.00000000E+00
  0.00000000E+00  0.00000000E+00  0.00000000E+00
  0.00000000E+00  0.00000000E+00  0.00000000E+00
  0.00000000E+00  0.00000000E+00  0.00000000E+00
  0.00000000E+00  0.00000000E+00  0.00000000E+00
  0.00000000E+00  0.00000000E+00  0.00000000E+00
  0.00000000E+00  0.00000000E+00  0.00000000E+00
  0.00000000E+00  0.00000000E+00  0.00000000E+00
  0.00000000E+00  0.00000000E+00  0.00000000E+00
  0.00000000E+00  0.00000000E+00  0.00000000E+00
  0.00000000E+00  0.00000000E+00  0.00000000E+00
  0.00000000E+00  0.00000000E+00  0.00000000E+00
  0.00000000E+00  0.00000000E+00  0.00000000E+00
  0.00000000E+00  0.00000000E+00  0.00000000E+00
  0.00000000E+00  0.00000000E+00  0.00000000E+00
  0.00000000E+00  0.00000000E+00  0.00000000E+00
  0.00000000E+00  0.00000000E+00  0.00000000E+00
  0.00000000E+00  0.00000000E+00  0.00000000E+00
  0.00000000E+00  0.00000000E+00  0.00000000E+00
  0.00000000E+00  0.00000000E+00  0.00000000E+00
  0.00000000E+00  0.00000000E+00  0.00000000E+00
  0.00000000E+00  0.00000000E+00  0.00000000E+00
  0.00000000E+00  0.00000000E+00  0.00000000E+00
  0.00000000E+00  0.00000000E+00  0.00000000E+00
  0.00000000E+00  0.00000000E+00  0.00000000E+00
  0.00000000E+00  0.00000000E+00  0.00000000E+00
  0.00000000E+00  0.00000000E+00  0.00000000E+00
  0.00000000E+00  0.00000000E+00  0.00000000E+00
  0.00000000E+00  0.00000000E+00  0.00000000E+00
  0.00000000E+00  0.00000000E+00  0.00000000E+00
  0.00000000E+00  0.00000000E+00  0.00000000E+00
  0.00000000E+00  0.00000000E+00  0.00000000E+00
  0.00000000E+00  0.00000000E+00  0.00000000E+00
  0.00000000E+00  0.00000000E+00  0.00000000E+00
  0.00000000E+00  0.00000000E+00  0.00000000E+00
  0.00000000E+00  0.00000000E+00  0.00000000E+00
  0.00000000E+00  0.00000000E+00  0.00000000E+00
  0.00000000E+00  0.00000000E+00  0.00000000E+00
  0.00000000E+00  0.00000000E+00  0.00000000E+00
  0.00000000E+00  0.00000000E+00  0.00000000E+00
  0.00000000E+00  0.00000000E+00  0.00000000E+00
  0.00000000E+00  0.00000000E+00  0.00000000E+00
  0.00000000E+00  0.00000000E+00  0.00000000E+00
  0.00000000E+00  0.00000000E+00  0.00000000E+00
  0.00000000E+00  0.00000000E+00  0.00000000E+00
  0.00000000E+00  0.00000000E+00  0.00000000E+00
  0.00000000E+00  0.00000000E+00  0.00000000E+00
  0.00000000E+00  0.00000000E+00  0.00000000E+00
  0.00000000E+00  0.00000000E+00  0.00000000E+00
  0.00000000E+00  0.00000000E+00  0.00000000E+00
  0.00000000E+00  0.00000000E+00  0.00000000E+00
  0.00000000E+00  0.00000000E+00  0.00000000E+00
  0.00000000E+00  0.00000000E+00  0.00000000E+00
  0.00000000E+00  0.00000000E+00  0.00000000E+00
  0.00000000E+00  0.00000000E+00  0.00000000E+00
  0.00000000E+00  0.00000000E+00  0.00000000E+00
  0.00000000E+00  0.00000000E+00  0.00000000E+00
  0.00000000E+00  0.00000000E+00  0.00000000E+00
  0.00000000E+00  0.00000000E+00  0.00000000E+00
  0.00000000E+00  0.00000000E+00  0.00000000E+00
  0.00000000E+00  0.00000000E+00  0.00000000E+00
  0.00000000E+00  0.00000000E+00  0.00000000E+00
  0.00000000E+00  0.00000000E+00  0.00000000E+00
  0.00000000E+00  0.00000000E+00  0.00000000E+00
  0.00000000E+00  0.00000000E+00  0.00000000E+00
  0.00000000E+00  0.00000000E+00  0.00000000E+00
