generated by phonopy                    
   1.00000000000000     
     0.0000000000000000    3.2216130060932393    3.2216130060933130
     3.2216130060932708    0.0000000000000000    3.2216130060933130
     3.2216130060932708    3.2216130060932393    0.0000000000000000
   Na   Hf   K    Sc   H 
     1     1     1     1    24
Direct
  0.2500000000000000  0.2500000000000000  0.2500000000000000
  0.7500000000000000  0.7500000000000000  0.7500000000000000
  0.0000000000000000  0.0000000000000000  0.0000000000000000
  0.5000000000000000  0.5000000000000000  0.5000000000000000
  0.1410722011471890  0.8847781248248268  0.6132826904453310
  0.8847781248248268  0.1410722011471890  0.3608669835826461
  0.6132826904453310  0.3608669835826461  0.1410722011471890
  0.3608669835826461  0.6132826904453310  0.8847781248248268
  0.6132826904453310  0.1410722011471890  0.8847781248248268
  0.3608669835826461  0.8847781248248268  0.1410722011471890
  0.1410722011471890  0.6132826904453310  0.3608669835826461
  0.8847781248248268  0.3608669835826461  0.6132826904453310
  0.8847781248248268  0.6132826904453310  0.1410722011471890
  0.1410722011471890  0.3608669835826461  0.8847781248248268
  0.3608669835826461  0.1410722011471890  0.6132826904453310
  0.6132826904453310  0.8847781248248268  0.3608669835826461
  0.1410722011471890  0.3608669835826461  0.6132826904453310
  0.3608669835826461  0.1410722011471890  0.8847781248248268
  0.6132826904453310  0.8847781248248268  0.1410722011471890
  0.8847781248248268  0.6132826904453310  0.3608669835826461
  0.6132826904453310  0.1410722011471890  0.3608669835826461
  0.8847781248248268  0.3608669835826461  0.1410722011471890
  0.1410722011471890  0.6132826904453310  0.8847781248248268
  0.3608669835826461  0.8847781248248268  0.6132826904453310
  0.3608669835826461  0.6132826904453310  0.1410722011471890
  0.1410722011471890  0.8847781248248268  0.3608669835826461
  0.8847781248248268  0.1410722011471890  0.6132826904453310
  0.6132826904453310  0.3608669835826461  0.8847781248248268
 
  0.00000000E+00  0.00000000E+00  0.00000000E+00
  0.00000000E+00  0.00000000E+00  0.00000000E+00
  0.00000000E+00  0.00000000E+00  0.00000000E+00
  0.00000000E+00  0.00000000E+00  0.00000000E+00
  0.00000000E+00  0.00000000E+00  0.00000000E+00
  0.00000000E+00  0.00000000E+00  0.00000000E+00
  0.00000000E+00  0.00000000E+00  0.00000000E+00
  0.00000000E+00  0.00000000E+00  0.00000000E+00
  0.00000000E+00  0.00000000E+00  0.00000000E+00
  0.00000000E+00  0.00000000E+00  0.00000000E+00
  0.00000000E+00  0.00000000E+00  0.00000000E+00
  0.00000000E+00  0.00000000E+00  0.00000000E+00
  0.00000000E+00  0.00000000E+00  0.00000000E+00
  0.00000000E+00  0.00000000E+00  0.00000000E+00
  0.00000000E+00  0.00000000E+00  0.00000000E+00
  0.00000000E+00  0.00000000E+00  0.00000000E+00
  0.00000000E+00  0.00000000E+00  0.00000000E+00
  0.00000000E+00  0.00000000E+00  0.00000000E+00
  0.00000000E+00  0.00000000E+00  0.00000000E+00
  0.00000000E+00  0.00000000E+00  0.00000000E+00
  0.00000000E+00  0.00000000E+00  0.00000000E+00
  0.00000000E+00  0.00000000E+00  0.00000000E+00
  0.00000000E+00  0.00000000E+00  0.00000000E+00
  0.00000000E+00  0.00000000E+00  0.00000000E+00
  0.00000000E+00  0.00000000E+00  0.00000000E+00
  0.00000000E+00  0.00000000E+00  0.00000000E+00
  0.00000000E+00  0.00000000E+00  0.00000000E+00
  0.00000000E+00  0.00000000E+00  0.00000000E+00
