generated by phonopy                    
   1.00000000000000     
     0.0000000000000000    3.3105534588860190    3.3105534588860732
     3.3105534588860412    0.0000000000000000    3.3105534588860732
     3.3105534588860412    3.3105534588860190    0.0000000000000000
   Ca   Hf   Sc   Ce   H 
     1     1     1     1    24
Direct
  0.2500000000000000  0.2500000000000000  0.2500000000000000
  0.7500000000000000  0.7500000000000000  0.7500000000000000
  0.0000000000000000  0.0000000000000000  0.0000000000000000
  0.5000000000000000  0.5000000000000000  0.5000000000000000
  0.1255317919738062  0.8843900196707253  0.6311406575047940
  0.8843900196707253  0.1255317919738062  0.3589375308506746
  0.6311406575047940  0.3589375308506746  0.1255317919738062
  0.3589375308506746  0.6311406575047940  0.8843900196707253
  0.6311406575047940  0.1255317919738062  0.8843900196707253
  0.3589375308506746  0.8843900196707253  0.1255317919738062
  0.1255317919738062  0.6311406575047940  0.3589375308506746
  0.8843900196707253  0.3589375308506746  0.6311406575047940
  0.8843900196707253  0.6311406575047940  0.1255317919738062
  0.1255317919738062  0.3589375308506746  0.8843900196707253
  0.3589375308506746  0.1255317919738062  0.6311406575047940
  0.6311406575047940  0.8843900196707253  0.3589375308506746
  0.1255317919738062  0.3589375308506746  0.6311406575047940
  0.3589375308506746  0.1255317919738062  0.8843900196707253
  0.6311406575047940  0.8843900196707253  0.1255317919738062
  0.8843900196707253  0.6311406575047940  0.3589375308506746
  0.6311406575047940  0.1255317919738062  0.3589375308506746
  0.8843900196707253  0.3589375308506746  0.1255317919738062
  0.1255317919738062  0.6311406575047940  0.8843900196707253
  0.3589375308506746  0.8843900196707253  0.6311406575047940
  0.3589375308506746  0.6311406575047940  0.1255317919738062
  0.1255317919738062  0.8843900196707253  0.3589375308506746
  0.8843900196707253  0.1255317919738062  0.6311406575047940
  0.6311406575047940  0.3589375308506746  0.8843900196707253
 
  0.00000000E+00  0.00000000E+00  0.00000000E+00
  0.00000000E+00  0.00000000E+00  0.00000000E+00
  0.00000000E+00  0.00000000E+00  0.00000000E+00
  0.00000000E+00  0.00000000E+00  0.00000000E+00
  0.00000000E+00  0.00000000E+00  0.00000000E+00
  0.00000000E+00  0.00000000E+00  0.00000000E+00
  0.00000000E+00  0.00000000E+00  0.00000000E+00
  0.00000000E+00  0.00000000E+00  0.00000000E+00
  0.00000000E+00  0.00000000E+00  0.00000000E+00
  0.00000000E+00  0.00000000E+00  0.00000000E+00
  0.00000000E+00  0.00000000E+00  0.00000000E+00
  0.00000000E+00  0.00000000E+00  0.00000000E+00
  0.00000000E+00  0.00000000E+00  0.00000000E+00
  0.00000000E+00  0.00000000E+00  0.00000000E+00
  0.00000000E+00  0.00000000E+00  0.00000000E+00
  0.00000000E+00  0.00000000E+00  0.00000000E+00
  0.00000000E+00  0.00000000E+00  0.00000000E+00
  0.00000000E+00  0.00000000E+00  0.00000000E+00
  0.00000000E+00  0.00000000E+00  0.00000000E+00
  0.00000000E+00  0.00000000E+00  0.00000000E+00
  0.00000000E+00  0.00000000E+00  0.00000000E+00
  0.00000000E+00  0.00000000E+00  0.00000000E+00
  0.00000000E+00  0.00000000E+00  0.00000000E+00
  0.00000000E+00  0.00000000E+00  0.00000000E+00
  0.00000000E+00  0.00000000E+00  0.00000000E+00
  0.00000000E+00  0.00000000E+00  0.00000000E+00
  0.00000000E+00  0.00000000E+00  0.00000000E+00
  0.00000000E+00  0.00000000E+00  0.00000000E+00
