generated by phonopy                    
   1.00000000000000     
     0.0000000000000000    3.2346609395424442    3.2346609395425219
     3.2346609395424766    0.0000000000000000    3.2346609395425219
     3.2346609395424766    3.2346609395424442    0.0000000000000000
   Ca   Sc   Ti   Hf   H 
     1     1     1     1    24
Direct
  0.2500000000000000  0.2500000000000000  0.2500000000000000
  0.7500000000000000  0.7500000000000000  0.7500000000000000
  0.0000000000000000  0.0000000000000000  0.0000000000000000
  0.5000000000000000  0.5000000000000000  0.5000000000000000
  0.1151921593064174  0.8833885957076788  0.6284638480632765
  0.8833885957076788  0.1151921593064174  0.3729553969226274
  0.6284638480632765  0.3729553969226274  0.1151921593064174
  0.3729553969226274  0.6284638480632765  0.8833885957076788
  0.6284638480632765  0.1151921593064174  0.8833885957076788
  0.3729553969226274  0.8833885957076788  0.1151921593064174
  0.1151921593064174  0.6284638480632765  0.3729553969226274
  0.8833885957076788  0.3729553969226274  0.6284638480632765
  0.8833885957076788  0.6284638480632765  0.1151921593064174
  0.1151921593064174  0.3729553969226274  0.8833885957076788
  0.3729553969226274  0.1151921593064174  0.6284638480632765
  0.6284638480632765  0.8833885957076788  0.3729553969226274
  0.1151921593064174  0.3729553969226274  0.6284638480632765
  0.3729553969226274  0.1151921593064174  0.8833885957076788
  0.6284638480632765  0.8833885957076788  0.1151921593064174
  0.8833885957076788  0.6284638480632765  0.3729553969226274
  0.6284638480632765  0.1151921593064174  0.3729553969226274
  0.8833885957076788  0.3729553969226274  0.1151921593064174
  0.1151921593064174  0.6284638480632765  0.8833885957076788
  0.3729553969226274  0.8833885957076788  0.6284638480632765
  0.3729553969226274  0.6284638480632765  0.1151921593064174
  0.1151921593064174  0.8833885957076788  0.3729553969226274
  0.8833885957076788  0.1151921593064174  0.6284638480632765
  0.6284638480632765  0.3729553969226274  0.8833885957076788
 
  0.00000000E+00  0.00000000E+00  0.00000000E+00
  0.00000000E+00  0.00000000E+00  0.00000000E+00
  0.00000000E+00  0.00000000E+00  0.00000000E+00
  0.00000000E+00  0.00000000E+00  0.00000000E+00
  0.00000000E+00  0.00000000E+00  0.00000000E+00
  0.00000000E+00  0.00000000E+00  0.00000000E+00
  0.00000000E+00  0.00000000E+00  0.00000000E+00
  0.00000000E+00  0.00000000E+00  0.00000000E+00
  0.00000000E+00  0.00000000E+00  0.00000000E+00
  0.00000000E+00  0.00000000E+00  0.00000000E+00
  0.00000000E+00  0.00000000E+00  0.00000000E+00
  0.00000000E+00  0.00000000E+00  0.00000000E+00
  0.00000000E+00  0.00000000E+00  0.00000000E+00
  0.00000000E+00  0.00000000E+00  0.00000000E+00
  0.00000000E+00  0.00000000E+00  0.00000000E+00
  0.00000000E+00  0.00000000E+00  0.00000000E+00
  0.00000000E+00  0.00000000E+00  0.00000000E+00
  0.00000000E+00  0.00000000E+00  0.00000000E+00
  0.00000000E+00  0.00000000E+00  0.00000000E+00
  0.00000000E+00  0.00000000E+00  0.00000000E+00
  0.00000000E+00  0.00000000E+00  0.00000000E+00
  0.00000000E+00  0.00000000E+00  0.00000000E+00
  0.00000000E+00  0.00000000E+00  0.00000000E+00
  0.00000000E+00  0.00000000E+00  0.00000000E+00
  0.00000000E+00  0.00000000E+00  0.00000000E+00
  0.00000000E+00  0.00000000E+00  0.00000000E+00
  0.00000000E+00  0.00000000E+00  0.00000000E+00
  0.00000000E+00  0.00000000E+00  0.00000000E+00
