generated by phonopy                    
   1.00000000000000     
     0.0000000000000000    3.2828014802269530    3.2828014802270165
     3.2828014802269778    0.0000000000000000    3.2828014802270165
     3.2828014802269778    3.2828014802269530    0.0000000000000000
   K    Zr   Sc   Hf   H 
     1     1     1     1    24
Direct
  0.2500000000000000  0.2500000000000000  0.2500000000000000
  0.7500000000000000  0.7500000000000000  0.7500000000000000
  0.0000000000000000  0.0000000000000000  0.0000000000000000
  0.5000000000000000  0.5000000000000000  0.5000000000000000
  0.1204597926716247  0.8869555324712124  0.6249696007452243
  0.8869555324712124  0.1204597926716247  0.3676150741119386
  0.6249696007452243  0.3676150741119386  0.1204597926716247
  0.3676150741119386  0.6249696007452243  0.8869555324712124
  0.6249696007452243  0.1204597926716247  0.8869555324712124
  0.3676150741119386  0.8869555324712124  0.1204597926716247
  0.1204597926716247  0.6249696007452243  0.3676150741119386
  0.8869555324712124  0.3676150741119386  0.6249696007452243
  0.8869555324712124  0.6249696007452243  0.1204597926716247
  0.1204597926716247  0.3676150741119386  0.8869555324712124
  0.3676150741119386  0.1204597926716247  0.6249696007452243
  0.6249696007452243  0.8869555324712124  0.3676150741119386
  0.1204597926716247  0.3676150741119386  0.6249696007452243
  0.3676150741119386  0.1204597926716247  0.8869555324712124
  0.6249696007452243  0.8869555324712124  0.1204597926716247
  0.8869555324712124  0.6249696007452243  0.3676150741119386
  0.6249696007452243  0.1204597926716247  0.3676150741119386
  0.8869555324712124  0.3676150741119386  0.1204597926716247
  0.1204597926716247  0.6249696007452243  0.8869555324712124
  0.3676150741119386  0.8869555324712124  0.6249696007452243
  0.3676150741119386  0.6249696007452243  0.1204597926716247
  0.1204597926716247  0.8869555324712124  0.3676150741119386
  0.8869555324712124  0.1204597926716247  0.6249696007452243
  0.6249696007452243  0.3676150741119386  0.8869555324712124
 
  0.00000000E+00  0.00000000E+00  0.00000000E+00
  0.00000000E+00  0.00000000E+00  0.00000000E+00
  0.00000000E+00  0.00000000E+00  0.00000000E+00
  0.00000000E+00  0.00000000E+00  0.00000000E+00
  0.00000000E+00  0.00000000E+00  0.00000000E+00
  0.00000000E+00  0.00000000E+00  0.00000000E+00
  0.00000000E+00  0.00000000E+00  0.00000000E+00
  0.00000000E+00  0.00000000E+00  0.00000000E+00
  0.00000000E+00  0.00000000E+00  0.00000000E+00
  0.00000000E+00  0.00000000E+00  0.00000000E+00
  0.00000000E+00  0.00000000E+00  0.00000000E+00
  0.00000000E+00  0.00000000E+00  0.00000000E+00
  0.00000000E+00  0.00000000E+00  0.00000000E+00
  0.00000000E+00  0.00000000E+00  0.00000000E+00
  0.00000000E+00  0.00000000E+00  0.00000000E+00
  0.00000000E+00  0.00000000E+00  0.00000000E+00
  0.00000000E+00  0.00000000E+00  0.00000000E+00
  0.00000000E+00  0.00000000E+00  0.00000000E+00
  0.00000000E+00  0.00000000E+00  0.00000000E+00
  0.00000000E+00  0.00000000E+00  0.00000000E+00
  0.00000000E+00  0.00000000E+00  0.00000000E+00
  0.00000000E+00  0.00000000E+00  0.00000000E+00
  0.00000000E+00  0.00000000E+00  0.00000000E+00
  0.00000000E+00  0.00000000E+00  0.00000000E+00
  0.00000000E+00  0.00000000E+00  0.00000000E+00
  0.00000000E+00  0.00000000E+00  0.00000000E+00
  0.00000000E+00  0.00000000E+00  0.00000000E+00
  0.00000000E+00  0.00000000E+00  0.00000000E+00
