generated by phonopy                    
   1.00000000000000     
     0.0000000000000000    3.2976045291933742    3.2976045291934577
     3.2976045291934071    0.0000000000000000    3.2976045291934577
     3.2976045291934071    3.2976045291933742    0.0000000000000000
   Ca   Hf   Ti   Ce   H 
     1     1     1     1    24
Direct
  0.2500000000000000  0.2500000000000000  0.2500000000000000
  0.7500000000000000  0.7500000000000000  0.7500000000000000
  0.0000000000000000  0.0000000000000000  0.0000000000000000
  0.5000000000000000  0.5000000000000000  0.5000000000000000
  0.1238287040272255  0.8857191160163893  0.6311705629121036
  0.8857191160163893  0.1238287040272255  0.3592816170442816
  0.6311705629121036  0.3592816170442816  0.1238287040272255
  0.3592816170442816  0.6311705629121036  0.8857191160163893
  0.6311705629121036  0.1238287040272255  0.8857191160163893
  0.3592816170442816  0.8857191160163893  0.1238287040272255
  0.1238287040272255  0.6311705629121036  0.3592816170442816
  0.8857191160163893  0.3592816170442816  0.6311705629121036
  0.8857191160163893  0.6311705629121036  0.1238287040272255
  0.1238287040272255  0.3592816170442816  0.8857191160163893
  0.3592816170442816  0.1238287040272255  0.6311705629121036
  0.6311705629121036  0.8857191160163893  0.3592816170442816
  0.1238287040272255  0.3592816170442816  0.6311705629121036
  0.3592816170442816  0.1238287040272255  0.8857191160163893
  0.6311705629121036  0.8857191160163893  0.1238287040272255
  0.8857191160163893  0.6311705629121036  0.3592816170442816
  0.6311705629121036  0.1238287040272255  0.3592816170442816
  0.8857191160163893  0.3592816170442816  0.1238287040272255
  0.1238287040272255  0.6311705629121036  0.8857191160163893
  0.3592816170442816  0.8857191160163893  0.6311705629121036
  0.3592816170442816  0.6311705629121036  0.1238287040272255
  0.1238287040272255  0.8857191160163893  0.3592816170442816
  0.8857191160163893  0.1238287040272255  0.6311705629121036
  0.6311705629121036  0.3592816170442816  0.8857191160163893
 
  0.00000000E+00  0.00000000E+00  0.00000000E+00
  0.00000000E+00  0.00000000E+00  0.00000000E+00
  0.00000000E+00  0.00000000E+00  0.00000000E+00
  0.00000000E+00  0.00000000E+00  0.00000000E+00
  0.00000000E+00  0.00000000E+00  0.00000000E+00
  0.00000000E+00  0.00000000E+00  0.00000000E+00
  0.00000000E+00  0.00000000E+00  0.00000000E+00
  0.00000000E+00  0.00000000E+00  0.00000000E+00
  0.00000000E+00  0.00000000E+00  0.00000000E+00
  0.00000000E+00  0.00000000E+00  0.00000000E+00
  0.00000000E+00  0.00000000E+00  0.00000000E+00
  0.00000000E+00  0.00000000E+00  0.00000000E+00
  0.00000000E+00  0.00000000E+00  0.00000000E+00
  0.00000000E+00  0.00000000E+00  0.00000000E+00
  0.00000000E+00  0.00000000E+00  0.00000000E+00
  0.00000000E+00  0.00000000E+00  0.00000000E+00
  0.00000000E+00  0.00000000E+00  0.00000000E+00
  0.00000000E+00  0.00000000E+00  0.00000000E+00
  0.00000000E+00  0.00000000E+00  0.00000000E+00
  0.00000000E+00  0.00000000E+00  0.00000000E+00
  0.00000000E+00  0.00000000E+00  0.00000000E+00
  0.00000000E+00  0.00000000E+00  0.00000000E+00
  0.00000000E+00  0.00000000E+00  0.00000000E+00
  0.00000000E+00  0.00000000E+00  0.00000000E+00
  0.00000000E+00  0.00000000E+00  0.00000000E+00
  0.00000000E+00  0.00000000E+00  0.00000000E+00
  0.00000000E+00  0.00000000E+00  0.00000000E+00
  0.00000000E+00  0.00000000E+00  0.00000000E+00
