generated by phonopy                    
   1.00000000000000     
     0.0000000000000000    3.2918461509981620    3.2918461509982628
     3.2918461509982042    0.0000000000000000    3.2918461509982628
     3.2918461509982042    3.2918461509981620    0.0000000000000000
   K    Zr   Sc   Y    H 
     1     1     1     1    24
Direct
  0.2500000000000000  0.2500000000000000  0.2500000000000000
  0.7500000000000000  0.7500000000000000  0.7500000000000000
  0.0000000000000000  0.0000000000000000  0.0000000000000000
  0.5000000000000000  0.5000000000000000  0.5000000000000000
  0.1224032072890608  0.8852855374774649  0.6269392363072441
  0.8852855374774649  0.1224032072890608  0.3653720189262373
  0.6269392363072441  0.3653720189262373  0.1224032072890608
  0.3653720189262373  0.6269392363072441  0.8852855374774649
  0.6269392363072441  0.1224032072890608  0.8852855374774649
  0.3653720189262373  0.8852855374774649  0.1224032072890608
  0.1224032072890608  0.6269392363072441  0.3653720189262373
  0.8852855374774649  0.3653720189262373  0.6269392363072441
  0.8852855374774649  0.6269392363072441  0.1224032072890608
  0.1224032072890608  0.3653720189262373  0.8852855374774649
  0.3653720189262373  0.1224032072890608  0.6269392363072441
  0.6269392363072441  0.8852855374774649  0.3653720189262373
  0.1224032072890608  0.3653720189262373  0.6269392363072441
  0.3653720189262373  0.1224032072890608  0.8852855374774649
  0.6269392363072441  0.8852855374774649  0.1224032072890608
  0.8852855374774649  0.6269392363072441  0.3653720189262373
  0.6269392363072441  0.1224032072890608  0.3653720189262373
  0.8852855374774649  0.3653720189262373  0.1224032072890608
  0.1224032072890608  0.6269392363072441  0.8852855374774649
  0.3653720189262373  0.8852855374774649  0.6269392363072441
  0.3653720189262373  0.6269392363072441  0.1224032072890608
  0.1224032072890608  0.8852855374774649  0.3653720189262373
  0.8852855374774649  0.1224032072890608  0.6269392363072441
  0.6269392363072441  0.3653720189262373  0.8852855374774649
 
  0.00000000E+00  0.00000000E+00  0.00000000E+00
  0.00000000E+00  0.00000000E+00  0.00000000E+00
  0.00000000E+00  0.00000000E+00  0.00000000E+00
  0.00000000E+00  0.00000000E+00  0.00000000E+00
  0.00000000E+00  0.00000000E+00  0.00000000E+00
  0.00000000E+00  0.00000000E+00  0.00000000E+00
  0.00000000E+00  0.00000000E+00  0.00000000E+00
  0.00000000E+00  0.00000000E+00  0.00000000E+00
  0.00000000E+00  0.00000000E+00  0.00000000E+00
  0.00000000E+00  0.00000000E+00  0.00000000E+00
  0.00000000E+00  0.00000000E+00  0.00000000E+00
  0.00000000E+00  0.00000000E+00  0.00000000E+00
  0.00000000E+00  0.00000000E+00  0.00000000E+00
  0.00000000E+00  0.00000000E+00  0.00000000E+00
  0.00000000E+00  0.00000000E+00  0.00000000E+00
  0.00000000E+00  0.00000000E+00  0.00000000E+00
  0.00000000E+00  0.00000000E+00  0.00000000E+00
  0.00000000E+00  0.00000000E+00  0.00000000E+00
  0.00000000E+00  0.00000000E+00  0.00000000E+00
  0.00000000E+00  0.00000000E+00  0.00000000E+00
  0.00000000E+00  0.00000000E+00  0.00000000E+00
  0.00000000E+00  0.00000000E+00  0.00000000E+00
  0.00000000E+00  0.00000000E+00  0.00000000E+00
  0.00000000E+00  0.00000000E+00  0.00000000E+00
  0.00000000E+00  0.00000000E+00  0.00000000E+00
  0.00000000E+00  0.00000000E+00  0.00000000E+00
  0.00000000E+00  0.00000000E+00  0.00000000E+00
  0.00000000E+00  0.00000000E+00  0.00000000E+00
