generated by phonopy                    
   1.00000000000000     
     0.0000000000000000    3.3105698901855263    3.3105698901856133
     3.3105698901855618    0.0000000000000000    3.3105698901856133
     3.3105698901855618    3.3105698901855263    0.0000000000000000
   Na   Zr   Sc   Y    H 
     1     1     1     1    24
Direct
  0.2500000000000000  0.2500000000000000  0.2500000000000000
  0.7500000000000000  0.7500000000000000  0.7500000000000000
  0.0000000000000000  0.0000000000000000  0.0000000000000000
  0.5000000000000000  0.5000000000000000  0.5000000000000000
  0.1308056993429645  0.8913242770392387  0.6184190630774538
  0.8913242770392387  0.1308056993429645  0.3594509605403502
  0.6184190630774538  0.3594509605403502  0.1308056993429645
  0.3594509605403502  0.6184190630774538  0.8913242770392387
  0.6184190630774538  0.1308056993429645  0.8913242770392387
  0.3594509605403502  0.8913242770392387  0.1308056993429645
  0.1308056993429645  0.6184190630774538  0.3594509605403502
  0.8913242770392387  0.3594509605403502  0.6184190630774538
  0.8913242770392387  0.6184190630774538  0.1308056993429645
  0.1308056993429645  0.3594509605403502  0.8913242770392387
  0.3594509605403502  0.1308056993429645  0.6184190630774538
  0.6184190630774538  0.8913242770392387  0.3594509605403502
  0.1308056993429645  0.3594509605403502  0.6184190630774538
  0.3594509605403502  0.1308056993429645  0.8913242770392387
  0.6184190630774538  0.8913242770392387  0.1308056993429645
  0.8913242770392387  0.6184190630774538  0.3594509605403502
  0.6184190630774538  0.1308056993429645  0.3594509605403502
  0.8913242770392387  0.3594509605403502  0.1308056993429645
  0.1308056993429645  0.6184190630774538  0.8913242770392387
  0.3594509605403502  0.8913242770392387  0.6184190630774538
  0.3594509605403502  0.6184190630774538  0.1308056993429645
  0.1308056993429645  0.8913242770392387  0.3594509605403502
  0.8913242770392387  0.1308056993429645  0.6184190630774538
  0.6184190630774538  0.3594509605403502  0.8913242770392387
 
  0.00000000E+00  0.00000000E+00  0.00000000E+00
  0.00000000E+00  0.00000000E+00  0.00000000E+00
  0.00000000E+00  0.00000000E+00  0.00000000E+00
  0.00000000E+00  0.00000000E+00  0.00000000E+00
  0.00000000E+00  0.00000000E+00  0.00000000E+00
  0.00000000E+00  0.00000000E+00  0.00000000E+00
  0.00000000E+00  0.00000000E+00  0.00000000E+00
  0.00000000E+00  0.00000000E+00  0.00000000E+00
  0.00000000E+00  0.00000000E+00  0.00000000E+00
  0.00000000E+00  0.00000000E+00  0.00000000E+00
  0.00000000E+00  0.00000000E+00  0.00000000E+00
  0.00000000E+00  0.00000000E+00  0.00000000E+00
  0.00000000E+00  0.00000000E+00  0.00000000E+00
  0.00000000E+00  0.00000000E+00  0.00000000E+00
  0.00000000E+00  0.00000000E+00  0.00000000E+00
  0.00000000E+00  0.00000000E+00  0.00000000E+00
  0.00000000E+00  0.00000000E+00  0.00000000E+00
  0.00000000E+00  0.00000000E+00  0.00000000E+00
  0.00000000E+00  0.00000000E+00  0.00000000E+00
  0.00000000E+00  0.00000000E+00  0.00000000E+00
  0.00000000E+00  0.00000000E+00  0.00000000E+00
  0.00000000E+00  0.00000000E+00  0.00000000E+00
  0.00000000E+00  0.00000000E+00  0.00000000E+00
  0.00000000E+00  0.00000000E+00  0.00000000E+00
  0.00000000E+00  0.00000000E+00  0.00000000E+00
  0.00000000E+00  0.00000000E+00  0.00000000E+00
  0.00000000E+00  0.00000000E+00  0.00000000E+00
  0.00000000E+00  0.00000000E+00  0.00000000E+00
