       N       E                     dE             d eps       ncg     rms          rms(c)
DAV:   1     0.145040207243E+05    0.14504E+05   -0.27049E+05138168   0.255E+03
DAV:   2     0.273196816654E+04   -0.11772E+05   -0.10997E+05137760   0.825E+02
DAV:   3    -0.197317600954E+03   -0.29293E+04   -0.26719E+04168128   0.427E+02
DAV:   4    -0.657785377571E+03   -0.46047E+03   -0.43791E+03233216   0.236E+02
DAV:   5    -0.690111619639E+03   -0.32326E+02   -0.31149E+02231600   0.745E+01
DAV:   6    -0.692479815421E+03   -0.23682E+01   -0.23084E+01238184   0.170E+01
DAV:   7    -0.692658070893E+03   -0.17826E+00   -0.17572E+00234000   0.467E+00
DAV:   8    -0.692676782661E+03   -0.18712E-01   -0.18561E-01253136   0.138E+00
DAV:   9    -0.692678451539E+03   -0.16689E-02   -0.16617E-02243624   0.409E-01
DAV:  10    -0.692678625286E+03   -0.17375E-03   -0.17336E-03254944   0.112E-01
DAV:  11    -0.692678639866E+03   -0.14580E-04   -0.14573E-04236552   0.290E-02
DAV:  12    -0.692678641409E+03   -0.15431E-05   -0.15438E-05191328   0.781E-03
DAV:  13    -0.692678641575E+03   -0.16605E-06   -0.16737E-06148800   0.271E-03
DAV:  14    -0.692678641595E+03   -0.19951E-07   -0.19454E-07139096   0.127E-03
   1 F= -.69267864E+03 E0= -.69267864E+03  d E =0.000000E+00
