POSCAR                                  
   1.00000000000000     
    10.0227803471696042   -0.0076050765373895   -0.0009595599412767
    -0.0075724456425021   10.0370907178888995   -0.0015709569920553
    -0.0006202827322914   -0.0010187990040654    6.6437400696570483
   Mg   Na   Ca   Zr   H 
     9     9     9     9   216
Direct
  0.1666407983862212  0.1739619593047803  0.2503056345708801
  0.5015151664174763  0.4964046343126718  0.2486928271660306
  0.8344985100948900  0.1739048271127244  0.2532643889563470
  0.6618486032510924  0.3287432869272066  0.5025204764077106
  0.6636436083869398  0.3352809072553661  0.9965337576599356
  0.0001421460494395  0.3345401587344206  0.5004350052557240
  0.0011087201816772  0.6585929873420785  0.5003357943386334
  0.6610463187463965  0.9948517902004372  0.9980723091618106
  0.9965323921109306  0.0036479971664955  0.4985250903343518
  0.1676754404460918  0.1652306775226279  0.7446965094011893
  0.5021882357034609  0.1656403055742720  0.7518329160043098
  0.3374047288356660  0.3310502489732519  0.0002537455086811
  0.8344876676606606  0.4961773058027961  0.2537437441745896
  0.5015915906129158  0.8327936868912550  0.7498502059807333
  0.8298059270492253  0.4952619183056595  0.7480760351974641
  0.6704602691910234  0.6707220061924478  0.9977880619565802
  0.6745515684794512  0.0100891832251286  0.4996022311932082
  0.9929186823373312  0.6645975653543278  0.9961138428010846
  0.1618140495953095  0.4929910283643938  0.2462925567182841
  0.3338363461910904  0.3325434457460416  0.5027526632954642
  0.3298232853477593  0.6653241184941749  0.5002940975549994
  0.1695335376040560  0.8401980568639577  0.7475272838748750
  0.5064185003380247  0.4968966110966040  0.7543873338451327
  0.8320628673629993  0.1721949690803121  0.7528646785412865
  0.3335727312091175  0.0032407796694979  0.5052870682732703
  0.3384417414396834  0.0082270590238719  0.9974705175490419
  0.9886035996154237  0.3340132796450845  0.9999860596753108
  0.5020452193688365  0.1731209894549937  0.2503941386888469
  0.1609225810710941  0.4946394110744261  0.7502447737709120
  0.1629748652411411  0.8347123415171996  0.2501108533535917
  0.3357729141633320  0.6620623057314436  0.9965248448232347
  0.5050066610970924  0.8331570456877907  0.2500056161863843
  0.6688573123748063  0.6557659834549792  0.5005968751091621
  0.8333713540869820  0.8287213198221350  0.2523610802911208
  0.8297856222599480  0.8348608477565255  0.7487570860689757
  0.0017292658917157  0.0052033041636003  0.0030144240779875
  0.1693873820464960  0.0848550306781549  0.0004285801150967
  0.1564047875828808  0.0854445380573496  0.4933945451065072
  0.1741704494866122  0.4090486914328660  0.0005818707613925
  0.5130266959388908  0.0828523789565826  0.9882356020355881
  0.3300766586605494  0.2517419426427411  0.2438069287315576
  0.1619723985518727  0.4121219359600863  0.4937413089847256
  0.5086227413610332  0.0802981655089222  0.5111997485257380
  0.3242102925065963  0.2535795317230265  0.7583871686004658
  0.1609644962131618  0.7511200213581799  0.9928818839170773
  0.5049704916458972  0.4178142285977110  0.0141333956034179
  0.3362540168399316  0.5812252944312815  0.2493138286448001
  0.1579196447677458  0.7467349905726743  0.5090297898070538
  0.8153504173466297  0.0823347381207136  0.0107535816873253
  0.6755701174758817  0.2513128990493171  0.2211677458996706
  0.5047580565916748  0.4185063719597976  0.4932981512368169
  0.3344745006372382  0.5807648440222803  0.7468135935664244
  0.8401580782248929  0.0842759075050188  0.4931599366837568
  0.6629511317211012  0.2444972775603660  0.7754376980836273
  0.5065382070904494  0.7478876559495685  0.9928481606736803
  0.3348566361453125  0.9210359459049925  0.2483735012186747
  0.8178481941922510  0.4125235067707478  0.0189504497849537
  0.6740892196083627  0.5844646691541301  0.2352087392227527
  0.5016099027079496  0.7492162935636895  0.5087729344173918
  0.3500579875352546  0.9193095602932944  0.7531107245785947
  0.0032130658951219  0.2487031145267166  0.2538433680348096
  0.8376196782323453  0.4194121898468900  0.4958442284846037
  0.6794438511679899  0.5856393532158168  0.7625343393172301
  0.0112759773200344  0.2503519368373463  0.7384973948229983
  0.8333534909421437  0.7454771893299650  0.9946359419025372
  0.6708906652904356  0.9206712425197350  0.2591075491320333
  0.9935130772294695  0.5817568027748053  0.2535932551099755
  0.8350625991376507  0.7414234484479958  0.5081050522621305
  0.6569011222642307  0.9161889079147251  0.7332219142294747
  0.9895228192704780  0.5824268041635584  0.7427345052723962
  0.9948235481331077  0.9182559006850647  0.2762794556711789
  0.0008741256556856  0.9182291535663026  0.7241606268442876
  0.0893886484635178  0.1785348926375838  0.9972591132418470
  0.0859230796748608  0.1803825056662957  0.4919897620927002
  0.0785638320595114  0.5014542228946025  0.9983941241910587
  0.4161583324059448  0.1741338684785237  0.9859822004431043
  0.2512656692816966  0.3270737540127698  0.2419171196988461
  0.0818702723537533  0.4955440797617031  0.5000815397150508
  0.4158356432269550  0.1682671849367983  0.5177643218732367
  0.2554226308730342  0.3132282860541639  0.7606588858830260
  0.0805243939809932  0.8248051645934383  0.9938309406212121
  0.4155832183830850  0.4953493404015563  0.0031170133524316
  0.2499411927426488  0.6637844407392145  0.2461902318794686
  0.0809028093775442  0.8292478924224811  0.4993185217108710
  0.7460592273106551  0.1468009202791661  0.0060406640056625
  0.5875299624512615  0.3342678781248052  0.2638951784371611
  0.4137011092036752  0.4999890602898443  0.5046960939310086
  0.2501109652197768  0.6709862406991373  0.7518937464200708
  0.7483913080796897  0.1767415915150592  0.4853731181917371
  0.5853360744425663  0.3307390208310814  0.7395477910602559
  0.4208546689003028  0.8385272798914548  0.9920339829865421
  0.2498531229451782  0.0092457296085847  0.2504526427709561
  0.7568090649227985  0.5147430667121433  0.0025170261592289
  0.5832219492456480  0.6556304268745744  0.2323261753858726
  0.4197778332595796  0.8334339319027825  0.5043687524239601
  0.2503322508845625  0.0134029393735349  0.7547149786073218
  0.9138890802194323  0.3289088303427405  0.2667199593536970
  0.7537378748882361  0.4805130021655797  0.4939395964767417
  0.5824205181388924  0.6713222922311931  0.7631305956233593
  0.9134261973002514  0.3416526127760581  0.7299723322627415
  0.7485323678692649  0.8380003407293927  0.0046267297594604
  0.5881372441038810  0.0056335347515791  0.2559539073065274
  0.9189959462309305  0.6569873012767249  0.2534532282750707
  0.7450302670957607  0.8357449171979147  0.4969567323549541
  0.5859043550979285  0.0047986681476903  0.7485088204781106
  0.9176625401844610  0.6540236468098164  0.7456121713935805
  0.9166584185165234  0.0175937842074396  0.2537537650644893
  0.9167237632261392  0.0048213600366818  0.7537978586931404
  0.1682106152200983  0.0173429800723084  0.1292646855400472
  0.1548678528489043  0.0085514230664713  0.6197343229389137
  0.1688024510729058  0.3289110289309858  0.1200492215271128
  0.5047680735014440  0.0031299244352965  0.1256518193116694
  0.3229635551050673  0.1698248977625445  0.3771007886282106
  0.1639719863308755  0.3283066565539433  0.6263265108187379
  0.5083357285166699  0.0036969862743184  0.6231487189873169
  0.3415485706185448  0.1702000444656153  0.8769635649461206
  0.1537787806607603  0.6570487455739109  0.1180579565826576
  0.5047180842169270  0.3419371133019883  0.1216709698573202
  0.3376952207411513  0.4987451672782237  0.3725703941171452
  0.1619907952362915  0.6711110724623605  0.6243684105947966
  0.8346382682841049  0.0033979803557631  0.1297280238258484
  0.6787169967815284  0.1737922562029121  0.3763570861342687
  0.5100489111867531  0.3231953022072374  0.6323958731104379
  0.3369953550856375  0.4872211238756933  0.8746863580618791
  0.8374452089372822  0.0061516019680956  0.6229436870115794
  0.6619838145816299  0.1813280949987945  0.8750397061944084
  0.5098890784271605  0.6592949670647583  0.1256732611741476
  0.3349973749398830  0.8323254519609826  0.3769013114602213
  0.8200048783362766  0.3441432873763242  0.1238398752979177
  0.6634678923636428  0.4870364293494786  0.3727029111592808
  0.4967434261736436  0.6709585105753398  0.6255782886476903
  0.3396169092002901  0.8373367705441006  0.8752463592577117
  0.9993306100258672  0.1653829838873513  0.3783337496259229
  0.8129986030616124  0.3345161667901081  0.6253068473823794
  0.6738855585390716  0.4866626385697020  0.8768832979784565
  0.0077160290495660  0.1636885045784798  0.8734921833854841
  0.8345357646002987  0.6578912036370621  0.1263837978490616
  0.6707699874682874  0.8433358339663298  0.3868553509700552
  0.9964895712249956  0.4926678488306326  0.3719579651659818
  0.8393140941911933  0.6607553725545412  0.6249188101039941
  0.6623904339377229  0.8361618329480615  0.8721837501166202
  0.9761215627494940  0.5038705766995561  0.8832181380210324
  0.9974551722705141  0.8232339916208052  0.3890216692220311
  0.0012383947218820  0.8327262040520568  0.8730878633199438
  0.0851193904415017  0.0124623442663076  0.2628805368419500
  0.0843415966926438  0.0036315746337665  0.7443723280390226
  0.0809183187500930  0.3241705392403932  0.2533695392960577
  0.4150107590989012  0.0030080764042913  0.2527387045747173
  0.2505892066217661  0.1695522529546844  0.4871276688682286
  0.0795091100561403  0.3187119500261085  0.7483091211303070
  0.4195991783841412  0.9942760329051084  0.7500497604008322
  0.2514961031414324  0.1731409707824052  0.0046803974890404
  0.0823248521900190  0.6652055569860887  0.2352271297504448
  0.4184934189530329  0.3377043254030774  0.2461656132243740
  0.2492814559049552  0.4960163078218056  0.4943807041084533
  0.0804804865995167  0.6716682867650928  0.7609496618271514
  0.7501942179250431  0.0123964203709526  0.2446125137916115
  0.5860452541146389  0.1656288955134557  0.5123671959695633
  0.4202485945215965  0.3301217878018503  0.7589776199186505
  0.2493965890477095  0.4889951177761346  0.0018576304669363
  0.7488029798615988  0.0081555781813800  0.7594597012923804
  0.5864425516017475  0.1565541136405365  0.9950944087922773
  0.4180344687908161  0.6616523033807151  0.2529285069350609
  0.2515721709993424  0.8351548391734643  0.4952958582816536
  0.7496364190247872  0.3345046180973797  0.2817447696806074
  0.5814605693561071  0.4863189336806533  0.4918912423509001
  0.4202281576565782  0.6670526621374215  0.7443838812453399
  0.2525282434143296  0.8387266637122806  0.0020047519125071
  0.9146113484181977  0.1838263767470017  0.4951470399873236
  0.7511705478313966  0.3353984775158915  0.7251094451146243
  0.5845330878651187  0.5138372624545625  0.0068610763743148
  0.9122582696832012  0.1653587325807780  0.0178491121940807
  0.7482064909737746  0.6460773776801636  0.2342783997042725
  0.5825132894170255  0.8422540590099007  0.5084319802903479
  0.9153789035974460  0.4903750099372406  0.5087326749692744
  0.7479580896091497  0.6486082363345991  0.7641798814412087
  0.5833043007251179  0.8299479722181768  0.9911684773281195
  0.9165606082390153  0.5041143377082032  0.9856917326536427
  0.9203741827995493  0.8149399480110456  0.4977487343341269
  0.9174287096444197  0.8300533640833916  0.0040570020351397
  0.0084974407028800  0.1714663750130551  0.1300056825770027
  0.0005850579113303  0.1533374345353159  0.6252221237581547
  0.9924945388712286  0.5038120634769496  0.1255372766614837
  0.3216659852067240  0.1759848424107122  0.1219783003409691
  0.1622964839548940  0.3327793399513759  0.3752079043218526
  0.9924462724400327  0.4967882736864198  0.6255182257302871
  0.3434413162894905  0.1658707157596453  0.6256435423381647
  0.1665715763975925  0.3268792631509603  0.8734322067796537
  0.9971369794754296  0.8269746020863243  0.1171143250983387
  0.3353208387824621  0.4887270966235522  0.1266774006401278
  0.1592924776347320  0.6586235023487655  0.3749693704280058
  0.0022146799519805  0.8506755719698372  0.6259442166109974
  0.6754829265380410  0.1861035107531649  0.1257461458073093
  0.5032353325498270  0.3405184921812568  0.3764710237641972
  0.3432460402373141  0.5012875210325044  0.6218463734724576
  0.1503673800055200  0.6683509028330481  0.8688622674413004
  0.6620051486869076  0.1699613809954997  0.6233624412066585
  0.5019913901235127  0.3237058405204104  0.8754495470464798
  0.3325698333681188  0.8353867556834749  0.1211543845868958
  0.1567831923634516  0.0172598255289460  0.3763375184522484
  0.6735919326949794  0.4839281809331956  0.1264593730047722
  0.4969498438999059  0.6575071286640594  0.3737147664019719
  0.3393578448888185  0.8338991690464828  0.6279065889084939
  0.1721080832881281  0.0112917423298178  0.8717559657196697
  0.8194164461240500  0.3338432005204802  0.3751477859248249
  0.6703998470730722  0.4853578954602719  0.6224745943823760
  0.5129744733406507  0.6708744147932123  0.8717694083450553
  0.8152163573435627  0.3402396405081095  0.8751890348514544
  0.6707144582350930  0.8332825148658468  0.1196818744160651
  0.5109029294838465  0.0034583787747410  0.3783592235334580
  0.8405610936200063  0.6577949269800267  0.3771354280042975
  0.6592734580042660  0.8500529599492261  0.6273633433671960
  0.5061678836448603  0.0014418635415390  0.8713744340442935
  0.8341239191119166  0.6640553183800824  0.8689971097737047
  0.8343037579049716  0.0076598072646421  0.3744558298878826
  0.8224037104625276  0.0004497036287181  0.8767917109193164
  0.9928879102891565  0.0863329920826416  0.2710831007960238
  0.0015573864464578  0.0892757569063216  0.7272689790211767
  0.9905362745573044  0.4180724684745341  0.2674647167828866
  0.3342149435407514  0.0841354963395748  0.2540381744704903
  0.1525534483847325  0.2466673124191723  0.5100328189721913
  0.9897033313908082  0.4145258309233284  0.7385898509441218
  0.3310752347346244  0.0898838931702093  0.7510060963694374
  0.1614059206922358  0.2478265760700659  0.9900545504067171
  0.9996319556545084  0.7441323735540558  0.2506736668266592
  0.3365658384134045  0.4171726448266597  0.2385905242582622
  0.1573617474959474  0.5840244375902877  0.4904666307151326
  0.0019638835403951  0.7471271071347839  0.7331837399875708
  0.6753762636482847  0.0800030161276248  0.2358440869488941
  0.5019439557640009  0.2508353186872636  0.5086786863641984
  0.3352153290537904  0.4147818284008672  0.7632126428976694
  0.1578729636152456  0.5864062655328034  0.0042717336579895
  0.6623346538823027  0.0759716650357788  0.7556600949684813
  0.5058054514344221  0.2536343279249298  0.9898779371058991
  0.3378737879136817  0.7491772625630876  0.2504541555642590
  0.1594037848703629  0.9217209793559782  0.4951405011248714
  0.6689989318017143  0.4233220972304042  0.2237497362879921
  0.4993425828779642  0.5809631385208560  0.4898849935005384
  0.3350599501759400  0.7517619559220519  0.7483014424049862
  0.1730236353141301  0.9183873045930203  0.0023166415226723
  0.8496812635917612  0.2505238289548447  0.4991370793946427
  0.6698878293414285  0.4223392242740557  0.7700719996914215
  0.5189005020300100  0.5788230750595516  0.0108360101454358
  0.8215649070035005  0.2468595851998142  0.0164469524203044
  0.6671024619636977  0.7467309249610412  0.2480310215679233
  0.5101813946150567  0.9180682637591205  0.5118722561162175
  0.8423783694783834  0.5801237837685763  0.5023015908405419
  0.6643127277671834  0.7509227980629054  0.7484120308888551
  0.4996318392007009  0.9146894162750407  0.9900156150326930
  0.8198432687268247  0.5787283326154472  0.0042163035713003
  0.8374710919019840  0.9210681731593311  0.4941982570545621
  0.8268815299377124  0.9226872917923113  0.0058986530263096
 
  0.00000000E+00  0.00000000E+00  0.00000000E+00
  0.00000000E+00  0.00000000E+00  0.00000000E+00
  0.00000000E+00  0.00000000E+00  0.00000000E+00
  0.00000000E+00  0.00000000E+00  0.00000000E+00
  0.00000000E+00  0.00000000E+00  0.00000000E+00
  0.00000000E+00  0.00000000E+00  0.00000000E+00
  0.00000000E+00  0.00000000E+00  0.00000000E+00
  0.00000000E+00  0.00000000E+00  0.00000000E+00
  0.00000000E+00  0.00000000E+00  0.00000000E+00
  0.00000000E+00  0.00000000E+00  0.00000000E+00
  0.00000000E+00  0.00000000E+00  0.00000000E+00
  0.00000000E+00  0.00000000E+00  0.00000000E+00
  0.00000000E+00  0.00000000E+00  0.00000000E+00
  0.00000000E+00  0.00000000E+00  0.00000000E+00
  0.00000000E+00  0.00000000E+00  0.00000000E+00
  0.00000000E+00  0.00000000E+00  0.00000000E+00
  0.00000000E+00  0.00000000E+00  0.00000000E+00
  0.00000000E+00  0.00000000E+00  0.00000000E+00
  0.00000000E+00  0.00000000E+00  0.00000000E+00
  0.00000000E+00  0.00000000E+00  0.00000000E+00
  0.00000000E+00  0.00000000E+00  0.00000000E+00
  0.00000000E+00  0.00000000E+00  0.00000000E+00
  0.00000000E+00  0.00000000E+00  0.00000000E+00
  0.00000000E+00  0.00000000E+00  0.00000000E+00
  0.00000000E+00  0.00000000E+00  0.00000000E+00
  0.00000000E+00  0.00000000E+00  0.00000000E+00
  0.00000000E+00  0.00000000E+00  0.00000000E+00
  0.00000000E+00  0.00000000E+00  0.00000000E+00
  0.00000000E+00  0.00000000E+00  0.00000000E+00
  0.00000000E+00  0.00000000E+00  0.00000000E+00
  0.00000000E+00  0.00000000E+00  0.00000000E+00
  0.00000000E+00  0.00000000E+00  0.00000000E+00
  0.00000000E+00  0.00000000E+00  0.00000000E+00
  0.00000000E+00  0.00000000E+00  0.00000000E+00
  0.00000000E+00  0.00000000E+00  0.00000000E+00
  0.00000000E+00  0.00000000E+00  0.00000000E+00
  0.00000000E+00  0.00000000E+00  0.00000000E+00
  0.00000000E+00  0.00000000E+00  0.00000000E+00
  0.00000000E+00  0.00000000E+00  0.00000000E+00
  0.00000000E+00  0.00000000E+00  0.00000000E+00
  0.00000000E+00  0.00000000E+00  0.00000000E+00
  0.00000000E+00  0.00000000E+00  0.00000000E+00
  0.00000000E+00  0.00000000E+00  0.00000000E+00
  0.00000000E+00  0.00000000E+00  0.00000000E+00
  0.00000000E+00  0.00000000E+00  0.00000000E+00
  0.00000000E+00  0.00000000E+00  0.00000000E+00
  0.00000000E+00  0.00000000E+00  0.00000000E+00
  0.00000000E+00  0.00000000E+00  0.00000000E+00
  0.00000000E+00  0.00000000E+00  0.00000000E+00
  0.00000000E+00  0.00000000E+00  0.00000000E+00
  0.00000000E+00  0.00000000E+00  0.00000000E+00
  0.00000000E+00  0.00000000E+00  0.00000000E+00
  0.00000000E+00  0.00000000E+00  0.00000000E+00
  0.00000000E+00  0.00000000E+00  0.00000000E+00
  0.00000000E+00  0.00000000E+00  0.00000000E+00
  0.00000000E+00  0.00000000E+00  0.00000000E+00
  0.00000000E+00  0.00000000E+00  0.00000000E+00
  0.00000000E+00  0.00000000E+00  0.00000000E+00
  0.00000000E+00  0.00000000E+00  0.00000000E+00
  0.00000000E+00  0.00000000E+00  0.00000000E+00
  0.00000000E+00  0.00000000E+00  0.00000000E+00
  0.00000000E+00  0.00000000E+00  0.00000000E+00
  0.00000000E+00  0.00000000E+00  0.00000000E+00
  0.00000000E+00  0.00000000E+00  0.00000000E+00
  0.00000000E+00  0.00000000E+00  0.00000000E+00
  0.00000000E+00  0.00000000E+00  0.00000000E+00
  0.00000000E+00  0.00000000E+00  0.00000000E+00
  0.00000000E+00  0.00000000E+00  0.00000000E+00
  0.00000000E+00  0.00000000E+00  0.00000000E+00
  0.00000000E+00  0.00000000E+00  0.00000000E+00
  0.00000000E+00  0.00000000E+00  0.00000000E+00
  0.00000000E+00  0.00000000E+00  0.00000000E+00
  0.00000000E+00  0.00000000E+00  0.00000000E+00
  0.00000000E+00  0.00000000E+00  0.00000000E+00
  0.00000000E+00  0.00000000E+00  0.00000000E+00
  0.00000000E+00  0.00000000E+00  0.00000000E+00
  0.00000000E+00  0.00000000E+00  0.00000000E+00
  0.00000000E+00  0.00000000E+00  0.00000000E+00
  0.00000000E+00  0.00000000E+00  0.00000000E+00
  0.00000000E+00  0.00000000E+00  0.00000000E+00
  0.00000000E+00  0.00000000E+00  0.00000000E+00
  0.00000000E+00  0.00000000E+00  0.00000000E+00
  0.00000000E+00  0.00000000E+00  0.00000000E+00
  0.00000000E+00  0.00000000E+00  0.00000000E+00
  0.00000000E+00  0.00000000E+00  0.00000000E+00
  0.00000000E+00  0.00000000E+00  0.00000000E+00
  0.00000000E+00  0.00000000E+00  0.00000000E+00
  0.00000000E+00  0.00000000E+00  0.00000000E+00
  0.00000000E+00  0.00000000E+00  0.00000000E+00
  0.00000000E+00  0.00000000E+00  0.00000000E+00
  0.00000000E+00  0.00000000E+00  0.00000000E+00
  0.00000000E+00  0.00000000E+00  0.00000000E+00
  0.00000000E+00  0.00000000E+00  0.00000000E+00
  0.00000000E+00  0.00000000E+00  0.00000000E+00
  0.00000000E+00  0.00000000E+00  0.00000000E+00
  0.00000000E+00  0.00000000E+00  0.00000000E+00
  0.00000000E+00  0.00000000E+00  0.00000000E+00
  0.00000000E+00  0.00000000E+00  0.00000000E+00
  0.00000000E+00  0.00000000E+00  0.00000000E+00
  0.00000000E+00  0.00000000E+00  0.00000000E+00
  0.00000000E+00  0.00000000E+00  0.00000000E+00
  0.00000000E+00  0.00000000E+00  0.00000000E+00
  0.00000000E+00  0.00000000E+00  0.00000000E+00
  0.00000000E+00  0.00000000E+00  0.00000000E+00
  0.00000000E+00  0.00000000E+00  0.00000000E+00
  0.00000000E+00  0.00000000E+00  0.00000000E+00
  0.00000000E+00  0.00000000E+00  0.00000000E+00
  0.00000000E+00  0.00000000E+00  0.00000000E+00
  0.00000000E+00  0.00000000E+00  0.00000000E+00
  0.00000000E+00  0.00000000E+00  0.00000000E+00
  0.00000000E+00  0.00000000E+00  0.00000000E+00
  0.00000000E+00  0.00000000E+00  0.00000000E+00
  0.00000000E+00  0.00000000E+00  0.00000000E+00
  0.00000000E+00  0.00000000E+00  0.00000000E+00
  0.00000000E+00  0.00000000E+00  0.00000000E+00
  0.00000000E+00  0.00000000E+00  0.00000000E+00
  0.00000000E+00  0.00000000E+00  0.00000000E+00
  0.00000000E+00  0.00000000E+00  0.00000000E+00
  0.00000000E+00  0.00000000E+00  0.00000000E+00
  0.00000000E+00  0.00000000E+00  0.00000000E+00
  0.00000000E+00  0.00000000E+00  0.00000000E+00
  0.00000000E+00  0.00000000E+00  0.00000000E+00
  0.00000000E+00  0.00000000E+00  0.00000000E+00
  0.00000000E+00  0.00000000E+00  0.00000000E+00
  0.00000000E+00  0.00000000E+00  0.00000000E+00
  0.00000000E+00  0.00000000E+00  0.00000000E+00
  0.00000000E+00  0.00000000E+00  0.00000000E+00
  0.00000000E+00  0.00000000E+00  0.00000000E+00
  0.00000000E+00  0.00000000E+00  0.00000000E+00
  0.00000000E+00  0.00000000E+00  0.00000000E+00
  0.00000000E+00  0.00000000E+00  0.00000000E+00
  0.00000000E+00  0.00000000E+00  0.00000000E+00
  0.00000000E+00  0.00000000E+00  0.00000000E+00
  0.00000000E+00  0.00000000E+00  0.00000000E+00
  0.00000000E+00  0.00000000E+00  0.00000000E+00
  0.00000000E+00  0.00000000E+00  0.00000000E+00
  0.00000000E+00  0.00000000E+00  0.00000000E+00
  0.00000000E+00  0.00000000E+00  0.00000000E+00
  0.00000000E+00  0.00000000E+00  0.00000000E+00
  0.00000000E+00  0.00000000E+00  0.00000000E+00
  0.00000000E+00  0.00000000E+00  0.00000000E+00
  0.00000000E+00  0.00000000E+00  0.00000000E+00
  0.00000000E+00  0.00000000E+00  0.00000000E+00
  0.00000000E+00  0.00000000E+00  0.00000000E+00
  0.00000000E+00  0.00000000E+00  0.00000000E+00
  0.00000000E+00  0.00000000E+00  0.00000000E+00
  0.00000000E+00  0.00000000E+00  0.00000000E+00
  0.00000000E+00  0.00000000E+00  0.00000000E+00
  0.00000000E+00  0.00000000E+00  0.00000000E+00
  0.00000000E+00  0.00000000E+00  0.00000000E+00
  0.00000000E+00  0.00000000E+00  0.00000000E+00
  0.00000000E+00  0.00000000E+00  0.00000000E+00
  0.00000000E+00  0.00000000E+00  0.00000000E+00
  0.00000000E+00  0.00000000E+00  0.00000000E+00
  0.00000000E+00  0.00000000E+00  0.00000000E+00
  0.00000000E+00  0.00000000E+00  0.00000000E+00
  0.00000000E+00  0.00000000E+00  0.00000000E+00
  0.00000000E+00  0.00000000E+00  0.00000000E+00
  0.00000000E+00  0.00000000E+00  0.00000000E+00
  0.00000000E+00  0.00000000E+00  0.00000000E+00
  0.00000000E+00  0.00000000E+00  0.00000000E+00
  0.00000000E+00  0.00000000E+00  0.00000000E+00
  0.00000000E+00  0.00000000E+00  0.00000000E+00
  0.00000000E+00  0.00000000E+00  0.00000000E+00
  0.00000000E+00  0.00000000E+00  0.00000000E+00
  0.00000000E+00  0.00000000E+00  0.00000000E+00
  0.00000000E+00  0.00000000E+00  0.00000000E+00
  0.00000000E+00  0.00000000E+00  0.00000000E+00
  0.00000000E+00  0.00000000E+00  0.00000000E+00
  0.00000000E+00  0.00000000E+00  0.00000000E+00
  0.00000000E+00  0.00000000E+00  0.00000000E+00
  0.00000000E+00  0.00000000E+00  0.00000000E+00
  0.00000000E+00  0.00000000E+00  0.00000000E+00
  0.00000000E+00  0.00000000E+00  0.00000000E+00
  0.00000000E+00  0.00000000E+00  0.00000000E+00
  0.00000000E+00  0.00000000E+00  0.00000000E+00
  0.00000000E+00  0.00000000E+00  0.00000000E+00
  0.00000000E+00  0.00000000E+00  0.00000000E+00
  0.00000000E+00  0.00000000E+00  0.00000000E+00
  0.00000000E+00  0.00000000E+00  0.00000000E+00
  0.00000000E+00  0.00000000E+00  0.00000000E+00
  0.00000000E+00  0.00000000E+00  0.00000000E+00
  0.00000000E+00  0.00000000E+00  0.00000000E+00
  0.00000000E+00  0.00000000E+00  0.00000000E+00
  0.00000000E+00  0.00000000E+00  0.00000000E+00
  0.00000000E+00  0.00000000E+00  0.00000000E+00
  0.00000000E+00  0.00000000E+00  0.00000000E+00
  0.00000000E+00  0.00000000E+00  0.00000000E+00
  0.00000000E+00  0.00000000E+00  0.00000000E+00
  0.00000000E+00  0.00000000E+00  0.00000000E+00
  0.00000000E+00  0.00000000E+00  0.00000000E+00
  0.00000000E+00  0.00000000E+00  0.00000000E+00
  0.00000000E+00  0.00000000E+00  0.00000000E+00
  0.00000000E+00  0.00000000E+00  0.00000000E+00
  0.00000000E+00  0.00000000E+00  0.00000000E+00
  0.00000000E+00  0.00000000E+00  0.00000000E+00
  0.00000000E+00  0.00000000E+00  0.00000000E+00
  0.00000000E+00  0.00000000E+00  0.00000000E+00
  0.00000000E+00  0.00000000E+00  0.00000000E+00
  0.00000000E+00  0.00000000E+00  0.00000000E+00
  0.00000000E+00  0.00000000E+00  0.00000000E+00
  0.00000000E+00  0.00000000E+00  0.00000000E+00
  0.00000000E+00  0.00000000E+00  0.00000000E+00
  0.00000000E+00  0.00000000E+00  0.00000000E+00
  0.00000000E+00  0.00000000E+00  0.00000000E+00
  0.00000000E+00  0.00000000E+00  0.00000000E+00
  0.00000000E+00  0.00000000E+00  0.00000000E+00
  0.00000000E+00  0.00000000E+00  0.00000000E+00
  0.00000000E+00  0.00000000E+00  0.00000000E+00
  0.00000000E+00  0.00000000E+00  0.00000000E+00
  0.00000000E+00  0.00000000E+00  0.00000000E+00
  0.00000000E+00  0.00000000E+00  0.00000000E+00
  0.00000000E+00  0.00000000E+00  0.00000000E+00
  0.00000000E+00  0.00000000E+00  0.00000000E+00
  0.00000000E+00  0.00000000E+00  0.00000000E+00
  0.00000000E+00  0.00000000E+00  0.00000000E+00
  0.00000000E+00  0.00000000E+00  0.00000000E+00
  0.00000000E+00  0.00000000E+00  0.00000000E+00
  0.00000000E+00  0.00000000E+00  0.00000000E+00
  0.00000000E+00  0.00000000E+00  0.00000000E+00
  0.00000000E+00  0.00000000E+00  0.00000000E+00
  0.00000000E+00  0.00000000E+00  0.00000000E+00
  0.00000000E+00  0.00000000E+00  0.00000000E+00
  0.00000000E+00  0.00000000E+00  0.00000000E+00
  0.00000000E+00  0.00000000E+00  0.00000000E+00
  0.00000000E+00  0.00000000E+00  0.00000000E+00
  0.00000000E+00  0.00000000E+00  0.00000000E+00
  0.00000000E+00  0.00000000E+00  0.00000000E+00
  0.00000000E+00  0.00000000E+00  0.00000000E+00
  0.00000000E+00  0.00000000E+00  0.00000000E+00
  0.00000000E+00  0.00000000E+00  0.00000000E+00
  0.00000000E+00  0.00000000E+00  0.00000000E+00
  0.00000000E+00  0.00000000E+00  0.00000000E+00
  0.00000000E+00  0.00000000E+00  0.00000000E+00
  0.00000000E+00  0.00000000E+00  0.00000000E+00
  0.00000000E+00  0.00000000E+00  0.00000000E+00
  0.00000000E+00  0.00000000E+00  0.00000000E+00
  0.00000000E+00  0.00000000E+00  0.00000000E+00
  0.00000000E+00  0.00000000E+00  0.00000000E+00
  0.00000000E+00  0.00000000E+00  0.00000000E+00
  0.00000000E+00  0.00000000E+00  0.00000000E+00
  0.00000000E+00  0.00000000E+00  0.00000000E+00
  0.00000000E+00  0.00000000E+00  0.00000000E+00
  0.00000000E+00  0.00000000E+00  0.00000000E+00
  0.00000000E+00  0.00000000E+00  0.00000000E+00
  0.00000000E+00  0.00000000E+00  0.00000000E+00
  0.00000000E+00  0.00000000E+00  0.00000000E+00
  0.00000000E+00  0.00000000E+00  0.00000000E+00
  0.00000000E+00  0.00000000E+00  0.00000000E+00
  0.00000000E+00  0.00000000E+00  0.00000000E+00
  0.00000000E+00  0.00000000E+00  0.00000000E+00
  0.00000000E+00  0.00000000E+00  0.00000000E+00
