generated by phonopy                    
   1.00000000000000     
     0.0000000000000000    3.3565217603642670    3.3565217603644335
     3.3565217603643340    0.0000000000000000    3.3565217603644335
     3.3565217603643340    3.3565217603642670    0.0000000000000000
   Na   Ca   Mg   Sr   H 
     1     1     1     1    24
Direct
  0.2500000000000000  0.2500000000000000  0.2500000000000000
  0.7500000000000000  0.7500000000000000  0.7500000000000000
  0.0000000000000000  0.0000000000000000  0.0000000000000000
  0.5000000000000000  0.5000000000000000  0.5000000000000000
  0.1154057054906872  0.8980249074302691  0.6332829335174495
  0.8980249074302691  0.1154057054906872  0.3532864535615943
  0.6332829335174495  0.3532864535615943  0.1154057054906872
  0.3532864535615943  0.6332829335174495  0.8980249074302691
  0.6332829335174495  0.1154057054906872  0.8980249074302691
  0.3532864535615943  0.8980249074302691  0.1154057054906872
  0.1154057054906872  0.6332829335174495  0.3532864535615943
  0.8980249074302691  0.3532864535615943  0.6332829335174495
  0.8980249074302691  0.6332829335174495  0.1154057054906872
  0.1154057054906872  0.3532864535615943  0.8980249074302691
  0.3532864535615943  0.1154057054906872  0.6332829335174495
  0.6332829335174495  0.8980249074302691  0.3532864535615943
  0.1154057054906872  0.3532864535615943  0.6332829335174495
  0.3532864535615943  0.1154057054906872  0.8980249074302691
  0.6332829335174495  0.8980249074302691  0.1154057054906872
  0.8980249074302691  0.6332829335174495  0.3532864535615943
  0.6332829335174495  0.1154057054906872  0.3532864535615943
  0.8980249074302691  0.3532864535615943  0.1154057054906872
  0.1154057054906872  0.6332829335174495  0.8980249074302691
  0.3532864535615943  0.8980249074302691  0.6332829335174495
  0.3532864535615943  0.6332829335174495  0.1154057054906872
  0.1154057054906872  0.8980249074302691  0.3532864535615943
  0.8980249074302691  0.1154057054906872  0.6332829335174495
  0.6332829335174495  0.3532864535615943  0.8980249074302691
 
  0.00000000E+00  0.00000000E+00  0.00000000E+00
  0.00000000E+00  0.00000000E+00  0.00000000E+00
  0.00000000E+00  0.00000000E+00  0.00000000E+00
  0.00000000E+00  0.00000000E+00  0.00000000E+00
  0.00000000E+00  0.00000000E+00  0.00000000E+00
  0.00000000E+00  0.00000000E+00  0.00000000E+00
  0.00000000E+00  0.00000000E+00  0.00000000E+00
  0.00000000E+00  0.00000000E+00  0.00000000E+00
  0.00000000E+00  0.00000000E+00  0.00000000E+00
  0.00000000E+00  0.00000000E+00  0.00000000E+00
  0.00000000E+00  0.00000000E+00  0.00000000E+00
  0.00000000E+00  0.00000000E+00  0.00000000E+00
  0.00000000E+00  0.00000000E+00  0.00000000E+00
  0.00000000E+00  0.00000000E+00  0.00000000E+00
  0.00000000E+00  0.00000000E+00  0.00000000E+00
  0.00000000E+00  0.00000000E+00  0.00000000E+00
  0.00000000E+00  0.00000000E+00  0.00000000E+00
  0.00000000E+00  0.00000000E+00  0.00000000E+00
  0.00000000E+00  0.00000000E+00  0.00000000E+00
  0.00000000E+00  0.00000000E+00  0.00000000E+00
  0.00000000E+00  0.00000000E+00  0.00000000E+00
  0.00000000E+00  0.00000000E+00  0.00000000E+00
  0.00000000E+00  0.00000000E+00  0.00000000E+00
  0.00000000E+00  0.00000000E+00  0.00000000E+00
  0.00000000E+00  0.00000000E+00  0.00000000E+00
  0.00000000E+00  0.00000000E+00  0.00000000E+00
  0.00000000E+00  0.00000000E+00  0.00000000E+00
  0.00000000E+00  0.00000000E+00  0.00000000E+00
