generated by phonopy                    
   1.00000000000000     
     0.0000000000000000    3.1954111134122849    3.1954111134124661
     3.1954111134123586    0.0000000000000000    3.1954111134124661
     3.1954111134123586    3.1954111134122849    0.0000000000000000
   Na   K    Mg   Hf   H 
     1     1     1     1    24
Direct
  0.2500000000000000  0.2500000000000000  0.2500000000000000
  0.7500000000000000  0.7500000000000000  0.7500000000000000
  0.0000000000000000  0.0000000000000000  0.0000000000000000
  0.5000000000000000  0.5000000000000000  0.5000000000000000
  0.1164595845033531  0.8981161011751055  0.6250326523076950
  0.8981161011751055  0.1164595845033531  0.3603916620138392
  0.6250326523076950  0.3603916620138392  0.1164595845033531
  0.3603916620138392  0.6250326523076950  0.8981161011751055
  0.6250326523076950  0.1164595845033531  0.8981161011751055
  0.3603916620138392  0.8981161011751055  0.1164595845033531
  0.1164595845033531  0.6250326523076950  0.3603916620138392
  0.8981161011751055  0.3603916620138392  0.6250326523076950
  0.8981161011751055  0.6250326523076950  0.1164595845033531
  0.1164595845033531  0.3603916620138392  0.8981161011751055
  0.3603916620138392  0.1164595845033531  0.6250326523076950
  0.6250326523076950  0.8981161011751055  0.3603916620138392
  0.1164595845033531  0.3603916620138392  0.6250326523076950
  0.3603916620138392  0.1164595845033531  0.8981161011751055
  0.6250326523076950  0.8981161011751055  0.1164595845033531
  0.8981161011751055  0.6250326523076950  0.3603916620138392
  0.6250326523076950  0.1164595845033531  0.3603916620138392
  0.8981161011751055  0.3603916620138392  0.1164595845033531
  0.1164595845033531  0.6250326523076950  0.8981161011751055
  0.3603916620138392  0.8981161011751055  0.6250326523076950
  0.3603916620138392  0.6250326523076950  0.1164595845033531
  0.1164595845033531  0.8981161011751055  0.3603916620138392
  0.8981161011751055  0.1164595845033531  0.6250326523076950
  0.6250326523076950  0.3603916620138392  0.8981161011751055
 
  0.00000000E+00  0.00000000E+00  0.00000000E+00
  0.00000000E+00  0.00000000E+00  0.00000000E+00
  0.00000000E+00  0.00000000E+00  0.00000000E+00
  0.00000000E+00  0.00000000E+00  0.00000000E+00
  0.00000000E+00  0.00000000E+00  0.00000000E+00
  0.00000000E+00  0.00000000E+00  0.00000000E+00
  0.00000000E+00  0.00000000E+00  0.00000000E+00
  0.00000000E+00  0.00000000E+00  0.00000000E+00
  0.00000000E+00  0.00000000E+00  0.00000000E+00
  0.00000000E+00  0.00000000E+00  0.00000000E+00
  0.00000000E+00  0.00000000E+00  0.00000000E+00
  0.00000000E+00  0.00000000E+00  0.00000000E+00
  0.00000000E+00  0.00000000E+00  0.00000000E+00
  0.00000000E+00  0.00000000E+00  0.00000000E+00
  0.00000000E+00  0.00000000E+00  0.00000000E+00
  0.00000000E+00  0.00000000E+00  0.00000000E+00
  0.00000000E+00  0.00000000E+00  0.00000000E+00
  0.00000000E+00  0.00000000E+00  0.00000000E+00
  0.00000000E+00  0.00000000E+00  0.00000000E+00
  0.00000000E+00  0.00000000E+00  0.00000000E+00
  0.00000000E+00  0.00000000E+00  0.00000000E+00
  0.00000000E+00  0.00000000E+00  0.00000000E+00
  0.00000000E+00  0.00000000E+00  0.00000000E+00
  0.00000000E+00  0.00000000E+00  0.00000000E+00
  0.00000000E+00  0.00000000E+00  0.00000000E+00
  0.00000000E+00  0.00000000E+00  0.00000000E+00
  0.00000000E+00  0.00000000E+00  0.00000000E+00
  0.00000000E+00  0.00000000E+00  0.00000000E+00
