POSCAR                                  
   1.00000000000000     
    10.1942514450950235    0.0089913050169626    0.0101173859452720
     0.0089885242820767   10.1738729057226944    0.0232116004306240
     0.0067316766293796    0.0154681032470090    6.7638245239969210
   Hf   Na   Zr   Ca   H 
     9     9     9     9   216
Direct
  0.1752078537980921  0.1729790502324917  0.2564481485154388
  0.1661277345077750  0.4938052766688372  0.2534565060140395
  0.8318223579112995  0.1686463545059667  0.2505969566218909
  0.6635751077087377  0.3342943637233518  0.5013185530714495
  0.8286809898092429  0.1667500523801806  0.7499272444805598
  0.3363885626273628  0.0066733515406625  0.9868846342539399
  0.9954266906945719  0.6668469984028604  0.4936167267223226
  0.6611229813035635  0.0027829185186619  0.9994953751463527
  0.0029865008713159  0.0003854909108796  0.9990719963420958
  0.1693699592110818  0.1675580827308067  0.7507179672146194
  0.3315239009820061  0.3338884020743578  0.5042166909094945
  0.4969254020707936  0.1684395574171376  0.7493255695670840
  0.3390156952916143  0.3319714925578623  0.0042063419921305
  0.6613077379294339  0.3343473719753689  0.0001522329355979
  0.8325772121000341  0.5002331413080796  0.2495790472098065
  0.6639768362131804  0.6685040200451979  0.4965763281579072
  0.4995823347870854  0.8338671635966364  0.7461892499342184
  0.8316153779390518  0.8324960200034184  0.2497678458612995
  0.4944372728871684  0.1679921072577315  0.2525835292900283
  0.1693592812577478  0.8349922666472054  0.2521261859397441
  0.5060591097140588  0.5018562830245727  0.2523330853456613
  0.3344111863213612  0.6615903976910786  0.9953666842443596
  0.8288819579416966  0.4994773968503523  0.7482581220589708
  0.6704540894094819  0.6628885980397570  0.0037621318553036
  0.0016023976796262  0.3326023627733932  0.9968766828225597
  0.8282457798768661  0.8324356073760697  0.7450168008679867
  0.9958515109927717  0.6668037676969192  0.0042364772543237
  0.1699037816503548  0.4970039574091203  0.7488256406242826
  0.3401262052421714  0.6650044711598397  0.5058982619125985
  0.1690865432615922  0.8347234624077515  0.7465911168326613
  0.4978924982436368  0.4956711866962635  0.7492297949045650
  0.5035948823374596  0.8329164501720214  0.2482770862762109
  0.3353778954771514  0.0014275010246010  0.5089541068349774
  0.0017516043523784  0.3328893828944359  0.5055438134803012
  0.6642277369524834  0.9942654500669192  0.4975473070012484
  0.9998958409655856  0.0018487396256859  0.5007304585299508
  0.1678257814606994  0.0873612117136915  0.9944759461596178
  0.1684056779704974  0.0841094780795260  0.5044285729469848
  0.1798364000879786  0.4154281816505403  0.9987571644752933
  0.4989517185121173  0.0895973553050169  0.9837982407926589
  0.3354565995800911  0.2600132603073320  0.2520490227049024
  0.1710888584926806  0.4132388389203498  0.5014948301562896
  0.5023080412821344  0.0836020075599606  0.5128113759805757
  0.3326198843915478  0.2513597661455051  0.7651674599770928
  0.1682157284089030  0.7493577943695797  0.9988884762316559
  0.4975234131040196  0.4141731016311709  0.0032385451556749
  0.3311066710988300  0.5826788668323459  0.2557506580570958
  0.1746729048144431  0.7495862611295934  0.4995192959414538
  0.8337926187682854  0.0813647774827402  0.9982080166961538
  0.6589222288362961  0.2523224157112551  0.2363774507510712
  0.4947022080250676  0.4148901633260138  0.4984844728439271
  0.3344394459242537  0.5801224382610783  0.7491934126250541
  0.8292782467317537  0.0801123248305302  0.5022955486905261
  0.6580469739241153  0.2497962361623891  0.7572758620037163
  0.5023570465471394  0.7520380905879023  0.9903850696602419
  0.3375983050201157  0.9155509004106008  0.2467974485527762
  0.8278369682312530  0.4144041756104997  0.0069457981382754
  0.6767861797787162  0.5835590135863953  0.2652695043445661
  0.5033794572254209  0.7479359222276898  0.5013417845483303
  0.3407439404274868  0.9142948077136879  0.7546068337089196
  0.0071865850194470  0.2529138169450604  0.2532701213469650
  0.8320880466646372  0.4165521975416411  0.4865496438160690
  0.6648639859676422  0.5836411153561798  0.7340231855155892
  0.0081327931823267  0.2499092650114960  0.7528683783739893
  0.8309402206881487  0.7551970465493412  0.0082448815514766
  0.6714363039417606  0.9138999207349556  0.2451822705534994
  0.9988398014537196  0.5784785895614135  0.2481190325099263
  0.8192339233365828  0.7510166812010795  0.4874141779191490
  0.6603303319186864  0.9125628278765276  0.7504587423913236
  0.9968940613023491  0.5817707354763897  0.7509031624640699
  0.9965448019833900  0.9160826737214407  0.2528316119138836
  0.9980829716441875  0.9130963024407279  0.7435197447699409
  0.0869207550925708  0.1670512172767360  0.9951257519965253
  0.0820577400221723  0.1670269337909076  0.5151744741405366
  0.0844491850863562  0.4994567938592027  0.9974460047238267
  0.4182979478413458  0.1716136772151202  0.9888250087976118
  0.2593622845459436  0.3358640993943496  0.2520426092089494
  0.0804900362330088  0.5008121130118468  0.5073042554026372
  0.4148920607792306  0.1756166026850039  0.5144514623418885
  0.2497551034522516  0.3305045232021939  0.7547475507330788
  0.0858623313689435  0.8333469917811627  0.9965295524913742
  0.4171763111796167  0.4918800189530117  0.0018921937572074
  0.2538070902873955  0.6620874529213268  0.2565090508672228
  0.0815388780298392  0.8316455515520786  0.5022793648510131
  0.7444374696212464  0.1721259106964084  0.0031054473270586
  0.5833151588461831  0.3290877578889848  0.2409126302252815
  0.4132953046838139  0.4891570599816930  0.4997907188013428
  0.2477159062766887  0.6656578682869352  0.7486545543717398
  0.7438136536381776  0.1660585722297228  0.4964150503682845
  0.5805487965277578  0.3281926322001851  0.7593093110245519
  0.4205107096582239  0.8355890567597868  0.9904728435460015
  0.2529058082315814  0.0041229505595766  0.2544528476136705
  0.7513531649678953  0.4937467498217885  0.0132242852095459
  0.5844895596025452  0.6694588910244335  0.2576281659792059
  0.4211956600519500  0.8356123705014724  0.5005284761922155
  0.2459836830089657  0.0076603414975551  0.7485011701251807
  0.9147809269154834  0.3370594278571772  0.2546046645813220
  0.7529583206290269  0.5116431182986219  0.4883324265293254
  0.5848667524250217  0.6705416798996495  0.7444827902421451
  0.9152573522461864  0.3322056105211360  0.7503044449752849
  0.7520951960341336  0.8330196777383350  0.0081526300259256
  0.5799314428151519  0.0022663536748340  0.2517381130411422
  0.9106832911957525  0.6659400530383763  0.2484421584989391
  0.7518512274254903  0.8223852316544011  0.4906055802123390
  0.5810686251602277  0.9954873587026540  0.7474786058001754
  0.9153993834684542  0.6664893832809327  0.7482699903434025
  0.9151636493994033  0.9986734626530378  0.2463581300702913
  0.9153786459794446  0.9985999638454928  0.7525969791276168
  0.1705959284022640  0.9994861064475771  0.1260579734923084
  0.1672393947055681  0.0076233838444253  0.6267570158604059
  0.1726657880991027  0.3337553501279942  0.1206957448819708
  0.4960761204267001  0.9997025167607916  0.1240804895037186
  0.3357620634983718  0.1682038932509755  0.3857252910955324
  0.1746982403292563  0.3269689009809369  0.6309028320896886
  0.5005420471456503  0.0025810062353244  0.6294469147941726
  0.3351080324998534  0.1872549941291339  0.8602454533640653
  0.1692878710300789  0.6669110146290436  0.1291567529986608
  0.5039660205066525  0.3348607744234897  0.1222388435775983
  0.3376876589786733  0.4994196817958994  0.3783080756483344
  0.1676538992138816  0.6666536555213227  0.6222799332752231
  0.8317032421710593  0.9943003083006445  0.1244969763803567
  0.6641690139040577  0.1633175151564004  0.3757384343162400
  0.4825209066738338  0.3265346069156294  0.6345968484585924
  0.3350664873355527  0.4842454078441349  0.8722966642997321
  0.8314511515747895  0.0008534188223237  0.6198544782322131
  0.6561683797028053  0.1752635912431302  0.8745971654372369
  0.4992678703198621  0.6672697067542543  0.1228327321071419
  0.3399527380210969  0.8326355149686790  0.3796989535780710
  0.8239254978003387  0.3384297194810060  0.1232668004329938
  0.6724632745493508  0.5082279902637339  0.3723336687012662
  0.5051215929897168  0.6717177842831674  0.6294787681583500
  0.3360740106623794  0.8294492226238503  0.8709070942013568
  0.9969901572982849  0.1677535316768726  0.3792014156090957
  0.8329130800714069  0.3325873147936633  0.6256066787973609
  0.6615032308686111  0.4917084247191710  0.8764841020599192
  0.0067282855152726  0.1673846749629746  0.8732871464081171
  0.8337424127464530  0.6670648646516781  0.1337438083870097
  0.6712265862468811  0.8264714198570857  0.3670480944080126
  0.9894207665863846  0.4974614501700003  0.3748118964092768
  0.8261713332607030  0.6661834501537101  0.6197144018277214
  0.6629862520978165  0.8286230370799288  0.8674368023988350
  0.0018842714884713  0.5035356498169108  0.8728971394675042
  0.9909857746964903  0.8356915998357763  0.3713733006921487
  0.0019393687385900  0.8292759421857028  0.8721250167433112
  0.0840189956053408  0.0099604037801342  0.2538763598873999
  0.0842144622511327  0.0055665310042130  0.7498304983909634
  0.0782965078523290  0.3261407033985435  0.2556591978549534
  0.4143816117863253  0.9981634684280252  0.2520129314531729
  0.2532712434253384  0.1746714785497261  0.5186416015706357
  0.0836918415050931  0.3266411090538739  0.7515988639534257
  0.4236453959120752  0.0013590490808610  0.7460261034906708
  0.2489406432286998  0.1738666364433783  0.9899739436384962
  0.0891986315865978  0.6666571476231695  0.2443649918657442
  0.4150765014809892  0.3366397711482634  0.2623303106285704
  0.2526834149361434  0.4964890707083143  0.5008206729851636
  0.0852820512580763  0.6659290171712939  0.7538085362100730
  0.7513071556249713  0.9984767803268824  0.2466176538335816
  0.5812377213245199  0.1636001630442294  0.5155677855089920
  0.4173904064627365  0.3290706244422310  0.7380554872648872
  0.2517278816669162  0.4870373051915635  0.0006096595849314
  0.7471402031232159  0.9972798932239186  0.7474924370696243
  0.5820180313489089  0.1710731212231167  0.9917124927000316
  0.4166831534969617  0.6676796565351708  0.2507002553638600
  0.2522177496414386  0.8295960397082993  0.5003245582790328
  0.7502414025648818  0.3385382434945754  0.2395310047508872
  0.5872532486737967  0.5068058118822023  0.5109162531355622
  0.4251274851669109  0.6708673196165051  0.7497457889404373
  0.2508719364218450  0.8378806077301419  0.9958105259257053
  0.9190567237241751  0.1701854226633870  0.4967834237867947
  0.7474515928157075  0.3337462961988749  0.7682041256018337
  0.5864323374381470  0.4981598678819452  0.9906772873499747
  0.9161920611242138  0.1668292174932731  0.9982506534932440
  0.7500321447888041  0.6625905220562771  0.2548723076648614
  0.5863631113844292  0.8272588169339699  0.5130486103564635
  0.9142005748761051  0.4977383581525743  0.4857215086071207
  0.7464824867350615  0.6689597959628486  0.7262675936449270
  0.5799956030936215  0.8307864442018271  0.9843093288445033
  0.9146847543608061  0.4973766192408249  0.0118184983934810
  0.9160381419813888  0.8331663528317890  0.4861932194770731
  0.9145422292125431  0.8363088576658129  0.0098027610522493
  0.9952961590766733  0.1684076219603838  0.1269107110584997
  0.0111837110648807  0.1671417975830778  0.6227864373187515
  0.9890482525527560  0.4987268422025153  0.1247829236664728
  0.3347992520375556  0.1725881543857142  0.1219119462670548
  0.1687198498448694  0.3345048004334075  0.3873958207120651
  0.0030815056819478  0.4990442063925045  0.6267686169698550
  0.3316910444014098  0.1711457263173770  0.6234055844300599
  0.1783581443260687  0.3282575945478783  0.8755898538732865
  0.9924321511512559  0.8334201941315698  0.1274219681360051
  0.3380424957440056  0.4948371712609116  0.1251868943832832
  0.1720402300593662  0.6667570035929344  0.3767464707663422
  0.0023166773381860  0.8349012238842377  0.6267274700197021
  0.6663766960672106  0.1787171569160151  0.1258706231256710
  0.4961936623651795  0.3331050861214848  0.3814527183449243
  0.3344132091888241  0.4946241439494656  0.6206052855042401
  0.1636208484961301  0.6662247749182626  0.8681596367659381
  0.6529603659299070  0.1635149455139526  0.6213551459461826
  0.5030396414415037  0.3270854029013321  0.8765581921739170
  0.3366898981518887  0.8314280961189482  0.1281623333553767
  0.1682254292101035  0.0011932504490204  0.3800815673415983
  0.6737033519774087  0.4912493802108244  0.1273184327280745
  0.5078543688727706  0.6704085933198343  0.3781712931838968
  0.3395814918270617  0.8321623077747020  0.6257672132125478
  0.1676158544136754  0.0050694999886929  0.8706135546894629
  0.8334759106239460  0.3410661568055957  0.3763116416899095
  0.6607442853491392  0.5071873411917522  0.6208445984275670
  0.5033092957481742  0.6659227072089280  0.8711291167375990
  0.8167563427050908  0.3314234318711726  0.8778843742102822
  0.6729519118989060  0.8331412869629560  0.1235132223009430
  0.4996165271642425  0.9981864455563425  0.3759922679555530
  0.8291029173860878  0.6686853810262008  0.3762660192937375
  0.6514883663301063  0.8281326214978506  0.6163446511635726
  0.5010327927101983  0.0075754387471463  0.8683219485190179
  0.8319810684274458  0.6665587178408572  0.8690346016758284
  0.8319412234281032  0.9914894676597825  0.3762491008877831
  0.8306698956279917  0.0007312760619058  0.8730992262313819
  0.0104123500039606  0.0835961658986974  0.2522901968600095
  0.0009174913093162  0.0852077937007536  0.7514313172390601
  0.9948633387465620  0.4163437276323236  0.2527616865031987
  0.3303503154580270  0.0771720500613569  0.2538508927524461
  0.1746497214082936  0.2513404574756990  0.5129693566090836
  0.9992808483595468  0.4192221992673950  0.7490839051559703
  0.3335128463903700  0.0885919515556779  0.7479532177918813
  0.1775228010775862  0.2516111643529939  0.9893958326616428
  0.9978640087179684  0.7552653992717566  0.2494410609115292
  0.3370982125654436  0.4155216714869496  0.2497593728850660
  0.1699686419775688  0.5843686685294642  0.4977939190702543
  0.9982070484782568  0.7503572919183625  0.7466539077816208
  0.6607000195950263  0.0854413846859359  0.2569445585712273
  0.4919668584078991  0.2510733741681079  0.5089819104823832
  0.3328780119898767  0.4109364944644796  0.7643418961987081
  0.1664818472555112  0.5832059784034698  0.0031616335155036
  0.6596404443873638  0.0845230074672614  0.7419704590861969
  0.4975350948433643  0.2529812671381322  0.9930892271338863
  0.3388257311391243  0.7502444677391864  0.2492020402281483
  0.1673879344461398  0.9196191250883530  0.4979876410064108
  0.6725132041709685  0.4156755685530698  0.2414645709352357
  0.5095252184376307  0.5831319639674675  0.5033474632065094
  0.3407844797999928  0.7535334109643301  0.7552111464129680
  0.1717496096462483  0.9134572550053193  0.9969818881592190
  0.8330054570258483  0.2537282323558685  0.5042722346789787
  0.6655458969816124  0.4157549399912739  0.7604918337086488
  0.5037422950090047  0.5820487760095929  0.9946549923947003
  0.8260896193343896  0.2536387580769599  0.9986863695711961
  0.6701374205143011  0.7512875431157013  0.2561918469465851
  0.4961854846682670  0.9131287732475357  0.4997570648162650
  0.8191929409837968  0.5812520242227066  0.4913459056302472
  0.6597658295994080  0.7464834416877295  0.7440189197703617
  0.4971814521680642  0.9084381904923902  0.9885538501484277
  0.8343878998845966  0.5790079984811740  0.0059719429895395
  0.8343822408246027  0.9189580664000943  0.4842730163584648
  0.8298730189435091  0.9161677033831452  0.0079307792705734
 
  0.00000000E+00  0.00000000E+00  0.00000000E+00
  0.00000000E+00  0.00000000E+00  0.00000000E+00
  0.00000000E+00  0.00000000E+00  0.00000000E+00
  0.00000000E+00  0.00000000E+00  0.00000000E+00
  0.00000000E+00  0.00000000E+00  0.00000000E+00
  0.00000000E+00  0.00000000E+00  0.00000000E+00
  0.00000000E+00  0.00000000E+00  0.00000000E+00
  0.00000000E+00  0.00000000E+00  0.00000000E+00
  0.00000000E+00  0.00000000E+00  0.00000000E+00
  0.00000000E+00  0.00000000E+00  0.00000000E+00
  0.00000000E+00  0.00000000E+00  0.00000000E+00
  0.00000000E+00  0.00000000E+00  0.00000000E+00
  0.00000000E+00  0.00000000E+00  0.00000000E+00
  0.00000000E+00  0.00000000E+00  0.00000000E+00
  0.00000000E+00  0.00000000E+00  0.00000000E+00
  0.00000000E+00  0.00000000E+00  0.00000000E+00
  0.00000000E+00  0.00000000E+00  0.00000000E+00
  0.00000000E+00  0.00000000E+00  0.00000000E+00
  0.00000000E+00  0.00000000E+00  0.00000000E+00
  0.00000000E+00  0.00000000E+00  0.00000000E+00
  0.00000000E+00  0.00000000E+00  0.00000000E+00
  0.00000000E+00  0.00000000E+00  0.00000000E+00
  0.00000000E+00  0.00000000E+00  0.00000000E+00
  0.00000000E+00  0.00000000E+00  0.00000000E+00
  0.00000000E+00  0.00000000E+00  0.00000000E+00
  0.00000000E+00  0.00000000E+00  0.00000000E+00
  0.00000000E+00  0.00000000E+00  0.00000000E+00
  0.00000000E+00  0.00000000E+00  0.00000000E+00
  0.00000000E+00  0.00000000E+00  0.00000000E+00
  0.00000000E+00  0.00000000E+00  0.00000000E+00
  0.00000000E+00  0.00000000E+00  0.00000000E+00
  0.00000000E+00  0.00000000E+00  0.00000000E+00
  0.00000000E+00  0.00000000E+00  0.00000000E+00
  0.00000000E+00  0.00000000E+00  0.00000000E+00
  0.00000000E+00  0.00000000E+00  0.00000000E+00
  0.00000000E+00  0.00000000E+00  0.00000000E+00
  0.00000000E+00  0.00000000E+00  0.00000000E+00
  0.00000000E+00  0.00000000E+00  0.00000000E+00
  0.00000000E+00  0.00000000E+00  0.00000000E+00
  0.00000000E+00  0.00000000E+00  0.00000000E+00
  0.00000000E+00  0.00000000E+00  0.00000000E+00
  0.00000000E+00  0.00000000E+00  0.00000000E+00
  0.00000000E+00  0.00000000E+00  0.00000000E+00
  0.00000000E+00  0.00000000E+00  0.00000000E+00
  0.00000000E+00  0.00000000E+00  0.00000000E+00
  0.00000000E+00  0.00000000E+00  0.00000000E+00
  0.00000000E+00  0.00000000E+00  0.00000000E+00
  0.00000000E+00  0.00000000E+00  0.00000000E+00
  0.00000000E+00  0.00000000E+00  0.00000000E+00
  0.00000000E+00  0.00000000E+00  0.00000000E+00
  0.00000000E+00  0.00000000E+00  0.00000000E+00
  0.00000000E+00  0.00000000E+00  0.00000000E+00
  0.00000000E+00  0.00000000E+00  0.00000000E+00
  0.00000000E+00  0.00000000E+00  0.00000000E+00
  0.00000000E+00  0.00000000E+00  0.00000000E+00
  0.00000000E+00  0.00000000E+00  0.00000000E+00
  0.00000000E+00  0.00000000E+00  0.00000000E+00
  0.00000000E+00  0.00000000E+00  0.00000000E+00
  0.00000000E+00  0.00000000E+00  0.00000000E+00
  0.00000000E+00  0.00000000E+00  0.00000000E+00
  0.00000000E+00  0.00000000E+00  0.00000000E+00
  0.00000000E+00  0.00000000E+00  0.00000000E+00
  0.00000000E+00  0.00000000E+00  0.00000000E+00
  0.00000000E+00  0.00000000E+00  0.00000000E+00
  0.00000000E+00  0.00000000E+00  0.00000000E+00
  0.00000000E+00  0.00000000E+00  0.00000000E+00
  0.00000000E+00  0.00000000E+00  0.00000000E+00
  0.00000000E+00  0.00000000E+00  0.00000000E+00
  0.00000000E+00  0.00000000E+00  0.00000000E+00
  0.00000000E+00  0.00000000E+00  0.00000000E+00
  0.00000000E+00  0.00000000E+00  0.00000000E+00
  0.00000000E+00  0.00000000E+00  0.00000000E+00
  0.00000000E+00  0.00000000E+00  0.00000000E+00
  0.00000000E+00  0.00000000E+00  0.00000000E+00
  0.00000000E+00  0.00000000E+00  0.00000000E+00
  0.00000000E+00  0.00000000E+00  0.00000000E+00
  0.00000000E+00  0.00000000E+00  0.00000000E+00
  0.00000000E+00  0.00000000E+00  0.00000000E+00
  0.00000000E+00  0.00000000E+00  0.00000000E+00
  0.00000000E+00  0.00000000E+00  0.00000000E+00
  0.00000000E+00  0.00000000E+00  0.00000000E+00
  0.00000000E+00  0.00000000E+00  0.00000000E+00
  0.00000000E+00  0.00000000E+00  0.00000000E+00
  0.00000000E+00  0.00000000E+00  0.00000000E+00
  0.00000000E+00  0.00000000E+00  0.00000000E+00
  0.00000000E+00  0.00000000E+00  0.00000000E+00
  0.00000000E+00  0.00000000E+00  0.00000000E+00
  0.00000000E+00  0.00000000E+00  0.00000000E+00
  0.00000000E+00  0.00000000E+00  0.00000000E+00
  0.00000000E+00  0.00000000E+00  0.00000000E+00
  0.00000000E+00  0.00000000E+00  0.00000000E+00
  0.00000000E+00  0.00000000E+00  0.00000000E+00
  0.00000000E+00  0.00000000E+00  0.00000000E+00
  0.00000000E+00  0.00000000E+00  0.00000000E+00
  0.00000000E+00  0.00000000E+00  0.00000000E+00
  0.00000000E+00  0.00000000E+00  0.00000000E+00
  0.00000000E+00  0.00000000E+00  0.00000000E+00
  0.00000000E+00  0.00000000E+00  0.00000000E+00
  0.00000000E+00  0.00000000E+00  0.00000000E+00
  0.00000000E+00  0.00000000E+00  0.00000000E+00
  0.00000000E+00  0.00000000E+00  0.00000000E+00
  0.00000000E+00  0.00000000E+00  0.00000000E+00
  0.00000000E+00  0.00000000E+00  0.00000000E+00
  0.00000000E+00  0.00000000E+00  0.00000000E+00
  0.00000000E+00  0.00000000E+00  0.00000000E+00
  0.00000000E+00  0.00000000E+00  0.00000000E+00
  0.00000000E+00  0.00000000E+00  0.00000000E+00
  0.00000000E+00  0.00000000E+00  0.00000000E+00
  0.00000000E+00  0.00000000E+00  0.00000000E+00
  0.00000000E+00  0.00000000E+00  0.00000000E+00
  0.00000000E+00  0.00000000E+00  0.00000000E+00
  0.00000000E+00  0.00000000E+00  0.00000000E+00
  0.00000000E+00  0.00000000E+00  0.00000000E+00
  0.00000000E+00  0.00000000E+00  0.00000000E+00
  0.00000000E+00  0.00000000E+00  0.00000000E+00
  0.00000000E+00  0.00000000E+00  0.00000000E+00
  0.00000000E+00  0.00000000E+00  0.00000000E+00
  0.00000000E+00  0.00000000E+00  0.00000000E+00
  0.00000000E+00  0.00000000E+00  0.00000000E+00
  0.00000000E+00  0.00000000E+00  0.00000000E+00
  0.00000000E+00  0.00000000E+00  0.00000000E+00
  0.00000000E+00  0.00000000E+00  0.00000000E+00
  0.00000000E+00  0.00000000E+00  0.00000000E+00
  0.00000000E+00  0.00000000E+00  0.00000000E+00
  0.00000000E+00  0.00000000E+00  0.00000000E+00
  0.00000000E+00  0.00000000E+00  0.00000000E+00
  0.00000000E+00  0.00000000E+00  0.00000000E+00
  0.00000000E+00  0.00000000E+00  0.00000000E+00
  0.00000000E+00  0.00000000E+00  0.00000000E+00
  0.00000000E+00  0.00000000E+00  0.00000000E+00
  0.00000000E+00  0.00000000E+00  0.00000000E+00
  0.00000000E+00  0.00000000E+00  0.00000000E+00
  0.00000000E+00  0.00000000E+00  0.00000000E+00
  0.00000000E+00  0.00000000E+00  0.00000000E+00
  0.00000000E+00  0.00000000E+00  0.00000000E+00
  0.00000000E+00  0.00000000E+00  0.00000000E+00
  0.00000000E+00  0.00000000E+00  0.00000000E+00
  0.00000000E+00  0.00000000E+00  0.00000000E+00
  0.00000000E+00  0.00000000E+00  0.00000000E+00
  0.00000000E+00  0.00000000E+00  0.00000000E+00
  0.00000000E+00  0.00000000E+00  0.00000000E+00
  0.00000000E+00  0.00000000E+00  0.00000000E+00
  0.00000000E+00  0.00000000E+00  0.00000000E+00
  0.00000000E+00  0.00000000E+00  0.00000000E+00
  0.00000000E+00  0.00000000E+00  0.00000000E+00
  0.00000000E+00  0.00000000E+00  0.00000000E+00
  0.00000000E+00  0.00000000E+00  0.00000000E+00
  0.00000000E+00  0.00000000E+00  0.00000000E+00
  0.00000000E+00  0.00000000E+00  0.00000000E+00
  0.00000000E+00  0.00000000E+00  0.00000000E+00
  0.00000000E+00  0.00000000E+00  0.00000000E+00
  0.00000000E+00  0.00000000E+00  0.00000000E+00
  0.00000000E+00  0.00000000E+00  0.00000000E+00
  0.00000000E+00  0.00000000E+00  0.00000000E+00
  0.00000000E+00  0.00000000E+00  0.00000000E+00
  0.00000000E+00  0.00000000E+00  0.00000000E+00
  0.00000000E+00  0.00000000E+00  0.00000000E+00
  0.00000000E+00  0.00000000E+00  0.00000000E+00
  0.00000000E+00  0.00000000E+00  0.00000000E+00
  0.00000000E+00  0.00000000E+00  0.00000000E+00
  0.00000000E+00  0.00000000E+00  0.00000000E+00
  0.00000000E+00  0.00000000E+00  0.00000000E+00
  0.00000000E+00  0.00000000E+00  0.00000000E+00
  0.00000000E+00  0.00000000E+00  0.00000000E+00
  0.00000000E+00  0.00000000E+00  0.00000000E+00
  0.00000000E+00  0.00000000E+00  0.00000000E+00
  0.00000000E+00  0.00000000E+00  0.00000000E+00
  0.00000000E+00  0.00000000E+00  0.00000000E+00
  0.00000000E+00  0.00000000E+00  0.00000000E+00
  0.00000000E+00  0.00000000E+00  0.00000000E+00
  0.00000000E+00  0.00000000E+00  0.00000000E+00
  0.00000000E+00  0.00000000E+00  0.00000000E+00
  0.00000000E+00  0.00000000E+00  0.00000000E+00
  0.00000000E+00  0.00000000E+00  0.00000000E+00
  0.00000000E+00  0.00000000E+00  0.00000000E+00
  0.00000000E+00  0.00000000E+00  0.00000000E+00
  0.00000000E+00  0.00000000E+00  0.00000000E+00
  0.00000000E+00  0.00000000E+00  0.00000000E+00
  0.00000000E+00  0.00000000E+00  0.00000000E+00
  0.00000000E+00  0.00000000E+00  0.00000000E+00
  0.00000000E+00  0.00000000E+00  0.00000000E+00
  0.00000000E+00  0.00000000E+00  0.00000000E+00
  0.00000000E+00  0.00000000E+00  0.00000000E+00
  0.00000000E+00  0.00000000E+00  0.00000000E+00
  0.00000000E+00  0.00000000E+00  0.00000000E+00
  0.00000000E+00  0.00000000E+00  0.00000000E+00
  0.00000000E+00  0.00000000E+00  0.00000000E+00
  0.00000000E+00  0.00000000E+00  0.00000000E+00
  0.00000000E+00  0.00000000E+00  0.00000000E+00
  0.00000000E+00  0.00000000E+00  0.00000000E+00
  0.00000000E+00  0.00000000E+00  0.00000000E+00
  0.00000000E+00  0.00000000E+00  0.00000000E+00
  0.00000000E+00  0.00000000E+00  0.00000000E+00
  0.00000000E+00  0.00000000E+00  0.00000000E+00
  0.00000000E+00  0.00000000E+00  0.00000000E+00
  0.00000000E+00  0.00000000E+00  0.00000000E+00
  0.00000000E+00  0.00000000E+00  0.00000000E+00
  0.00000000E+00  0.00000000E+00  0.00000000E+00
  0.00000000E+00  0.00000000E+00  0.00000000E+00
  0.00000000E+00  0.00000000E+00  0.00000000E+00
  0.00000000E+00  0.00000000E+00  0.00000000E+00
  0.00000000E+00  0.00000000E+00  0.00000000E+00
  0.00000000E+00  0.00000000E+00  0.00000000E+00
  0.00000000E+00  0.00000000E+00  0.00000000E+00
  0.00000000E+00  0.00000000E+00  0.00000000E+00
  0.00000000E+00  0.00000000E+00  0.00000000E+00
  0.00000000E+00  0.00000000E+00  0.00000000E+00
  0.00000000E+00  0.00000000E+00  0.00000000E+00
  0.00000000E+00  0.00000000E+00  0.00000000E+00
  0.00000000E+00  0.00000000E+00  0.00000000E+00
  0.00000000E+00  0.00000000E+00  0.00000000E+00
  0.00000000E+00  0.00000000E+00  0.00000000E+00
  0.00000000E+00  0.00000000E+00  0.00000000E+00
  0.00000000E+00  0.00000000E+00  0.00000000E+00
  0.00000000E+00  0.00000000E+00  0.00000000E+00
  0.00000000E+00  0.00000000E+00  0.00000000E+00
  0.00000000E+00  0.00000000E+00  0.00000000E+00
  0.00000000E+00  0.00000000E+00  0.00000000E+00
  0.00000000E+00  0.00000000E+00  0.00000000E+00
  0.00000000E+00  0.00000000E+00  0.00000000E+00
  0.00000000E+00  0.00000000E+00  0.00000000E+00
  0.00000000E+00  0.00000000E+00  0.00000000E+00
  0.00000000E+00  0.00000000E+00  0.00000000E+00
  0.00000000E+00  0.00000000E+00  0.00000000E+00
  0.00000000E+00  0.00000000E+00  0.00000000E+00
  0.00000000E+00  0.00000000E+00  0.00000000E+00
  0.00000000E+00  0.00000000E+00  0.00000000E+00
  0.00000000E+00  0.00000000E+00  0.00000000E+00
  0.00000000E+00  0.00000000E+00  0.00000000E+00
  0.00000000E+00  0.00000000E+00  0.00000000E+00
  0.00000000E+00  0.00000000E+00  0.00000000E+00
  0.00000000E+00  0.00000000E+00  0.00000000E+00
  0.00000000E+00  0.00000000E+00  0.00000000E+00
  0.00000000E+00  0.00000000E+00  0.00000000E+00
  0.00000000E+00  0.00000000E+00  0.00000000E+00
  0.00000000E+00  0.00000000E+00  0.00000000E+00
  0.00000000E+00  0.00000000E+00  0.00000000E+00
  0.00000000E+00  0.00000000E+00  0.00000000E+00
  0.00000000E+00  0.00000000E+00  0.00000000E+00
  0.00000000E+00  0.00000000E+00  0.00000000E+00
  0.00000000E+00  0.00000000E+00  0.00000000E+00
  0.00000000E+00  0.00000000E+00  0.00000000E+00
  0.00000000E+00  0.00000000E+00  0.00000000E+00
  0.00000000E+00  0.00000000E+00  0.00000000E+00
  0.00000000E+00  0.00000000E+00  0.00000000E+00
  0.00000000E+00  0.00000000E+00  0.00000000E+00
  0.00000000E+00  0.00000000E+00  0.00000000E+00
  0.00000000E+00  0.00000000E+00  0.00000000E+00
  0.00000000E+00  0.00000000E+00  0.00000000E+00
  0.00000000E+00  0.00000000E+00  0.00000000E+00
  0.00000000E+00  0.00000000E+00  0.00000000E+00
  0.00000000E+00  0.00000000E+00  0.00000000E+00
