generated by phonopy                    
   1.00000000000000     
     0.0000000000000000    3.3261498555280733    3.3261498555281821
     3.3261498555281186    0.0000000000000000    3.3261498555281821
     3.3261498555281186    3.3261498555280733    0.0000000000000000
   Y    Zr   Ti   Ce   H 
     1     1     1     1    24
Direct
  0.2500000000000000  0.2500000000000000  0.2500000000000000
  0.7500000000000000  0.7500000000000000  0.7500000000000000
  0.0000000000000000  0.0000000000000000  0.0000000000000000
  0.5000000000000000  0.5000000000000000  0.5000000000000000
  0.1184415229687659  0.8803298728842535  0.6382741584912637
  0.8803298728842535  0.1184415229687659  0.3629544456557241
  0.6382741584912637  0.3629544456557241  0.1184415229687659
  0.3629544456557241  0.6382741584912637  0.8803298728842535
  0.6382741584912637  0.1184415229687659  0.8803298728842535
  0.3629544456557241  0.8803298728842535  0.1184415229687659
  0.1184415229687659  0.6382741584912637  0.3629544456557241
  0.8803298728842535  0.3629544456557241  0.6382741584912637
  0.8803298728842535  0.6382741584912637  0.1184415229687659
  0.1184415229687659  0.3629544456557241  0.8803298728842535
  0.3629544456557241  0.1184415229687659  0.6382741584912637
  0.6382741584912637  0.8803298728842535  0.3629544456557241
  0.1184415229687659  0.3629544456557241  0.6382741584912637
  0.3629544456557241  0.1184415229687659  0.8803298728842535
  0.6382741584912637  0.8803298728842535  0.1184415229687659
  0.8803298728842535  0.6382741584912637  0.3629544456557241
  0.6382741584912637  0.1184415229687659  0.3629544456557241
  0.8803298728842535  0.3629544456557241  0.1184415229687659
  0.1184415229687659  0.6382741584912637  0.8803298728842535
  0.3629544456557241  0.8803298728842535  0.6382741584912637
  0.3629544456557241  0.6382741584912637  0.1184415229687659
  0.1184415229687659  0.8803298728842535  0.3629544456557241
  0.8803298728842535  0.1184415229687659  0.6382741584912637
  0.6382741584912637  0.3629544456557241  0.8803298728842535
 
  0.00000000E+00  0.00000000E+00  0.00000000E+00
  0.00000000E+00  0.00000000E+00  0.00000000E+00
  0.00000000E+00  0.00000000E+00  0.00000000E+00
  0.00000000E+00  0.00000000E+00  0.00000000E+00
  0.00000000E+00  0.00000000E+00  0.00000000E+00
  0.00000000E+00  0.00000000E+00  0.00000000E+00
  0.00000000E+00  0.00000000E+00  0.00000000E+00
  0.00000000E+00  0.00000000E+00  0.00000000E+00
  0.00000000E+00  0.00000000E+00  0.00000000E+00
  0.00000000E+00  0.00000000E+00  0.00000000E+00
  0.00000000E+00  0.00000000E+00  0.00000000E+00
  0.00000000E+00  0.00000000E+00  0.00000000E+00
  0.00000000E+00  0.00000000E+00  0.00000000E+00
  0.00000000E+00  0.00000000E+00  0.00000000E+00
  0.00000000E+00  0.00000000E+00  0.00000000E+00
  0.00000000E+00  0.00000000E+00  0.00000000E+00
  0.00000000E+00  0.00000000E+00  0.00000000E+00
  0.00000000E+00  0.00000000E+00  0.00000000E+00
  0.00000000E+00  0.00000000E+00  0.00000000E+00
  0.00000000E+00  0.00000000E+00  0.00000000E+00
  0.00000000E+00  0.00000000E+00  0.00000000E+00
  0.00000000E+00  0.00000000E+00  0.00000000E+00
  0.00000000E+00  0.00000000E+00  0.00000000E+00
  0.00000000E+00  0.00000000E+00  0.00000000E+00
  0.00000000E+00  0.00000000E+00  0.00000000E+00
  0.00000000E+00  0.00000000E+00  0.00000000E+00
  0.00000000E+00  0.00000000E+00  0.00000000E+00
  0.00000000E+00  0.00000000E+00  0.00000000E+00
