POSCAR                                  
   1.00000000000000     
    10.3030545013120456    0.0276965294528504    0.0540781975526863
     0.0276512046668740   10.3225227776551289    0.0027927790284999
     0.0361793968049556    0.0017903318896208    6.8809877521607206
   Zr   Sc   Y    K    H 
     9     9     9     9   216
Direct
  0.1673973920678407  0.1752859206889354  0.2485743311055515
  0.1653943018008022  0.4997941933963546  0.2487967898338823
  0.5055178414394632  0.1609398040847054  0.2481883660556790
  0.5098219782991649  0.1590997113461015  0.7480407096398238
  0.6693433855354201  0.3328183444819217  0.0046253553002273
  0.3378380806438415  0.9958197755791574  0.4947821756386617
  0.0019632494027064  0.3342113007179108  0.9966752339600973
  0.8321205745943487  0.8370120643429360  0.2527791148206617
  0.0005949723294805  0.9992206769442120  0.9967588364656024
  0.1603470115734353  0.1604557796431791  0.7473548793247673
  0.1514650718589650  0.5049080190485071  0.7512933776925692
  0.8361895757495716  0.1705787078882253  0.7495000534374441
  0.8347587400149621  0.4982366976264672  0.2516253925211487
  0.4961942046642775  0.8392989679895209  0.7514579976147857
  0.9983102949840088  0.6650180113275255  0.4944728100812199
  0.8434621906422564  0.8246833356847461  0.7484076389348004
  0.6756979250700255  0.9942710210155852  0.9958507409789448
  0.9930867669969672  0.6670661367092166  0.0057973972400802
  0.3318499946762117  0.3358723358451670  0.5063964414387883
  0.1720794689599998  0.8278320321182662  0.2421708748091618
  0.4968451888561987  0.5015366737612581  0.2548559840378175
  0.3302947381185177  0.6689890434456842  0.5043708417232580
  0.6707280369938147  0.3321210399206578  0.5008146311256638
  0.6622659547040328  0.6681422863603714  0.5051608331338358
  0.3330394151303508  0.0056967144670850  0.0000794377188740
  0.8257911034402170  0.5078567114545933  0.7534569368182176
  0.9995628804973649  0.9986441108809245  0.5002845161670066
  0.3401849978229805  0.3396479536433148  0.9877897117543739
  0.1679792688114574  0.8326105022073449  0.7484647639246731
  0.8393698330200721  0.1670149449567120  0.2579072883127580
  0.4845735228311980  0.4836986746190348  0.7676046491368567
  0.3200962274761991  0.6755573772727175  0.9933623516902443
  0.5136533432317663  0.8257300343492844  0.2443427080227494
  0.9995494574945596  0.3360384246758770  0.4986057766033483
  0.6626361742273588  0.6738023268311437  0.0024472529676558
  0.6704461935063719  0.0002512266471157  0.4958139070805814
  0.1610026468109069  0.0909244256226103  0.9961642025090285
  0.1715398740527476  0.0846146346790206  0.4942355678867187
  0.1700784207729811  0.4164094750086349  0.0008063980462367
  0.5139565549777814  0.0809053678498444  0.9981522495748649
  0.3315696120023119  0.2570881231340749  0.2449750804429556
  0.1634512706971734  0.4190499435449269  0.5045834972521064
  0.5005815752947740  0.0792620929342434  0.4993096288768015
  0.3053656552337074  0.2510099138870316  0.7531450707561120
  0.1450689829610070  0.7445082032892572  0.9916116734801079
  0.5106556291712323  0.4071125373810176  0.0182716761943951
  0.3242866298331677  0.5844662019727096  0.2437246390291463
  0.1592102308735903  0.7473083149571025  0.4971394599418986
  0.8298577604141641  0.0850650879482941  0.9912733637272453
  0.6721015944355102  0.2460444341390797  0.2426753523828253
  0.5024181232201101  0.4114888330947863  0.5031857301313494
  0.3394514257542625  0.5923855783458976  0.7545680065763065
  0.8323955168267858  0.0845411347157281  0.5198349696368538
  0.6774745356279865  0.2455005198270754  0.7556491160465129
  0.4868612309000682  0.7556327591141567  0.9763150381870247
  0.3446061195246202  0.9127071451145028  0.2426002316835891
  0.8344159401821543  0.4176540020282005  0.0014834758534192
  0.6710311882732540  0.5820447638611270  0.2465277858570118
  0.4930189064279631  0.7544171668922885  0.5191201568707200
  0.3394068679042661  0.9186254004136174  0.7493463586340141
  0.0042695648896967  0.2538225910596523  0.2427414373210794
  0.8370004915513363  0.4203444454814758  0.5015964598169518
  0.6504256082762581  0.5812905756656761  0.7539376066688064
  0.0069252396669270  0.2555248598734465  0.7515907411566047
  0.8370406710649831  0.7504250670972965  0.9995501026982154
  0.6667629567684088  0.9235426722214370  0.2398588146555767
  0.9917876923139275  0.5826248137407646  0.2373946692962150
  0.8352929274957148  0.7468146561489561  0.4968637832325697
  0.6655052363038436  0.9171315317426973  0.7506246169687998
  0.9934927384672250  0.5829333658477509  0.7714938940419742
  0.0045936087706764  0.9145170434094041  0.2427640529941115
  0.9945113021329632  0.9136990269287395  0.7524558172030922
  0.0834155045464300  0.1690847634947801  0.9889935277382378
  0.0855835227641961  0.1678131168834796  0.5043011431509683
  0.0740983587111330  0.4987952427463966  0.9960032130254888
  0.4160302950476193  0.1716675180819607  0.9992874705168191
  0.2586599277163018  0.3319142590306328  0.2397897119540531
  0.0778010465565018  0.5044581254379068  0.5080397065987654
  0.4151477058272590  0.1688076839438111  0.5043516648532460
  0.2495843030415301  0.3187399302977525  0.7546682602651416
  0.0801312944489254  0.8351181362730813  0.9978557568986020
  0.4039766481987286  0.5119016445783373  0.0190102810900754
  0.2468662228675953  0.6569532551413033  0.2536230332618601
  0.0828484785042818  0.8276144407354167  0.4954087120482029
  0.7569346054939743  0.1618926990092717  0.9970831611983968
  0.5858126247275166  0.3329329986800076  0.2504378929122950
  0.4120492177796962  0.5031112230496291  0.5060390771738525
  0.2328614419726946  0.6554286465659445  0.7483318455436674
  0.7569515252179215  0.1630007005884764  0.5154335278430580
  0.5835478150915065  0.3252365786817037  0.7529363005973480
  0.4249771893552179  0.8295167956422205  0.9990261461024872
  0.2517665579279580  0.0044740676972594  0.2544781350562531
  0.7495023360460564  0.5017244664333305  0.0143196883571903
  0.5917477312111075  0.6578461013004144  0.2552755255006645
  0.4243035187881645  0.8317689448303298  0.4970774353033320
  0.2495117949296173  0.0088034210526331  0.7435394924143921
  0.9183553478727617  0.3391290723702838  0.2420319994212932
  0.7490664445386770  0.5024830224989003  0.4964407946407761
  0.5762697595807893  0.6792432572334661  0.7618606590950705
  0.9156046653722640  0.3326370107626815  0.7529737305763717
  0.7502282949678118  0.8339496006374887  0.9721739935201725
  0.5902417501716712  0.9927702275697428  0.2398236043889099
  0.9164094423557501  0.6631024646919244  0.2602594337487290
  0.7468706377734975  0.8329324317900983  0.5279016252544437
  0.5957952954868162  0.9864965246110700  0.7535486367286168
  0.9169052595743921  0.6664220689563578  0.7333831236877089
  0.9180237400176594  0.0001329419145009  0.2395820880708897
  0.9136791383877565  0.0146835743437705  0.7518540584560540
  0.1630980344296518  0.0039528186953532  0.1238554655121362
  0.1703491876256820  0.0033854656024630  0.6201228910183190
  0.1716910570678394  0.3382321948701374  0.1153423971784520
  0.5039651314646036  0.9927747422039204  0.1177829401325994
  0.3357791770582779  0.1671060191180942  0.3808575636011398
  0.1620705294718761  0.3332585764069904  0.6277859962643930
  0.5054758421956649  0.9958548915426064  0.6286657508026892
  0.3375412738997881  0.1694353671146374  0.8701295748476312
  0.1515520785301234  0.6579186066411964  0.1169575470884610
  0.5019238165838047  0.3274469062068093  0.1280609311302854
  0.3214641228898714  0.5041132851911527  0.3796963979436967
  0.1502472928275935  0.6625433673416907  0.6319347498020704
  0.8378109075355198  0.9994366275783122  0.1208734915962211
  0.6657910536842522  0.1659269425512733  0.3708540940849616
  0.5044177707729887  0.3229980672097525  0.6259482493646971
  0.3047059396147844  0.5065371437647173  0.8730701025844922
  0.8322549089724802  0.9826352993287983  0.6267252987322181
  0.6708713575788252  0.1643918590504470  0.8808584673513238
  0.4827886085028723  0.6603500191891598  0.1261483934126701
  0.3460692312500768  0.8351136776529486  0.3714786194574700
  0.8345997863332713  0.3346714745664343  0.1243101134786357
  0.6748873437960796  0.4973955393000509  0.3713414404438922
  0.4953797881912720  0.6513739076373284  0.6301933627963834
  0.3363777624016109  0.8427041522770438  0.8686855105186311
  0.0079835838955447  0.1672771323590752  0.3786148991145168
  0.8353229394021255  0.3367414849328298  0.6298032282564705
  0.6547043598863027  0.4996857628240292  0.8892338470559267
  0.0017077060175978  0.1638082588922600  0.8679597906103780
  0.8319762289607553  0.6644254153319622  0.1270963051398297
  0.6758389969603158  0.8347433762145471  0.3805470273478306
  0.9938471258651020  0.5059478413692418  0.3784325987030641
  0.8414385032599156  0.6736307052472839  0.6210537198987964
  0.6851189799201691  0.8358844954368863  0.8732433750252895
  0.9964881403800234  0.5134892087169192  0.8756484978454111
  0.9992264352423703  0.8268977194495051  0.3751027269942426
  0.9975846382842022  0.8203934251356841  0.8699972162491321
  0.0909541688262934  0.9980786247483096  0.2546447683007784
  0.0851258220568880  0.0021008109848921  0.7474116300451001
  0.0810472934258470  0.3415600664709899  0.2498251459544676
  0.4232556596821695  0.9955776638734264  0.2473067521521770
  0.2530173722938258  0.1635523876825005  0.5072739259990584
  0.0830272899692517  0.3307061335776211  0.7465744055649779
  0.4183435095666965  0.0045836299336628  0.7481933644218373
  0.2495888840216196  0.1751983280152629  0.9914296502757765
  0.0758697478011925  0.6639855581546996  0.2612026095944557
  0.4193192508608803  0.3234755606637520  0.2463569613754188
  0.2442494533118804  0.5068586587387784  0.5197629347193455
  0.0750637262256433  0.6679907364205633  0.7295143774236550
  0.7499898118509094  0.0038098997127278  0.2355646438961116
  0.5896121103572227  0.1629971958285878  0.5028311214927825
  0.4171061498180890  0.3068224237947419  0.7442704918456613
  0.2409432747165070  0.5059370272422186  0.9817050377183421
  0.7544094907357888  0.9978455275543610  0.7534485028741997
  0.5934660992429315  0.1542158283436024  0.9979227013366838
  0.4171449564772232  0.6716689771951820  0.2267620390841643
  0.2512527349049094  0.8380939183007499  0.5001237823549971
  0.7559542622468598  0.3355095106273680  0.2433707015839062
  0.5798031865236197  0.4992765205144991  0.5121897787074303
  0.4032438630991422  0.6471426073792301  0.7554010980158878
  0.2518713953058977  0.8453242296471828  0.9906410948499840
  0.9185006476178685  0.1703493964067704  0.5142851956018220
  0.7537934268635667  0.3284652649611814  0.7584906321486642
  0.5759476321740777  0.5156299442536678  0.9973013532667494
  0.9166305118938212  0.1690692984916282  0.9926532125183485
  0.7542069918103635  0.6653251009629173  0.2503466917621608
  0.5824399154673685  0.8396174205617157  0.5173284071587503
  0.9155528635617571  0.5033353779637437  0.4948805651997787
  0.7476563638419407  0.6801609668612798  0.7522779471484569
  0.5871953321248853  0.8448501557315495  0.9749720419870584
  0.9142237373208886  0.4952809335571899  0.0074826523815688
  0.9177165945398471  0.8267148093241019  0.4974342805316994
  0.9164998580229806  0.8361523256318577  0.0054267238841916
  0.0039564772748477  0.1648288226763341  0.1185157213284569
  0.0047151757570063  0.1673896308510123  0.6252030092694625
  0.9945059566689523  0.5117935766386523  0.1321673097907663
  0.3368012900230966  0.1732949162371753  0.1213840392701400
  0.1665926272743974  0.3365090698707291  0.3775369348316246
  0.9983022975977818  0.5076270086073933  0.6203692886116698
  0.3290819291664917  0.1634112101608665  0.6206481040611109
  0.1648978952928246  0.3430131606264979  0.8776789002878971
  0.9965780971716498  0.8256508586362727  0.1267738757285954
  0.3416484032366682  0.5087980742016640  0.1115075371000174
  0.1594289258090953  0.6618636034256440  0.3764245283065506
  0.9985032389765962  0.8240894558064369  0.6216457765053605
  0.6720085383136052  0.1642871696468973  0.1219379640033011
  0.5034248609252572  0.3279740661555763  0.3772888082842556
  0.3084432235269219  0.5031978534199766  0.6287501987513551
  0.1490896131401485  0.6618637392891102  0.8747014111969165
  0.6722969114676545  0.1649703862393466  0.6243231682936354
  0.5122043644386096  0.3146997778391665  0.8784183687344935
  0.3459799762045321  0.8427246601973337  0.1237804109774743
  0.1634926098948242  0.0002940356455738  0.3641139236155482
  0.6733626035210989  0.5034580035569860  0.1319765701378515
  0.4955278421661973  0.6644955120894736  0.3819120736393273
  0.3369090407037945  0.8365598328919504  0.6257542123936162
  0.1665674216705071  0.0040332806223518  0.8714422487183526
  0.8357693958672101  0.3412791691884252  0.3715129498327130
  0.6539693594166849  0.5004916237954191  0.6344161793551280
  0.4938198576144330  0.6747666650336441  0.8711742807573728
  0.8317350537979564  0.3388117337024497  0.8771035059883019
  0.6809026566132061  0.8400224549353084  0.1195891326157010
  0.5030024678074341  0.9950377125039793  0.3726623295468698
  0.8369277848026968  0.6628123460839035  0.3743167950102233
  0.6829441227155186  0.8365897462055401  0.6326457625342670
  0.5014733067711816  0.9985620013985042  0.8745729945783864
  0.8375185240050769  0.6742087867969673  0.8843690115610912
  0.8369162124630947  0.9967592129933962  0.3738843887294507
  0.8338330560684213  0.9879425520685317  0.8697768691361389
  0.0054506612999177  0.0829051566361798  0.2405796464639494
  0.9929743633382202  0.0871488592491758  0.7531351358732721
  0.0042244804069256  0.4165798040286077  0.2448884264677105
  0.3335339697769086  0.0863730832181346  0.2539397519838502
  0.1667778401997637  0.2515105826814974  0.5132745972707653
  0.9975818418717495  0.4160245816601673  0.7515424607680998
  0.3414630733381614  0.0861527717737687  0.7446291712524058
  0.1698236609350445  0.2532321778559634  0.9822779639497909
  0.9964013330795467  0.7499221692103148  0.2399072701769995
  0.3257535719945963  0.4165465258595518  0.2440412300308665
  0.1585703881630565  0.5843275559576000  0.4973674054744208
  0.0027116327977907  0.7509086460805179  0.7688862250422659
  0.6762145055703428  0.0808975746276417  0.2313990686133636
  0.4982437368247687  0.2441965081378186  0.4991464197372366
  0.3010870121308784  0.4196502269625242  0.7491768583855745
  0.1531702680982363  0.5830660339470199  0.0013890105543908
  0.6838743636689060  0.0761147962919395  0.7580509224063832
  0.5052338992868641  0.2443648590677370  0.0041105103677666
  0.3450048700161688  0.7483783800504042  0.2549196339873490
  0.1697650816132494  0.9159095669832524  0.4947293410038682
  0.6668073705045146  0.4188995593133100  0.2527269102759178
  0.4964934071122187  0.5837213280453000  0.5369667561955680
  0.3453824371412253  0.7606086472740827  0.7447731118355847
  0.1645305940396256  0.9170935450571207  0.9961249982474314
  0.8388269681384131  0.2481056563678123  0.5124368819039589
  0.6612074611848797  0.4158202647330995  0.7529916182372460
  0.5058700221437462  0.5810211542864536  0.0013760371307541
  0.8346678146652735  0.2460640529602429  0.9996075131132969
  0.6801231978684044  0.7455751883360335  0.2534456112734063
  0.5062467348960880  0.9127791139813155  0.5038061700425231
  0.8352750225270213  0.5876885346798701  0.4905336152083066
  0.6430843752740500  0.7487323302698314  0.7538798741172243
  0.5096225955922478  0.9206804253290741  0.9983336873336413
  0.8320539028158294  0.5870534393907931  0.0157577968867670
  0.8347801879267038  0.9167449287018599  0.5263754955187849
  0.8382400760667323  0.9175611153908321  0.9765491950885732
 
  0.00000000E+00  0.00000000E+00  0.00000000E+00
  0.00000000E+00  0.00000000E+00  0.00000000E+00
  0.00000000E+00  0.00000000E+00  0.00000000E+00
  0.00000000E+00  0.00000000E+00  0.00000000E+00
  0.00000000E+00  0.00000000E+00  0.00000000E+00
  0.00000000E+00  0.00000000E+00  0.00000000E+00
  0.00000000E+00  0.00000000E+00  0.00000000E+00
  0.00000000E+00  0.00000000E+00  0.00000000E+00
  0.00000000E+00  0.00000000E+00  0.00000000E+00
  0.00000000E+00  0.00000000E+00  0.00000000E+00
  0.00000000E+00  0.00000000E+00  0.00000000E+00
  0.00000000E+00  0.00000000E+00  0.00000000E+00
  0.00000000E+00  0.00000000E+00  0.00000000E+00
  0.00000000E+00  0.00000000E+00  0.00000000E+00
  0.00000000E+00  0.00000000E+00  0.00000000E+00
  0.00000000E+00  0.00000000E+00  0.00000000E+00
  0.00000000E+00  0.00000000E+00  0.00000000E+00
  0.00000000E+00  0.00000000E+00  0.00000000E+00
  0.00000000E+00  0.00000000E+00  0.00000000E+00
  0.00000000E+00  0.00000000E+00  0.00000000E+00
  0.00000000E+00  0.00000000E+00  0.00000000E+00
  0.00000000E+00  0.00000000E+00  0.00000000E+00
  0.00000000E+00  0.00000000E+00  0.00000000E+00
  0.00000000E+00  0.00000000E+00  0.00000000E+00
  0.00000000E+00  0.00000000E+00  0.00000000E+00
  0.00000000E+00  0.00000000E+00  0.00000000E+00
  0.00000000E+00  0.00000000E+00  0.00000000E+00
  0.00000000E+00  0.00000000E+00  0.00000000E+00
  0.00000000E+00  0.00000000E+00  0.00000000E+00
  0.00000000E+00  0.00000000E+00  0.00000000E+00
  0.00000000E+00  0.00000000E+00  0.00000000E+00
  0.00000000E+00  0.00000000E+00  0.00000000E+00
  0.00000000E+00  0.00000000E+00  0.00000000E+00
  0.00000000E+00  0.00000000E+00  0.00000000E+00
  0.00000000E+00  0.00000000E+00  0.00000000E+00
  0.00000000E+00  0.00000000E+00  0.00000000E+00
  0.00000000E+00  0.00000000E+00  0.00000000E+00
  0.00000000E+00  0.00000000E+00  0.00000000E+00
  0.00000000E+00  0.00000000E+00  0.00000000E+00
  0.00000000E+00  0.00000000E+00  0.00000000E+00
  0.00000000E+00  0.00000000E+00  0.00000000E+00
  0.00000000E+00  0.00000000E+00  0.00000000E+00
  0.00000000E+00  0.00000000E+00  0.00000000E+00
  0.00000000E+00  0.00000000E+00  0.00000000E+00
  0.00000000E+00  0.00000000E+00  0.00000000E+00
  0.00000000E+00  0.00000000E+00  0.00000000E+00
  0.00000000E+00  0.00000000E+00  0.00000000E+00
  0.00000000E+00  0.00000000E+00  0.00000000E+00
  0.00000000E+00  0.00000000E+00  0.00000000E+00
  0.00000000E+00  0.00000000E+00  0.00000000E+00
  0.00000000E+00  0.00000000E+00  0.00000000E+00
  0.00000000E+00  0.00000000E+00  0.00000000E+00
  0.00000000E+00  0.00000000E+00  0.00000000E+00
  0.00000000E+00  0.00000000E+00  0.00000000E+00
  0.00000000E+00  0.00000000E+00  0.00000000E+00
  0.00000000E+00  0.00000000E+00  0.00000000E+00
  0.00000000E+00  0.00000000E+00  0.00000000E+00
  0.00000000E+00  0.00000000E+00  0.00000000E+00
  0.00000000E+00  0.00000000E+00  0.00000000E+00
  0.00000000E+00  0.00000000E+00  0.00000000E+00
  0.00000000E+00  0.00000000E+00  0.00000000E+00
  0.00000000E+00  0.00000000E+00  0.00000000E+00
  0.00000000E+00  0.00000000E+00  0.00000000E+00
  0.00000000E+00  0.00000000E+00  0.00000000E+00
  0.00000000E+00  0.00000000E+00  0.00000000E+00
  0.00000000E+00  0.00000000E+00  0.00000000E+00
  0.00000000E+00  0.00000000E+00  0.00000000E+00
  0.00000000E+00  0.00000000E+00  0.00000000E+00
  0.00000000E+00  0.00000000E+00  0.00000000E+00
  0.00000000E+00  0.00000000E+00  0.00000000E+00
  0.00000000E+00  0.00000000E+00  0.00000000E+00
  0.00000000E+00  0.00000000E+00  0.00000000E+00
  0.00000000E+00  0.00000000E+00  0.00000000E+00
  0.00000000E+00  0.00000000E+00  0.00000000E+00
  0.00000000E+00  0.00000000E+00  0.00000000E+00
  0.00000000E+00  0.00000000E+00  0.00000000E+00
  0.00000000E+00  0.00000000E+00  0.00000000E+00
  0.00000000E+00  0.00000000E+00  0.00000000E+00
  0.00000000E+00  0.00000000E+00  0.00000000E+00
  0.00000000E+00  0.00000000E+00  0.00000000E+00
  0.00000000E+00  0.00000000E+00  0.00000000E+00
  0.00000000E+00  0.00000000E+00  0.00000000E+00
  0.00000000E+00  0.00000000E+00  0.00000000E+00
  0.00000000E+00  0.00000000E+00  0.00000000E+00
  0.00000000E+00  0.00000000E+00  0.00000000E+00
  0.00000000E+00  0.00000000E+00  0.00000000E+00
  0.00000000E+00  0.00000000E+00  0.00000000E+00
  0.00000000E+00  0.00000000E+00  0.00000000E+00
  0.00000000E+00  0.00000000E+00  0.00000000E+00
  0.00000000E+00  0.00000000E+00  0.00000000E+00
  0.00000000E+00  0.00000000E+00  0.00000000E+00
  0.00000000E+00  0.00000000E+00  0.00000000E+00
  0.00000000E+00  0.00000000E+00  0.00000000E+00
  0.00000000E+00  0.00000000E+00  0.00000000E+00
  0.00000000E+00  0.00000000E+00  0.00000000E+00
  0.00000000E+00  0.00000000E+00  0.00000000E+00
  0.00000000E+00  0.00000000E+00  0.00000000E+00
  0.00000000E+00  0.00000000E+00  0.00000000E+00
  0.00000000E+00  0.00000000E+00  0.00000000E+00
  0.00000000E+00  0.00000000E+00  0.00000000E+00
  0.00000000E+00  0.00000000E+00  0.00000000E+00
  0.00000000E+00  0.00000000E+00  0.00000000E+00
  0.00000000E+00  0.00000000E+00  0.00000000E+00
  0.00000000E+00  0.00000000E+00  0.00000000E+00
  0.00000000E+00  0.00000000E+00  0.00000000E+00
  0.00000000E+00  0.00000000E+00  0.00000000E+00
  0.00000000E+00  0.00000000E+00  0.00000000E+00
  0.00000000E+00  0.00000000E+00  0.00000000E+00
  0.00000000E+00  0.00000000E+00  0.00000000E+00
  0.00000000E+00  0.00000000E+00  0.00000000E+00
  0.00000000E+00  0.00000000E+00  0.00000000E+00
  0.00000000E+00  0.00000000E+00  0.00000000E+00
  0.00000000E+00  0.00000000E+00  0.00000000E+00
  0.00000000E+00  0.00000000E+00  0.00000000E+00
  0.00000000E+00  0.00000000E+00  0.00000000E+00
  0.00000000E+00  0.00000000E+00  0.00000000E+00
  0.00000000E+00  0.00000000E+00  0.00000000E+00
  0.00000000E+00  0.00000000E+00  0.00000000E+00
  0.00000000E+00  0.00000000E+00  0.00000000E+00
  0.00000000E+00  0.00000000E+00  0.00000000E+00
  0.00000000E+00  0.00000000E+00  0.00000000E+00
  0.00000000E+00  0.00000000E+00  0.00000000E+00
  0.00000000E+00  0.00000000E+00  0.00000000E+00
  0.00000000E+00  0.00000000E+00  0.00000000E+00
  0.00000000E+00  0.00000000E+00  0.00000000E+00
  0.00000000E+00  0.00000000E+00  0.00000000E+00
  0.00000000E+00  0.00000000E+00  0.00000000E+00
  0.00000000E+00  0.00000000E+00  0.00000000E+00
  0.00000000E+00  0.00000000E+00  0.00000000E+00
  0.00000000E+00  0.00000000E+00  0.00000000E+00
  0.00000000E+00  0.00000000E+00  0.00000000E+00
  0.00000000E+00  0.00000000E+00  0.00000000E+00
  0.00000000E+00  0.00000000E+00  0.00000000E+00
  0.00000000E+00  0.00000000E+00  0.00000000E+00
  0.00000000E+00  0.00000000E+00  0.00000000E+00
  0.00000000E+00  0.00000000E+00  0.00000000E+00
  0.00000000E+00  0.00000000E+00  0.00000000E+00
  0.00000000E+00  0.00000000E+00  0.00000000E+00
  0.00000000E+00  0.00000000E+00  0.00000000E+00
  0.00000000E+00  0.00000000E+00  0.00000000E+00
  0.00000000E+00  0.00000000E+00  0.00000000E+00
  0.00000000E+00  0.00000000E+00  0.00000000E+00
  0.00000000E+00  0.00000000E+00  0.00000000E+00
  0.00000000E+00  0.00000000E+00  0.00000000E+00
  0.00000000E+00  0.00000000E+00  0.00000000E+00
  0.00000000E+00  0.00000000E+00  0.00000000E+00
  0.00000000E+00  0.00000000E+00  0.00000000E+00
  0.00000000E+00  0.00000000E+00  0.00000000E+00
  0.00000000E+00  0.00000000E+00  0.00000000E+00
  0.00000000E+00  0.00000000E+00  0.00000000E+00
  0.00000000E+00  0.00000000E+00  0.00000000E+00
  0.00000000E+00  0.00000000E+00  0.00000000E+00
  0.00000000E+00  0.00000000E+00  0.00000000E+00
  0.00000000E+00  0.00000000E+00  0.00000000E+00
  0.00000000E+00  0.00000000E+00  0.00000000E+00
  0.00000000E+00  0.00000000E+00  0.00000000E+00
  0.00000000E+00  0.00000000E+00  0.00000000E+00
  0.00000000E+00  0.00000000E+00  0.00000000E+00
  0.00000000E+00  0.00000000E+00  0.00000000E+00
  0.00000000E+00  0.00000000E+00  0.00000000E+00
  0.00000000E+00  0.00000000E+00  0.00000000E+00
  0.00000000E+00  0.00000000E+00  0.00000000E+00
  0.00000000E+00  0.00000000E+00  0.00000000E+00
  0.00000000E+00  0.00000000E+00  0.00000000E+00
  0.00000000E+00  0.00000000E+00  0.00000000E+00
  0.00000000E+00  0.00000000E+00  0.00000000E+00
  0.00000000E+00  0.00000000E+00  0.00000000E+00
  0.00000000E+00  0.00000000E+00  0.00000000E+00
  0.00000000E+00  0.00000000E+00  0.00000000E+00
  0.00000000E+00  0.00000000E+00  0.00000000E+00
  0.00000000E+00  0.00000000E+00  0.00000000E+00
  0.00000000E+00  0.00000000E+00  0.00000000E+00
  0.00000000E+00  0.00000000E+00  0.00000000E+00
  0.00000000E+00  0.00000000E+00  0.00000000E+00
  0.00000000E+00  0.00000000E+00  0.00000000E+00
  0.00000000E+00  0.00000000E+00  0.00000000E+00
  0.00000000E+00  0.00000000E+00  0.00000000E+00
  0.00000000E+00  0.00000000E+00  0.00000000E+00
  0.00000000E+00  0.00000000E+00  0.00000000E+00
  0.00000000E+00  0.00000000E+00  0.00000000E+00
  0.00000000E+00  0.00000000E+00  0.00000000E+00
  0.00000000E+00  0.00000000E+00  0.00000000E+00
  0.00000000E+00  0.00000000E+00  0.00000000E+00
  0.00000000E+00  0.00000000E+00  0.00000000E+00
  0.00000000E+00  0.00000000E+00  0.00000000E+00
  0.00000000E+00  0.00000000E+00  0.00000000E+00
  0.00000000E+00  0.00000000E+00  0.00000000E+00
  0.00000000E+00  0.00000000E+00  0.00000000E+00
  0.00000000E+00  0.00000000E+00  0.00000000E+00
  0.00000000E+00  0.00000000E+00  0.00000000E+00
  0.00000000E+00  0.00000000E+00  0.00000000E+00
  0.00000000E+00  0.00000000E+00  0.00000000E+00
  0.00000000E+00  0.00000000E+00  0.00000000E+00
  0.00000000E+00  0.00000000E+00  0.00000000E+00
  0.00000000E+00  0.00000000E+00  0.00000000E+00
  0.00000000E+00  0.00000000E+00  0.00000000E+00
  0.00000000E+00  0.00000000E+00  0.00000000E+00
  0.00000000E+00  0.00000000E+00  0.00000000E+00
  0.00000000E+00  0.00000000E+00  0.00000000E+00
  0.00000000E+00  0.00000000E+00  0.00000000E+00
  0.00000000E+00  0.00000000E+00  0.00000000E+00
  0.00000000E+00  0.00000000E+00  0.00000000E+00
  0.00000000E+00  0.00000000E+00  0.00000000E+00
  0.00000000E+00  0.00000000E+00  0.00000000E+00
  0.00000000E+00  0.00000000E+00  0.00000000E+00
  0.00000000E+00  0.00000000E+00  0.00000000E+00
  0.00000000E+00  0.00000000E+00  0.00000000E+00
  0.00000000E+00  0.00000000E+00  0.00000000E+00
  0.00000000E+00  0.00000000E+00  0.00000000E+00
  0.00000000E+00  0.00000000E+00  0.00000000E+00
  0.00000000E+00  0.00000000E+00  0.00000000E+00
  0.00000000E+00  0.00000000E+00  0.00000000E+00
  0.00000000E+00  0.00000000E+00  0.00000000E+00
  0.00000000E+00  0.00000000E+00  0.00000000E+00
  0.00000000E+00  0.00000000E+00  0.00000000E+00
  0.00000000E+00  0.00000000E+00  0.00000000E+00
  0.00000000E+00  0.00000000E+00  0.00000000E+00
  0.00000000E+00  0.00000000E+00  0.00000000E+00
  0.00000000E+00  0.00000000E+00  0.00000000E+00
  0.00000000E+00  0.00000000E+00  0.00000000E+00
  0.00000000E+00  0.00000000E+00  0.00000000E+00
  0.00000000E+00  0.00000000E+00  0.00000000E+00
  0.00000000E+00  0.00000000E+00  0.00000000E+00
  0.00000000E+00  0.00000000E+00  0.00000000E+00
  0.00000000E+00  0.00000000E+00  0.00000000E+00
  0.00000000E+00  0.00000000E+00  0.00000000E+00
  0.00000000E+00  0.00000000E+00  0.00000000E+00
  0.00000000E+00  0.00000000E+00  0.00000000E+00
  0.00000000E+00  0.00000000E+00  0.00000000E+00
  0.00000000E+00  0.00000000E+00  0.00000000E+00
  0.00000000E+00  0.00000000E+00  0.00000000E+00
  0.00000000E+00  0.00000000E+00  0.00000000E+00
  0.00000000E+00  0.00000000E+00  0.00000000E+00
  0.00000000E+00  0.00000000E+00  0.00000000E+00
  0.00000000E+00  0.00000000E+00  0.00000000E+00
  0.00000000E+00  0.00000000E+00  0.00000000E+00
  0.00000000E+00  0.00000000E+00  0.00000000E+00
  0.00000000E+00  0.00000000E+00  0.00000000E+00
  0.00000000E+00  0.00000000E+00  0.00000000E+00
  0.00000000E+00  0.00000000E+00  0.00000000E+00
  0.00000000E+00  0.00000000E+00  0.00000000E+00
  0.00000000E+00  0.00000000E+00  0.00000000E+00
  0.00000000E+00  0.00000000E+00  0.00000000E+00
  0.00000000E+00  0.00000000E+00  0.00000000E+00
  0.00000000E+00  0.00000000E+00  0.00000000E+00
  0.00000000E+00  0.00000000E+00  0.00000000E+00
  0.00000000E+00  0.00000000E+00  0.00000000E+00
  0.00000000E+00  0.00000000E+00  0.00000000E+00
  0.00000000E+00  0.00000000E+00  0.00000000E+00
  0.00000000E+00  0.00000000E+00  0.00000000E+00
  0.00000000E+00  0.00000000E+00  0.00000000E+00
  0.00000000E+00  0.00000000E+00  0.00000000E+00
