       N       E                     dE             d eps       ncg     rms          rms(c)
DAV:   1     0.114969571618E+05    0.11497E+05   -0.28902E+05148360   0.181E+03
DAV:   2     0.150342701356E+04   -0.99935E+04   -0.93769E+04203280   0.817E+02
DAV:   3    -0.324732561031E+03   -0.18282E+04   -0.16945E+04247696   0.366E+02
DAV:   4    -0.600209443438E+03   -0.27548E+03   -0.26136E+03278592   0.182E+02
DAV:   5    -0.633909524093E+03   -0.33700E+02   -0.32215E+02280768   0.773E+01
DAV:   6    -0.640503805844E+03   -0.65943E+01   -0.64246E+01280768   0.318E+01
DAV:   7    -0.641802850958E+03   -0.12990E+01   -0.12807E+01280768   0.162E+01
DAV:   8    -0.642054396069E+03   -0.25155E+00   -0.24948E+00280768   0.676E+00
DAV:   9    -0.642100465489E+03   -0.46069E-01   -0.45846E-01280768   0.312E+00
DAV:  10    -0.642109031724E+03   -0.85662E-02   -0.85389E-02280768   0.121E+00
DAV:  11    -0.642110677292E+03   -0.16456E-02   -0.16417E-02280768   0.537E-01
DAV:  12    -0.642111008255E+03   -0.33096E-03   -0.33037E-03280768   0.212E-01
DAV:  13    -0.642111077280E+03   -0.69025E-04   -0.68925E-04280768   0.956E-02
DAV:  14    -0.642111092164E+03   -0.14884E-04   -0.14867E-04280760   0.390E-02
DAV:  15    -0.642111095454E+03   -0.32897E-05   -0.32877E-05255904   0.178E-02
DAV:  16    -0.642111096196E+03   -0.74206E-06   -0.74024E-06207104   0.741E-03
DAV:  17    -0.642111096363E+03   -0.16706E-06   -0.16743E-06158712   0.351E-03
DAV:  18    -0.642111096403E+03   -0.39901E-07   -0.39947E-07144560   0.190E-03
   1 F= -.64211110E+03 E0= -.64211110E+03  d E =0.000000E+00
