POSCAR                                  
   1.00000000000000     
    10.3030545013120456    0.0276965294528504    0.0540781975526863
     0.0276512046668740   10.3225227776551289    0.0027927790284999
     0.0361793968049556    0.0017903318896208    6.8809877521607206
   Zr   Sc   Y    K    H 
     9     9     9     9   216
Direct
  0.1673973920678384  0.1752859206889365  0.2485743311055529
  0.1653943018008031  0.4997941933963511  0.2487967898338816
  0.5055178414394663  0.1609398040847019  0.2481883660556764
  0.5098219782991621  0.1590997113461012  0.7480407096398205
  0.6693433855354196  0.3328183444819196  0.0046253553002249
  0.3378380806438415  0.9958197755791561  0.4947821756386631
  0.0019632494027051  0.3342113007179144  0.9966752339600993
  0.8321205745943459  0.8370120643429364  0.2527791148206641
  0.0005949723294806  0.9992206769442096  0.9967588364656036
  0.1603470115734364  0.1604557796431762  0.7473548793247643
  0.1514650718589669  0.5049080190485037  0.7512933776925707
  0.8361895757495724  0.1705787078882231  0.7495000534374410
  0.8347587400149590  0.4982366976264649  0.2516253925211515
  0.4961942046642745  0.8392989679895221  0.7514579976147842
  0.9983102949840078  0.6650180113275227  0.4944728100812214
  0.8434621906422544  0.8246833356847485  0.7484076389348000
  0.6756979250700285  0.9942710210155885  0.9958507409789461
  0.9930867669969675  0.6670661367092149  0.0057973972400771
  0.3318499946762083  0.3358723358451655  0.5063964414387913
  0.1720794689600020  0.8278320321182677  0.2421708748091631
  0.4968451888561967  0.5015366737612571  0.2548559840378188
  0.3302947381185163  0.6689890434456822  0.5043708417232574
  0.6707280369938164  0.3321210399206561  0.5008146311256637
  0.6622659547040308  0.6681422863603700  0.5051608331338370
  0.3330394151303481  0.0056967144670840  0.0000794377188741
  0.8257911034402153  0.5078567114545968  0.7534569368182165
  0.9995628804973681  0.9986441108809245  0.5002845161670101
  0.3401849978229809  0.3396479536433138  0.9877897117543757
  0.1679792688114565  0.8326105022073483  0.7484647639246760
  0.8393698330200723  0.1670149449567121  0.2579072883127555
  0.4845735228311989  0.4836986746190380  0.7676046491368540
  0.3200962274762017  0.6755573772727145  0.9933623516902437
  0.5136533432317674  0.8257300343492809  0.2443427080227467
  0.9995494574945570  0.3360384246758798  0.4986057766033503
  0.6626361742273621  0.6738023268311465  0.0024472529676591
  0.6704461935063720  0.0002512266471138  0.4958139070805801
  0.1610026468109089  0.0909244256226095  0.9961642025090259
  0.1715398740527497  0.0846146346790207  0.4942355678867167
  0.1700784207729811  0.4164094750086323  0.0008063980462356
  0.5139565549777814  0.0809053678498411  0.9981522495748630
  0.3315696120023138  0.2570881231340765  0.2449750804429566
  0.1634512706971707  0.4190499435449302  0.5045834972521089
  0.5005815752947725  0.0792620929342424  0.4993096288768044
  0.3053656552337052  0.2510099138870284  0.7531450707561087
  0.1450689829610104  0.7445082032892544  0.9916116734801051
  0.5106556291712322  0.4071125373810188  0.0182716761943920
  0.3242866298331696  0.5844662019727119  0.2437246390291452
  0.1592102308735918  0.7473083149571054  0.4971394599418972
  0.8298577604141670  0.0850650879482934  0.9912733637272427
  0.6721015944355077  0.2460444341390786  0.2426753523828286
  0.5024181232201111  0.4114888330947833  0.5031857301313469
  0.3394514257542603  0.5923855783458969  0.7545680065763063
  0.8323955168267827  0.0845411347157265  0.5198349696368547
  0.6774745356279883  0.2455005198270748  0.7556491160465142
  0.4868612309000656  0.7556327591141584  0.9763150381870265
  0.3446061195246181  0.9127071451144994  0.2426002316835894
  0.8344159401821543  0.4176540020282036  0.0014834758534208
  0.6710311882732544  0.5820447638611241  0.2465277858570106
  0.4930189064279660  0.7544171668922897  0.5191201568707207
  0.3394068679042681  0.9186254004136142  0.7493463586340108
  0.0042695648896981  0.2538225910596494  0.2427414373210797
  0.8370004915513386  0.4203444454814763  0.5015964598169497
  0.6504256082762570  0.5812905756656779  0.7539376066688063
  0.0069252396669262  0.2555248598734495  0.7515907411566051
  0.8370406710649818  0.7504250670972987  0.9995501026982159
  0.6667629567684124  0.9235426722214360  0.2398588146555797
  0.9917876923139265  0.5826248137407680  0.2373946692962148
  0.8352929274957179  0.7468146561489550  0.4968637832325687
  0.6655052363038447  0.9171315317426978  0.7506246169688001
  0.9934927384672234  0.5829333658477533  0.7714938940419740
  0.0045936087706794  0.9145170434094015  0.2427640529941133
  0.9945113021329608  0.9136990269287397  0.7524558172030956
  0.0834155045464333  0.1690847634947814  0.9889935277382352
  0.0855835227641990  0.1678131168834772  0.5043011431509657
  0.0740983587111335  0.4987952427463956  0.9960032130254863
  0.4160302950476165  0.1716675180819620 -0.0007125294831840
  0.2586599277163040  0.3319142590306352  0.2397897119540535
  0.0778010465565021  0.5044581254379046  0.5080397065987665
  0.4151477058272601  0.1688076839438116  0.5043516648532455
  0.2495843030415320  0.3187399302977551  0.7546682602651397
  0.0801312944489244  0.8351181362730777  0.9978557568986036
  0.4039766481987265  0.5119016445783390  0.0190102810900774
  0.2468662228675972  0.6569532551413033  0.2536230332618589
  0.0828484785042847  0.8276144407354147  0.4954087120482042
  0.7569346054939776  0.1618926990092689  0.9970831611983967
  0.5858126247275133  0.3329329986800063  0.2504378929122964
  0.4120492177796927  0.5031112230496255  0.5060390771738560
  0.2328614419726975  0.6554286465659410  0.7483318455436684
  0.7569515252179191  0.1630007005884748  0.5154335278430604
  0.5835478150915098  0.3252365786817069  0.7529363005973464
  0.4249771893552198  0.8295167956422211  0.9990261461024871
  0.2517665579279568  0.0044740676972577  0.2544781350562555
  0.7495023360460584  0.5017244664333269  0.0143196883571928
  0.5917477312111050  0.6578461013004120  0.2552755255006677
  0.4243035187881655  0.8317689448303279  0.4970774353033354
  0.2495117949296193  0.0088034210526361  0.7435394924143951
  0.9183553478727619  0.3391290723702847  0.2420319994212914
  0.7490664445386774  0.5024830224988981  0.4964407946407733
  0.5762697595807911  0.6792432572334675  0.7618606590950671
  0.9156046653722643  0.3326370107626843  0.7529737305763712
  0.7502282949678137  0.8339496006374880  0.9721739935201712
  0.5902417501716691  0.9927702275697432  0.2398236043889080
  0.9164094423557514  0.6631024646919231  0.2602594337487262
  0.7468706377735002  0.8329324317901006  0.5279016252544469
  0.5957952954868185  0.9864965246110705  0.7535486367286154
  0.9169052595743928  0.6664220689563582  0.7333831236877076
  0.9180237400176608  0.0001329419145014  0.2395820880708932
  0.9136791383877588  0.0146835743437714  0.7518540584560544
  0.1630980344296509  0.0039528186953516  0.1238554655121342
  0.1703491876256846  0.0033854656024636  0.6201228910183199
  0.1716910570678374  0.3382321948701381  0.1153423971784523
  0.5039651314646031  0.9927747422039183  0.1177829401325975
  0.3357791770582789  0.1671060191180925  0.3808575636011390
  0.1620705294718746  0.3332585764069882  0.6277859962643954
  0.5054758421956641  0.9958548915426041  0.6286657508026907
  0.3375412738997851  0.1694353671146405  0.8701295748476283
  0.1515520785301242  0.6579186066411979  0.1169575470884644
  0.5019238165838017  0.3274469062068127  0.1280609311302886
  0.3214641228898716  0.5041132851911563  0.3796963979436991
  0.1502472928275956  0.6625433673416922  0.6319347498020674
  0.8378109075355208  0.9994366275783153  0.1208734915962231
  0.6657910536842512  0.1659269425512752  0.3708540940849603
  0.5044177707729920  0.3229980672097508  0.6259482493646940
  0.3047059396147822  0.5065371437647150  0.8730701025844911
  0.8322549089724777  0.9826352993287972  0.6267252987322183
  0.6708713575788260  0.1643918590504445  0.8808584673513215
  0.4827886085028729  0.6603500191891627  0.1261483934126671
  0.3460692312500742  0.8351136776529482  0.3714786194574720
  0.8345997863332721  0.3346714745664339  0.1243101134786381
  0.6748873437960794  0.4973955393000540  0.3713414404438956
  0.4953797881912724  0.6513739076373266  0.6301933627963852
  0.3363777624016079  0.8427041522770445  0.8686855105186283
  0.0079835838955420  0.1672771323590751  0.3786148991145178
  0.8353229394021265  0.3367414849328280  0.6298032282564722
  0.6547043598863045  0.4996857628240311  0.8892338470559269
  0.0017077060175987  0.1638082588922631  0.8679597906103760
  0.8319762289607554  0.6644254153319640  0.1270963051398317
  0.6758389969603140  0.8347433762145495  0.3805470273478320
  0.9938471258651053  0.5059478413692420  0.3784325987030653
  0.8414385032599135  0.6736307052472862  0.6210537198987972
  0.6851189799201687  0.8358844954368836  0.8732433750252906
  0.9964881403800245  0.5134892087169178  0.8756484978454110
  0.9992264352423701  0.8268977194495015  0.3751027269942412
  0.9975846382842005  0.8203934251356828  0.8699972162491317
  0.0909541688262942  0.9980786247483067  0.2546447683007801
  0.0851258220568881  0.0021008109848901  0.7474116300451015
  0.0810472934258473  0.3415600664709910  0.2498251459544688
  0.4232556596821713  0.9955776638734265  0.2473067521521793
  0.2530173722938267  0.1635523876825029  0.5072739259990616
  0.0830272899692540  0.3307061335776193  0.7465744055649791
  0.4183435095666979  0.0045836299336611  0.7481933644218348
  0.2495888840216213  0.1751983280152619  0.9914296502757792
  0.0758697478011959  0.6639855581546988  0.2612026095944543
  0.4193192508608799  0.3234755606637554  0.2463569613754170
  0.2442494533118783  0.5068586587387782  0.5197629347193456
  0.0750637262256461  0.6679907364205612  0.7295143774236520
  0.7499898118509117  0.0038098997127308  0.2355646438961142
  0.5896121103572245  0.1629971958285853  0.5028311214927845
  0.4171061498180879  0.3068224237947416  0.7442704918456587
  0.2409432747165054  0.5059370272422191  0.9817050377183394
  0.7544094907357856 -0.0021544724456425  0.7534485028741996
  0.5934660992429283  0.1542158283436055  0.9979227013366817
  0.4171449564772264  0.6716689771951855  0.2267620390841671
  0.2512527349049064  0.8380939183007472  0.5001237823550001
  0.7559542622468578  0.3355095106273660  0.2433707015839052
  0.5798031865236198  0.4992765205145026  0.5121897787074290
  0.4032438630991420  0.6471426073792317  0.7554010980158858
  0.2518713953058986  0.8453242296471825  0.9906410948499850
  0.9185006476178685  0.1703493964067677  0.5142851956018195
  0.7537934268635686  0.3284652649611782  0.7584906321486676
  0.5759476321740780  0.5156299442536659 -0.0026986467332515
  0.9166305118938205  0.1690692984916309  0.9926532125183455
  0.7542069918103631  0.6653251009629150  0.2503466917621573
  0.5824399154673678  0.8396174205617186  0.5173284071587517
  0.9155528635617566  0.5033353779637444  0.4948805651997806
  0.7476563638419410  0.6801609668612775  0.7522779471484558
  0.5871953321248883  0.8448501557315526  0.9749720419870573
  0.9142237373208864  0.4952809335571873  0.0074826523815687
  0.9177165945398447  0.8267148093241000  0.4974342805316979
  0.9164998580229794  0.8361523256318582  0.0054267238841931
  0.0039564772748474  0.1648288226763352  0.1185157213284563
  0.0047151757570091  0.1673896308510108  0.6252030092694647
  0.9945059566689491  0.5117935766386550  0.1321673097907679
  0.3368012900230932  0.1732949162371731  0.1213840392701394
  0.1665926272743986  0.3365090698707323  0.3775369348316238
 -0.0016977024022186  0.5076270086073910  0.6203692886116697
  0.3290819291664913  0.1634112101608690  0.6206481040611123
  0.1648978952928246  0.3430131606264987  0.8776789002878987
  0.9965780971716531  0.8256508586362740  0.1267738757285957
  0.3416484032366703  0.5087980742016619  0.1115075371000201
  0.1594289258090947  0.6618636034256434  0.3764245283065518
  0.9985032389765963  0.8240894558064390  0.6216457765053577
  0.6720085383136064  0.1642871696468998  0.1219379640033011
  0.5034248609252552  0.3279740661555728  0.3772888082842530
  0.3084432235269192  0.5031978534199787  0.6287501987513545
  0.1490896131401510  0.6618637392891090  0.8747014111969194
  0.6722969114676530  0.1649703862393451  0.6243231682936388
  0.5122043644386102  0.3146997778391638  0.8784183687344964
  0.3459799762045356  0.8427246601973354  0.1237804109774770
  0.1634926098948248  0.0002940356455743  0.3641139236155457
  0.6733626035210970  0.5034580035569862  0.1319765701378498
  0.4955278421661983  0.6644955120894732  0.3819120736393286
  0.3369090407037913  0.8365598328919469  0.6257542123936150
  0.1665674216705088  0.0040332806223492  0.8714422487183562
  0.8357693958672084  0.3412791691884283  0.3715129498327103
  0.6539693594166870  0.5004916237954221  0.6344161793551281
  0.4938198576144349  0.6747666650336438  0.8711742807573716
  0.8317350537979575  0.3388117337024509  0.8771035059883041
  0.6809026566132069  0.8400224549353102  0.1195891326157042
  0.5030024678074362  0.9950377125039818  0.3726623295468671
  0.8369277848026948  0.6628123460839067  0.3743167950102201
  0.6829441227155217  0.8365897462055399  0.6326457625342672
  0.5014733067711835  0.9985620013985056  0.8745729945783887
  0.8375185240050774  0.6742087867969694  0.8843690115610882
  0.8369162124630913  0.9967592129933986  0.3738843887294478
  0.8338330560684233  0.9879425520685289  0.8697768691361377
  0.0054506612999147  0.0829051566361770  0.2405796464639512
  0.9929743633382194  0.0871488592491755  0.7531351358732721
  0.0042244804069282  0.4165798040286082  0.2448884264677104
  0.3335339697769061  0.0863730832181336  0.2539397519838519
  0.1667778401997669  0.2515105826814983  0.5132745972707656
 -0.0024181581282540  0.4160245816601658  0.7515424607680973
  0.3414630733381617  0.0861527717737653  0.7446291712524056
  0.1698236609350454  0.2532321778559660  0.9822779639497925
  0.9964013330795497  0.7499221692103127  0.2399072701770020
  0.3257535719945936  0.4165465258595508  0.2440412300308679
  0.1585703881630576  0.5843275559576019  0.4973674054744244
  0.0027116327977874  0.7509086460805197  0.7688862250422653
  0.6762145055703412  0.0808975746276428  0.2313990686133665
  0.4982437368247702  0.2441965081378190  0.4991464197372359
  0.3010870121308796  0.4196502269625211  0.7491768583855724
  0.1531702680982346  0.5830660339470174  0.0013890105543905
  0.6838743636689090  0.0761147962919377  0.7580509224063832
  0.5052338992868646  0.2443648590677337  0.0041105103677690
  0.3450048700161693  0.7483783800504015  0.2549196339873469
  0.1697650816132508  0.9159095669832520  0.4947293410038689
  0.6668073705045180  0.4188995593133132  0.2527269102759152
  0.4964934071122192  0.5837213280452981  0.5369667561955686
  0.3453824371412266  0.7606086472740804  0.7447731118355880
  0.1645305940396238  0.9170935450571177  0.9961249982474327
  0.8388269681384111  0.2481056563678093  0.5124368819039598
  0.6612074611848799  0.4158202647331030  0.7529916182372475
  0.5058700221437483  0.5810211542864516  0.0013760371307542
  0.8346678146652756  0.2460640529602401 -0.0003924868867035
  0.6801231978684077  0.7455751883360369  0.2534456112734072
  0.5062467348960891  0.9127791139813172  0.5038061700425199
  0.8352750225270198  0.5876885346798734  0.4905336152083045
  0.6430843752740498  0.7487323302698294  0.7538798741172225
  0.5096225955922449  0.9206804253290739  0.9983336873336437
  0.8320539028158264  0.5870534393907932  0.0157577968867659
  0.8347801879267065  0.9167449287018578  0.5263754955187832
  0.8382400760667358  0.9175611153908326  0.9765491950885722
 
  0.00000000E+00  0.00000000E+00  0.00000000E+00
  0.00000000E+00  0.00000000E+00  0.00000000E+00
  0.00000000E+00  0.00000000E+00  0.00000000E+00
  0.00000000E+00  0.00000000E+00  0.00000000E+00
  0.00000000E+00  0.00000000E+00  0.00000000E+00
  0.00000000E+00  0.00000000E+00  0.00000000E+00
  0.00000000E+00  0.00000000E+00  0.00000000E+00
  0.00000000E+00  0.00000000E+00  0.00000000E+00
  0.00000000E+00  0.00000000E+00  0.00000000E+00
  0.00000000E+00  0.00000000E+00  0.00000000E+00
  0.00000000E+00  0.00000000E+00  0.00000000E+00
  0.00000000E+00  0.00000000E+00  0.00000000E+00
  0.00000000E+00  0.00000000E+00  0.00000000E+00
  0.00000000E+00  0.00000000E+00  0.00000000E+00
  0.00000000E+00  0.00000000E+00  0.00000000E+00
  0.00000000E+00  0.00000000E+00  0.00000000E+00
  0.00000000E+00  0.00000000E+00  0.00000000E+00
  0.00000000E+00  0.00000000E+00  0.00000000E+00
  0.00000000E+00  0.00000000E+00  0.00000000E+00
  0.00000000E+00  0.00000000E+00  0.00000000E+00
  0.00000000E+00  0.00000000E+00  0.00000000E+00
  0.00000000E+00  0.00000000E+00  0.00000000E+00
  0.00000000E+00  0.00000000E+00  0.00000000E+00
  0.00000000E+00  0.00000000E+00  0.00000000E+00
  0.00000000E+00  0.00000000E+00  0.00000000E+00
  0.00000000E+00  0.00000000E+00  0.00000000E+00
  0.00000000E+00  0.00000000E+00  0.00000000E+00
  0.00000000E+00  0.00000000E+00  0.00000000E+00
  0.00000000E+00  0.00000000E+00  0.00000000E+00
  0.00000000E+00  0.00000000E+00  0.00000000E+00
  0.00000000E+00  0.00000000E+00  0.00000000E+00
  0.00000000E+00  0.00000000E+00  0.00000000E+00
  0.00000000E+00  0.00000000E+00  0.00000000E+00
  0.00000000E+00  0.00000000E+00  0.00000000E+00
  0.00000000E+00  0.00000000E+00  0.00000000E+00
  0.00000000E+00  0.00000000E+00  0.00000000E+00
  0.00000000E+00  0.00000000E+00  0.00000000E+00
  0.00000000E+00  0.00000000E+00  0.00000000E+00
  0.00000000E+00  0.00000000E+00  0.00000000E+00
  0.00000000E+00  0.00000000E+00  0.00000000E+00
  0.00000000E+00  0.00000000E+00  0.00000000E+00
  0.00000000E+00  0.00000000E+00  0.00000000E+00
  0.00000000E+00  0.00000000E+00  0.00000000E+00
  0.00000000E+00  0.00000000E+00  0.00000000E+00
  0.00000000E+00  0.00000000E+00  0.00000000E+00
  0.00000000E+00  0.00000000E+00  0.00000000E+00
  0.00000000E+00  0.00000000E+00  0.00000000E+00
  0.00000000E+00  0.00000000E+00  0.00000000E+00
  0.00000000E+00  0.00000000E+00  0.00000000E+00
  0.00000000E+00  0.00000000E+00  0.00000000E+00
  0.00000000E+00  0.00000000E+00  0.00000000E+00
  0.00000000E+00  0.00000000E+00  0.00000000E+00
  0.00000000E+00  0.00000000E+00  0.00000000E+00
  0.00000000E+00  0.00000000E+00  0.00000000E+00
  0.00000000E+00  0.00000000E+00  0.00000000E+00
  0.00000000E+00  0.00000000E+00  0.00000000E+00
  0.00000000E+00  0.00000000E+00  0.00000000E+00
  0.00000000E+00  0.00000000E+00  0.00000000E+00
  0.00000000E+00  0.00000000E+00  0.00000000E+00
  0.00000000E+00  0.00000000E+00  0.00000000E+00
  0.00000000E+00  0.00000000E+00  0.00000000E+00
  0.00000000E+00  0.00000000E+00  0.00000000E+00
  0.00000000E+00  0.00000000E+00  0.00000000E+00
  0.00000000E+00  0.00000000E+00  0.00000000E+00
  0.00000000E+00  0.00000000E+00  0.00000000E+00
  0.00000000E+00  0.00000000E+00  0.00000000E+00
  0.00000000E+00  0.00000000E+00  0.00000000E+00
  0.00000000E+00  0.00000000E+00  0.00000000E+00
  0.00000000E+00  0.00000000E+00  0.00000000E+00
  0.00000000E+00  0.00000000E+00  0.00000000E+00
  0.00000000E+00  0.00000000E+00  0.00000000E+00
  0.00000000E+00  0.00000000E+00  0.00000000E+00
  0.00000000E+00  0.00000000E+00  0.00000000E+00
  0.00000000E+00  0.00000000E+00  0.00000000E+00
  0.00000000E+00  0.00000000E+00  0.00000000E+00
  0.00000000E+00  0.00000000E+00  0.00000000E+00
  0.00000000E+00  0.00000000E+00  0.00000000E+00
  0.00000000E+00  0.00000000E+00  0.00000000E+00
  0.00000000E+00  0.00000000E+00  0.00000000E+00
  0.00000000E+00  0.00000000E+00  0.00000000E+00
  0.00000000E+00  0.00000000E+00  0.00000000E+00
  0.00000000E+00  0.00000000E+00  0.00000000E+00
  0.00000000E+00  0.00000000E+00  0.00000000E+00
  0.00000000E+00  0.00000000E+00  0.00000000E+00
  0.00000000E+00  0.00000000E+00  0.00000000E+00
  0.00000000E+00  0.00000000E+00  0.00000000E+00
  0.00000000E+00  0.00000000E+00  0.00000000E+00
  0.00000000E+00  0.00000000E+00  0.00000000E+00
  0.00000000E+00  0.00000000E+00  0.00000000E+00
  0.00000000E+00  0.00000000E+00  0.00000000E+00
  0.00000000E+00  0.00000000E+00  0.00000000E+00
  0.00000000E+00  0.00000000E+00  0.00000000E+00
  0.00000000E+00  0.00000000E+00  0.00000000E+00
  0.00000000E+00  0.00000000E+00  0.00000000E+00
  0.00000000E+00  0.00000000E+00  0.00000000E+00
  0.00000000E+00  0.00000000E+00  0.00000000E+00
  0.00000000E+00  0.00000000E+00  0.00000000E+00
  0.00000000E+00  0.00000000E+00  0.00000000E+00
  0.00000000E+00  0.00000000E+00  0.00000000E+00
  0.00000000E+00  0.00000000E+00  0.00000000E+00
  0.00000000E+00  0.00000000E+00  0.00000000E+00
  0.00000000E+00  0.00000000E+00  0.00000000E+00
  0.00000000E+00  0.00000000E+00  0.00000000E+00
  0.00000000E+00  0.00000000E+00  0.00000000E+00
  0.00000000E+00  0.00000000E+00  0.00000000E+00
  0.00000000E+00  0.00000000E+00  0.00000000E+00
  0.00000000E+00  0.00000000E+00  0.00000000E+00
  0.00000000E+00  0.00000000E+00  0.00000000E+00
  0.00000000E+00  0.00000000E+00  0.00000000E+00
  0.00000000E+00  0.00000000E+00  0.00000000E+00
  0.00000000E+00  0.00000000E+00  0.00000000E+00
  0.00000000E+00  0.00000000E+00  0.00000000E+00
  0.00000000E+00  0.00000000E+00  0.00000000E+00
  0.00000000E+00  0.00000000E+00  0.00000000E+00
  0.00000000E+00  0.00000000E+00  0.00000000E+00
  0.00000000E+00  0.00000000E+00  0.00000000E+00
  0.00000000E+00  0.00000000E+00  0.00000000E+00
  0.00000000E+00  0.00000000E+00  0.00000000E+00
  0.00000000E+00  0.00000000E+00  0.00000000E+00
  0.00000000E+00  0.00000000E+00  0.00000000E+00
  0.00000000E+00  0.00000000E+00  0.00000000E+00
  0.00000000E+00  0.00000000E+00  0.00000000E+00
  0.00000000E+00  0.00000000E+00  0.00000000E+00
  0.00000000E+00  0.00000000E+00  0.00000000E+00
  0.00000000E+00  0.00000000E+00  0.00000000E+00
  0.00000000E+00  0.00000000E+00  0.00000000E+00
  0.00000000E+00  0.00000000E+00  0.00000000E+00
  0.00000000E+00  0.00000000E+00  0.00000000E+00
  0.00000000E+00  0.00000000E+00  0.00000000E+00
  0.00000000E+00  0.00000000E+00  0.00000000E+00
  0.00000000E+00  0.00000000E+00  0.00000000E+00
  0.00000000E+00  0.00000000E+00  0.00000000E+00
  0.00000000E+00  0.00000000E+00  0.00000000E+00
  0.00000000E+00  0.00000000E+00  0.00000000E+00
  0.00000000E+00  0.00000000E+00  0.00000000E+00
  0.00000000E+00  0.00000000E+00  0.00000000E+00
  0.00000000E+00  0.00000000E+00  0.00000000E+00
  0.00000000E+00  0.00000000E+00  0.00000000E+00
  0.00000000E+00  0.00000000E+00  0.00000000E+00
  0.00000000E+00  0.00000000E+00  0.00000000E+00
  0.00000000E+00  0.00000000E+00  0.00000000E+00
  0.00000000E+00  0.00000000E+00  0.00000000E+00
  0.00000000E+00  0.00000000E+00  0.00000000E+00
  0.00000000E+00  0.00000000E+00  0.00000000E+00
  0.00000000E+00  0.00000000E+00  0.00000000E+00
  0.00000000E+00  0.00000000E+00  0.00000000E+00
  0.00000000E+00  0.00000000E+00  0.00000000E+00
  0.00000000E+00  0.00000000E+00  0.00000000E+00
  0.00000000E+00  0.00000000E+00  0.00000000E+00
  0.00000000E+00  0.00000000E+00  0.00000000E+00
  0.00000000E+00  0.00000000E+00  0.00000000E+00
  0.00000000E+00  0.00000000E+00  0.00000000E+00
  0.00000000E+00  0.00000000E+00  0.00000000E+00
  0.00000000E+00  0.00000000E+00  0.00000000E+00
  0.00000000E+00  0.00000000E+00  0.00000000E+00
  0.00000000E+00  0.00000000E+00  0.00000000E+00
  0.00000000E+00  0.00000000E+00  0.00000000E+00
  0.00000000E+00  0.00000000E+00  0.00000000E+00
  0.00000000E+00  0.00000000E+00  0.00000000E+00
  0.00000000E+00  0.00000000E+00  0.00000000E+00
  0.00000000E+00  0.00000000E+00  0.00000000E+00
  0.00000000E+00  0.00000000E+00  0.00000000E+00
  0.00000000E+00  0.00000000E+00  0.00000000E+00
  0.00000000E+00  0.00000000E+00  0.00000000E+00
  0.00000000E+00  0.00000000E+00  0.00000000E+00
  0.00000000E+00  0.00000000E+00  0.00000000E+00
  0.00000000E+00  0.00000000E+00  0.00000000E+00
  0.00000000E+00  0.00000000E+00  0.00000000E+00
  0.00000000E+00  0.00000000E+00  0.00000000E+00
  0.00000000E+00  0.00000000E+00  0.00000000E+00
  0.00000000E+00  0.00000000E+00  0.00000000E+00
  0.00000000E+00  0.00000000E+00  0.00000000E+00
  0.00000000E+00  0.00000000E+00  0.00000000E+00
  0.00000000E+00  0.00000000E+00  0.00000000E+00
  0.00000000E+00  0.00000000E+00  0.00000000E+00
  0.00000000E+00  0.00000000E+00  0.00000000E+00
  0.00000000E+00  0.00000000E+00  0.00000000E+00
  0.00000000E+00  0.00000000E+00  0.00000000E+00
  0.00000000E+00  0.00000000E+00  0.00000000E+00
  0.00000000E+00  0.00000000E+00  0.00000000E+00
  0.00000000E+00  0.00000000E+00  0.00000000E+00
  0.00000000E+00  0.00000000E+00  0.00000000E+00
  0.00000000E+00  0.00000000E+00  0.00000000E+00
  0.00000000E+00  0.00000000E+00  0.00000000E+00
  0.00000000E+00  0.00000000E+00  0.00000000E+00
  0.00000000E+00  0.00000000E+00  0.00000000E+00
  0.00000000E+00  0.00000000E+00  0.00000000E+00
  0.00000000E+00  0.00000000E+00  0.00000000E+00
  0.00000000E+00  0.00000000E+00  0.00000000E+00
  0.00000000E+00  0.00000000E+00  0.00000000E+00
  0.00000000E+00  0.00000000E+00  0.00000000E+00
  0.00000000E+00  0.00000000E+00  0.00000000E+00
  0.00000000E+00  0.00000000E+00  0.00000000E+00
  0.00000000E+00  0.00000000E+00  0.00000000E+00
  0.00000000E+00  0.00000000E+00  0.00000000E+00
  0.00000000E+00  0.00000000E+00  0.00000000E+00
  0.00000000E+00  0.00000000E+00  0.00000000E+00
  0.00000000E+00  0.00000000E+00  0.00000000E+00
  0.00000000E+00  0.00000000E+00  0.00000000E+00
  0.00000000E+00  0.00000000E+00  0.00000000E+00
  0.00000000E+00  0.00000000E+00  0.00000000E+00
  0.00000000E+00  0.00000000E+00  0.00000000E+00
  0.00000000E+00  0.00000000E+00  0.00000000E+00
  0.00000000E+00  0.00000000E+00  0.00000000E+00
  0.00000000E+00  0.00000000E+00  0.00000000E+00
  0.00000000E+00  0.00000000E+00  0.00000000E+00
  0.00000000E+00  0.00000000E+00  0.00000000E+00
  0.00000000E+00  0.00000000E+00  0.00000000E+00
  0.00000000E+00  0.00000000E+00  0.00000000E+00
  0.00000000E+00  0.00000000E+00  0.00000000E+00
  0.00000000E+00  0.00000000E+00  0.00000000E+00
  0.00000000E+00  0.00000000E+00  0.00000000E+00
  0.00000000E+00  0.00000000E+00  0.00000000E+00
  0.00000000E+00  0.00000000E+00  0.00000000E+00
  0.00000000E+00  0.00000000E+00  0.00000000E+00
  0.00000000E+00  0.00000000E+00  0.00000000E+00
  0.00000000E+00  0.00000000E+00  0.00000000E+00
  0.00000000E+00  0.00000000E+00  0.00000000E+00
  0.00000000E+00  0.00000000E+00  0.00000000E+00
  0.00000000E+00  0.00000000E+00  0.00000000E+00
  0.00000000E+00  0.00000000E+00  0.00000000E+00
  0.00000000E+00  0.00000000E+00  0.00000000E+00
  0.00000000E+00  0.00000000E+00  0.00000000E+00
  0.00000000E+00  0.00000000E+00  0.00000000E+00
  0.00000000E+00  0.00000000E+00  0.00000000E+00
  0.00000000E+00  0.00000000E+00  0.00000000E+00
  0.00000000E+00  0.00000000E+00  0.00000000E+00
  0.00000000E+00  0.00000000E+00  0.00000000E+00
  0.00000000E+00  0.00000000E+00  0.00000000E+00
  0.00000000E+00  0.00000000E+00  0.00000000E+00
  0.00000000E+00  0.00000000E+00  0.00000000E+00
  0.00000000E+00  0.00000000E+00  0.00000000E+00
  0.00000000E+00  0.00000000E+00  0.00000000E+00
  0.00000000E+00  0.00000000E+00  0.00000000E+00
  0.00000000E+00  0.00000000E+00  0.00000000E+00
  0.00000000E+00  0.00000000E+00  0.00000000E+00
  0.00000000E+00  0.00000000E+00  0.00000000E+00
  0.00000000E+00  0.00000000E+00  0.00000000E+00
  0.00000000E+00  0.00000000E+00  0.00000000E+00
  0.00000000E+00  0.00000000E+00  0.00000000E+00
  0.00000000E+00  0.00000000E+00  0.00000000E+00
  0.00000000E+00  0.00000000E+00  0.00000000E+00
  0.00000000E+00  0.00000000E+00  0.00000000E+00
  0.00000000E+00  0.00000000E+00  0.00000000E+00
  0.00000000E+00  0.00000000E+00  0.00000000E+00
  0.00000000E+00  0.00000000E+00  0.00000000E+00
  0.00000000E+00  0.00000000E+00  0.00000000E+00
  0.00000000E+00  0.00000000E+00  0.00000000E+00
  0.00000000E+00  0.00000000E+00  0.00000000E+00
  0.00000000E+00  0.00000000E+00  0.00000000E+00
  0.00000000E+00  0.00000000E+00  0.00000000E+00
  0.00000000E+00  0.00000000E+00  0.00000000E+00
