all                                     
           1
    10.303055    0.027697    0.054078
     0.027651   10.322523    0.002793
     0.036179    0.001790    6.880988
   Zr   Sc   Y    K    H 
   9   9   9   9 216
Direct configuration=     1
   0.16739739  0.17528592  0.24857433
   0.16539430  0.49979419  0.24879679
   0.50551784  0.16093980  0.24818837
   0.50982198  0.15909971  0.74804071
   0.66934339  0.33281834  0.00462536
   0.33783808  0.99581978  0.49478218
   0.00196325  0.33421130  0.99667523
   0.83212057  0.83701206  0.25277911
   0.00059497  0.99922068  0.99675884
   0.16034701  0.16045578  0.74735488
   0.15146507  0.50490802  0.75129338
   0.83618958  0.17057871  0.74950005
   0.83475874  0.49823670  0.25162539
   0.49619420  0.83929897  0.75145800
   0.99831029  0.66501801  0.49447281
   0.84346219  0.82468334  0.74840764
   0.67569793  0.99427102  0.99585074
   0.99308677  0.66706614  0.00579740
   0.33184999  0.33587234  0.50639644
   0.17207947  0.82783203  0.24217087
   0.49684519  0.50153667  0.25485598
   0.33029474  0.66898904  0.50437084
   0.67072804  0.33212104  0.50081463
   0.66226595  0.66814229  0.50516083
   0.33303942  0.00569671  0.00007944
   0.82579110  0.50785671  0.75345694
   0.99956288  0.99864411  0.50028452
   0.34018500  0.33964795  0.98778971
   0.16797927  0.83261050  0.74846476
   0.83936983  0.16701494  0.25790729
   0.48457352  0.48369867  0.76760465
   0.32009623  0.67555738  0.99336235
   0.51365334  0.82573003  0.24434271
   0.99954946  0.33603842  0.49860578
   0.66263617  0.67380233  0.00244725
   0.67044619  0.00025123  0.49581391
   0.16100265  0.09092443  0.99616420
   0.17153987  0.08461463  0.49423557
   0.17007842  0.41640948  0.00080640
   0.51395655  0.08090537  0.99815225
   0.33156961  0.25708812  0.24497508
   0.16345127  0.41904994  0.50458350
   0.50058158  0.07926209  0.49930963
   0.30536566  0.25100991  0.75314507
   0.14506898  0.74450820  0.99161167
   0.51065563  0.40711254  0.01827168
   0.32428663  0.58446620  0.24372464
   0.15921023  0.74730831  0.49713946
   0.82985776  0.08506509  0.99127336
   0.67210159  0.24604443  0.24267535
   0.50241812  0.41148883  0.50318573
   0.33945143  0.59238558  0.75456801
   0.83239552  0.08454113  0.51983497
   0.67747454  0.24550052  0.75564912
   0.48686123  0.75563276  0.97631504
   0.34460612  0.91270715  0.24260023
   0.83441594  0.41765400  0.00148348
   0.67103119  0.58204476  0.24652779
   0.49301891  0.75441717  0.51912016
   0.33940687  0.91862540  0.74934636
   0.00426956  0.25382259  0.24274144
   0.83700049  0.42034445  0.50159646
   0.65042561  0.58129058  0.75393761
   0.00692524  0.25552486  0.75159074
   0.83704067  0.75042507  0.99955010
   0.66676296  0.92354267  0.23985881
   0.99178769  0.58262481  0.23739467
   0.83529293  0.74681466  0.49686378
   0.66550524  0.91713153  0.75062462
   0.99349274  0.58293337  0.77149389
   0.00459361  0.91451704  0.24276405
   0.99451130  0.91369903  0.75245582
   0.08341550  0.16908476  0.98899353
   0.08558352  0.16781312  0.50430114
   0.07409836  0.49879524  0.99600321
   0.41603030  0.17166752  0.99928747
   0.25865993  0.33191426  0.23978971
   0.07780105  0.50445813  0.50803971
   0.41514771  0.16880768  0.50435166
   0.24958430  0.31873993  0.75466826
   0.08013129  0.83511814  0.99785576
   0.40397665  0.51190164  0.01901028
   0.24686622  0.65695326  0.25362303
   0.08284848  0.82761444  0.49540871
   0.75693461  0.16189270  0.99708316
   0.58581262  0.33293300  0.25043789
   0.41204922  0.50311122  0.50603908
   0.23286144  0.65542865  0.74833185
   0.75695153  0.16300070  0.51543353
   0.58354782  0.32523658  0.75293630
   0.42497719  0.82951680  0.99902615
   0.25176656  0.00447407  0.25447814
   0.74950234  0.50172447  0.01431969
   0.59174773  0.65784610  0.25527553
   0.42430352  0.83176894  0.49707744
   0.24951179  0.00880342  0.74353949
   0.91835535  0.33912907  0.24203200
   0.74906644  0.50248302  0.49644079
   0.57626976  0.67924326  0.76186066
   0.91560467  0.33263701  0.75297373
   0.75022829  0.83394960  0.97217399
   0.59024175  0.99277023  0.23982360
   0.91640944  0.66310246  0.26025943
   0.74687064  0.83293243  0.52790163
   0.59579530  0.98649652  0.75354864
   0.91690526  0.66642207  0.73338312
   0.91802374  0.00013294  0.23958209
   0.91367914  0.01468357  0.75185406
   0.16309803  0.00395282  0.12385547
   0.17034919  0.00338547  0.62012289
   0.17169106  0.33823219  0.11534240
   0.50396513  0.99277474  0.11778294
   0.33577918  0.16710602  0.38085756
   0.16207053  0.33325858  0.62778600
   0.50547584  0.99585489  0.62866575
   0.33754127  0.16943537  0.87012957
   0.15155208  0.65791861  0.11695755
   0.50192382  0.32744691  0.12806093
   0.32146412  0.50411329  0.37969640
   0.15024729  0.66254337  0.63193475
   0.83781091  0.99943663  0.12087349
   0.66579105  0.16592694  0.37085409
   0.50441777  0.32299807  0.62594825
   0.30470594  0.50653714  0.87307010
   0.83225491  0.98263530  0.62672530
   0.67087136  0.16439186  0.88085847
   0.48278861  0.66035002  0.12614839
   0.34606923  0.83511368  0.37147862
   0.83459979  0.33467147  0.12431011
   0.67488734  0.49739554  0.37134144
   0.49537979  0.65137391  0.63019336
   0.33637776  0.84270415  0.86868551
   0.00798358  0.16727713  0.37861490
   0.83532294  0.33674148  0.62980323
   0.65470436  0.49968576  0.88923385
   0.00170771  0.16380826  0.86795979
   0.83197623  0.66442542  0.12709631
   0.67583900  0.83474338  0.38054703
   0.99384713  0.50594784  0.37843260
   0.84143850  0.67363071  0.62105372
   0.68511898  0.83588450  0.87324338
   0.99648814  0.51348921  0.87564850
   0.99922644  0.82689772  0.37510273
   0.99758464  0.82039343  0.86999722
   0.09095417  0.99807862  0.25464477
   0.08512582  0.00210081  0.74741163
   0.08104729  0.34156007  0.24982515
   0.42325566  0.99557766  0.24730675
   0.25301737  0.16355239  0.50727393
   0.08302729  0.33070613  0.74657441
   0.41834351  0.00458363  0.74819336
   0.24958888  0.17519833  0.99142965
   0.07586975  0.66398556  0.26120261
   0.41931925  0.32347556  0.24635696
   0.24424945  0.50685866  0.51976293
   0.07506373  0.66799074  0.72951438
   0.74998981  0.00380990  0.23556464
   0.58961211  0.16299720  0.50283112
   0.41710615  0.30682242  0.74427049
   0.24094327  0.50593703  0.98170504
   0.75440949  0.99784553  0.75344850
   0.59346610  0.15421583  0.99792270
   0.41714496  0.67166898  0.22676204
   0.25125273  0.83809392  0.50012378
   0.75595426  0.33550951  0.24337070
   0.57980319  0.49927652  0.51218978
   0.40324386  0.64714261  0.75540110
   0.25187140  0.84532423  0.99064109
   0.91850065  0.17034940  0.51428520
   0.75379343  0.32846526  0.75849063
   0.57594763  0.51562994  0.99730135
   0.91663051  0.16906930  0.99265321
   0.75420699  0.66532510  0.25034669
   0.58243992  0.83961742  0.51732841
   0.91555286  0.50333538  0.49488057
   0.74765636  0.68016097  0.75227795
   0.58719533  0.84485016  0.97497204
   0.91422374  0.49528093  0.00748265
   0.91771659  0.82671481  0.49743428
   0.91649986  0.83615233  0.00542672
   0.00395648  0.16482882  0.11851572
   0.00471518  0.16738963  0.62520301
   0.99450596  0.51179358  0.13216731
   0.33680129  0.17329492  0.12138404
   0.16659263  0.33650907  0.37753693
   0.99830230  0.50762701  0.62036929
   0.32908193  0.16341121  0.62064810
   0.16489790  0.34301316  0.87767890
   0.99657810  0.82565086  0.12677388
   0.34164840  0.50879807  0.11150754
   0.15942893  0.66186360  0.37642453
   0.99850324  0.82408946  0.62164578
   0.67200854  0.16428717  0.12193796
   0.50342486  0.32797407  0.37728881
   0.30844322  0.50319785  0.62875020
   0.14908961  0.66186374  0.87470141
   0.67229691  0.16497039  0.62432317
   0.51220436  0.31469978  0.87841837
   0.34597998  0.84272466  0.12378041
   0.16349261  0.00029404  0.36411392
   0.67336260  0.50345800  0.13197657
   0.49552784  0.66449551  0.38191207
   0.33690904  0.83655983  0.62575421
   0.16656742  0.00403328  0.87144225
   0.83576940  0.34127917  0.37151295
   0.65396936  0.50049162  0.63441618
   0.49381986  0.67476667  0.87117428
   0.83173505  0.33881173  0.87710351
   0.68090266  0.84002245  0.11958913
   0.50300247  0.99503771  0.37266233
   0.83692778  0.66281235  0.37431680
   0.68294412  0.83658975  0.63264576
   0.50147331  0.99856200  0.87457299
   0.83751852  0.67420879  0.88436901
   0.83691621  0.99675921  0.37388439
   0.83383306  0.98794255  0.86977687
   0.00545066  0.08290516  0.24057965
   0.99297436  0.08714886  0.75313514
   0.00422448  0.41657980  0.24488843
   0.33353397  0.08637308  0.25393975
   0.16677784  0.25151058  0.51327460
   0.99758184  0.41602458  0.75154246
   0.34146307  0.08615277  0.74462917
   0.16982366  0.25323218  0.98227796
   0.99640133  0.74992217  0.23990727
   0.32575357  0.41654653  0.24404123
   0.15857039  0.58432756  0.49736741
   0.00271163  0.75090865  0.76888623
   0.67621451  0.08089757  0.23139907
   0.49824374  0.24419651  0.49914642
   0.30108701  0.41965023  0.74917686
   0.15317027  0.58306603  0.00138901
   0.68387436  0.07611480  0.75805092
   0.50523390  0.24436486  0.00411051
   0.34500487  0.74837838  0.25491963
   0.16976508  0.91590957  0.49472934
   0.66680737  0.41889956  0.25272691
   0.49649341  0.58372133  0.53696676
   0.34538244  0.76060865  0.74477311
   0.16453059  0.91709355  0.99612500
   0.83882697  0.24810566  0.51243688
   0.66120746  0.41582026  0.75299162
   0.50587002  0.58102115  0.00137604
   0.83466781  0.24606405  0.99960751
   0.68012320  0.74557519  0.25344561
   0.50624673  0.91277911  0.50380617
   0.83527502  0.58768853  0.49053362
   0.64308438  0.74873233  0.75387987
   0.50962260  0.92068043  0.99833369
   0.83205390  0.58705344  0.01575780
   0.83478019  0.91674493  0.52637550
   0.83824008  0.91756112  0.97654920
