generated by phonopy                    
   1.00000000000000     
     0.0000000000000000    3.3122746750963721    3.3122746750964600
     3.3122746750964107    0.0000000000000000    3.3122746750964600
     3.3122746750964107    3.3122746750963721    0.0000000000000000
   Na   Y    Zr   Ce   H 
     1     1     1     1    24
Direct
  0.2500000000000000  0.2500000000000000  0.2500000000000000
  0.7500000000000000  0.7500000000000000  0.7500000000000000
  0.0000000000000000  0.0000000000000000  0.0000000000000000
  0.5000000000000000  0.5000000000000000  0.5000000000000000
  0.1318424522581125  0.8913805654198228  0.6138292300567016
  0.8913805654198228  0.1318424522581125  0.3629477522653701
  0.6138292300567016  0.3629477522653701  0.1318424522581125
  0.3629477522653701  0.6138292300567016  0.8913805654198228
  0.6138292300567016  0.1318424522581125  0.8913805654198228
  0.3629477522653701  0.8913805654198228  0.1318424522581125
  0.1318424522581125  0.6138292300567016  0.3629477522653701
  0.8913805654198228  0.3629477522653701  0.6138292300567016
  0.8913805654198228  0.6138292300567016  0.1318424522581125
  0.1318424522581125  0.3629477522653701  0.8913805654198228
  0.3629477522653701  0.1318424522581125  0.6138292300567016
  0.6138292300567016  0.8913805654198228  0.3629477522653701
  0.1318424522581125  0.3629477522653701  0.6138292300567016
  0.3629477522653701  0.1318424522581125  0.8913805654198228
  0.6138292300567016  0.8913805654198228  0.1318424522581125
  0.8913805654198228  0.6138292300567016  0.3629477522653701
  0.6138292300567016  0.1318424522581125  0.3629477522653701
  0.8913805654198228  0.3629477522653701  0.1318424522581125
  0.1318424522581125  0.6138292300567016  0.8913805654198228
  0.3629477522653701  0.8913805654198228  0.6138292300567016
  0.3629477522653701  0.6138292300567016  0.1318424522581125
  0.1318424522581125  0.8913805654198228  0.3629477522653701
  0.8913805654198228  0.1318424522581125  0.6138292300567016
  0.6138292300567016  0.3629477522653701  0.8913805654198228
 
  0.00000000E+00  0.00000000E+00  0.00000000E+00
  0.00000000E+00  0.00000000E+00  0.00000000E+00
  0.00000000E+00  0.00000000E+00  0.00000000E+00
  0.00000000E+00  0.00000000E+00  0.00000000E+00
  0.00000000E+00  0.00000000E+00  0.00000000E+00
  0.00000000E+00  0.00000000E+00  0.00000000E+00
  0.00000000E+00  0.00000000E+00  0.00000000E+00
  0.00000000E+00  0.00000000E+00  0.00000000E+00
  0.00000000E+00  0.00000000E+00  0.00000000E+00
  0.00000000E+00  0.00000000E+00  0.00000000E+00
  0.00000000E+00  0.00000000E+00  0.00000000E+00
  0.00000000E+00  0.00000000E+00  0.00000000E+00
  0.00000000E+00  0.00000000E+00  0.00000000E+00
  0.00000000E+00  0.00000000E+00  0.00000000E+00
  0.00000000E+00  0.00000000E+00  0.00000000E+00
  0.00000000E+00  0.00000000E+00  0.00000000E+00
  0.00000000E+00  0.00000000E+00  0.00000000E+00
  0.00000000E+00  0.00000000E+00  0.00000000E+00
  0.00000000E+00  0.00000000E+00  0.00000000E+00
  0.00000000E+00  0.00000000E+00  0.00000000E+00
  0.00000000E+00  0.00000000E+00  0.00000000E+00
  0.00000000E+00  0.00000000E+00  0.00000000E+00
  0.00000000E+00  0.00000000E+00  0.00000000E+00
  0.00000000E+00  0.00000000E+00  0.00000000E+00
  0.00000000E+00  0.00000000E+00  0.00000000E+00
  0.00000000E+00  0.00000000E+00  0.00000000E+00
  0.00000000E+00  0.00000000E+00  0.00000000E+00
  0.00000000E+00  0.00000000E+00  0.00000000E+00
