POSCAR                                  
   1.00000000000000     
     9.6902291451845208   -0.0113866531492101    0.0026938746412988
    -0.0113459801537898    9.6813874736199637    0.0216252871824476
     0.0018416614558416    0.0142909746116136    6.4413005130104475
   K    Hf   Sc   Na   H 
     9     9     9     9   216
Direct
  0.1730808713638439  0.1492101327790607  0.2657199349149266
  0.1682078974017074  0.4935806051488214  0.2603897139217466
  0.3428431737926374  0.3532295055360066  0.4792499301157491
  0.4986305680328371  0.4993334141528649  0.2740802916734353
  0.3253999749345695  0.0133410272771926  0.4826799604558403
  0.8264611804333413  0.5059427200368631  0.2672943871228739
  0.6613728417455960  0.6463680148700277  0.4760025117710356
  0.8333904482816479  0.8359334918492465  0.7403156344503188
  0.9967491428462196  0.0003136311614256  0.4968301214273936
  0.1702606181937654  0.1768132004375929  0.7575786889899589
  0.3412909543533544  0.6769004809225407  0.5005217305679821
  0.1680450407993277  0.8275029956188007  0.7497096476184026
  0.8320011144450845  0.1694802138889102  0.2490001746050297
  0.9950181950337083  0.3318347950770644  0.5086052104893852
  0.6630478766481147  0.9980604356768765  0.5025411933304653
  0.9933989557817640  0.6689243967479612  0.4973264902995922
  0.6610044457914839  0.9906902035356566  0.9860438704123951
  0.0026158195395922  0.9932843253019641  0.0000704423916318
  0.5030509555374110  0.1647025248288898  0.2420935279987759
  0.1647279819628196  0.5014552250257367  0.7618443473945362
  0.5028156807317856  0.1715241223374946  0.7467730495544131
  0.3405274169331065  0.3370762272232994  0.9932990016013648
  0.3366564321386818  0.6663638104701590  0.0011851266840424
  0.6679275462760259  0.3411264409715855  0.9945662539347566
  0.3388883623322201  0.9936929972411619  0.9936344509220021
  0.9946216889363626  0.3432398980410056  0.0054225486197623
  0.8270337949381457  0.8241660192140259  0.2387992737555109
  0.1728874160103331  0.8251077527690853  0.2433989029523644
  0.6676373600296728  0.3281598244501609  0.5078579990850685
  0.5053581843281307  0.5050847798576257  0.7678117750714222
  0.8301434708424722  0.1703134275379270  0.7565867349801252
  0.4987787241115456  0.8340405951126826  0.2467242622030525
  0.5007890791964016  0.8310761501270747  0.7450362137190396
  0.8285761411842358  0.4999031594450685  0.7641066250224497
  0.6674566138768370  0.6641026856250249  0.9847325257490240
  0.0016145018605513  0.6611371678682687  0.0016098509708016
  0.1723666461304418  0.0803549262971472  0.0030172235400698
  0.1564374134823012  0.0854371516950465  0.5291586565719939
  0.1703478319529879  0.4162732578067789  0.0023587085242696
  0.4962606946095320  0.0866413864067965  0.9964189174634015
  0.3358445003336570  0.2477080582150393  0.2425766408796548
  0.1681931283948188  0.4237013891658634  0.5255123047078101
  0.4954016147710192  0.0860786905703534  0.4998392435695820
  0.3439362404316739  0.2612368163081200  0.7399038501471864
  0.1666378538121620  0.7450225896251226  0.0099275208045881
  0.5041046784490106  0.4212651585568565  0.0045476739438683
  0.3329219178230147  0.5844573279790950  0.2358314685102769
  0.1658642300119624  0.7503561996076655  0.4872633385054499
  0.8333570284747580  0.0859874610730458  0.9970956891545413
  0.6623656184210986  0.2497194385031634  0.2512220756623549
  0.5187847012025557  0.4168567791545712  0.5407924226729293
  0.3378060025970981  0.5815539613302363  0.7701652833649959
  0.8330697267350260  0.0858456525124325  0.5071328615240702
  0.6681106734111282  0.2482929992925165  0.7462065499693580
  0.5035218543853972  0.7479989661412958  0.9888743931609767
  0.3412650173440994  0.9154552470521509  0.2429462853061395
  0.8282432589294118  0.4240488814119345  0.0084174993377601
  0.6627744667716655  0.5842027205040168  0.2077014784791800
  0.5107372566791852  0.7574429661874618  0.4928030426825174
  0.3411066890935004  0.9226447598765759  0.7412907217694666
  0.0085488537556131  0.2468115824943808  0.2373829482123995
  0.8200651233387148  0.4179187661385058  0.5240110153274600
  0.6679447863815042  0.5774348761221617  0.7568643900699712
  0.9924046979772001  0.2510903458862046  0.7685352135224548
  0.8295429750544443  0.7494681867737327  0.9895949890981228
  0.6611520845941357  0.9119213066165557  0.2513232458369501
  0.9987411579068350  0.5814023466828360  0.2359022468693368
  0.8162389782969797  0.7515822260040323  0.4884651651460672
  0.6563287646744129  0.9083177220950986  0.7397936021780254
  0.9940736234545540  0.5820262124894882  0.7578060742715920
  0.9935910892232442  0.9102217028123150  0.2494428240973221
  0.0047267008502274  0.9164988357922965  0.7468190889838695
  0.0866270974724728  0.1732289469358221  0.0126125630931924
  0.0827691352456625  0.1685520581360080  0.5111089861702141
  0.0836949154940569  0.5015168643054579  0.0060648527656824
  0.4189711867830113  0.1681370133013829  0.9909996582086862
  0.2534770125922634  0.3198627360729915  0.2250931047847828
  0.0825109962936779  0.5030210458741280  0.5129792917275466
  0.4186468164015835  0.1781995046063685  0.5013560297478818
  0.2570926960906803  0.3416870339414118  0.7436866563055062
  0.0864185718522776  0.8230468019662851  0.0150524787271706
  0.4191586471376496  0.5011743875439834  0.0015174251987489
  0.2477166989644317  0.6649411818537985  0.2443553182730440
  0.0811819368692070  0.8319704627302826  0.4668453524111200
  0.7497183192833106  0.1725352130506295  0.9895977212658309
  0.5878176934495229  0.3355629360636954  0.2391251127577618
  0.4203610581378001  0.5172364113049994  0.5478079525821400
  0.2500394090468987  0.6602866933800442  0.7507403105667052
  0.7497354423892730  0.1740690250232717  0.5107464532058614
  0.5858382410936613  0.3455008023217587  0.7502463447718739
  0.4210638668885309  0.8323469784556110  0.9958514050768486
  0.2543451124802658  0.9801382185991514  0.2255140386481855
  0.7508714263165785  0.5013712969436313  0.9994521016020670
  0.5769747355365737  0.6760947122138177  0.2206152127891912
  0.4181868312400994  0.8487465733364417  0.5062305714320203
  0.2546650429559350  0.0004102978990801  0.7496689662099811
  0.9150666023407865  0.3402656518927074  0.2454838840612865
  0.7492497213687770  0.4805972017102818  0.5383331939876328
  0.5824132889959728  0.6669513434451062  0.7438817356654823
  0.9117556051318090  0.3375247111203876  0.7655710312474824
  0.7516862213296562  0.8183970552558648  0.9942926406237333
  0.5801984805202949  0.9917483177306039  0.2412291550808661
  0.9153549199033719  0.6689596272213976  0.2273879174423641
  0.7450038603161389  0.8160036320147057  0.4925171987201509
  0.5704958113578229  0.9958774017533401  0.7448315350242112
  0.9121860645396893  0.6626713371863531  0.7735016470292919
  0.9115619303948108  0.9904394820353346  0.2479778693725834
  0.9159088899918402  0.0119072280730350  0.7521826065125836
  0.1768533203897036  0.9845812020624436  0.1266721491642215
  0.1641036823521063  0.9991197725306904  0.6232069263310436
  0.1660840743381016  0.3246047645174528  0.1347594958132632
  0.4998812230275647  0.9941924694063715  0.1266376024285449
  0.3498931482589782  0.1850783275246997  0.3650754193868480
  0.1731496811474713  0.3452148922833942  0.6282009883761788
  0.4929957893452936  0.0032249892758500  0.6191846032414716
  0.3429440762502907  0.1719226050865501  0.8743389078796824
  0.1647375723660645  0.6663735603379308  0.1281241434636442
  0.5040791512665450  0.3345036963240204  0.1240709426823372
  0.3271173555377374  0.5226975313827609  0.3824046720297218
  0.1629694616207047  0.6609311167399170  0.6238264052326770
  0.8290933063723998  0.9928932592743749  0.1271589302179947
  0.6599605731710554  0.1780810249037472  0.3750129441214156
  0.5057302439480083  0.3324718533138125  0.6275375316593497
  0.3399297413564639  0.5082681142649292  0.8749569989282762
  0.8303747073460883  0.0143007755090352  0.6253460825093100
  0.6693857367474934  0.1692980117608514  0.8747966488016061
  0.5070295967712042  0.6661839617802485  0.1213457489780865
  0.3323334539699516  0.8412261317777947  0.3670720139587189
  0.8335599957057696  0.3433125912238850  0.1273643122078383
  0.6639142392297472  0.4704775949721451  0.3803478698894764
  0.5138401620325652  0.6661233298466982  0.6431108408009791
  0.3433102297906956  0.8304065033641947  0.8690815923831323
  0.0012065678700353  0.1725666728142485  0.3757462746618714
  0.8243673315464122  0.3290251797723229  0.6352660543682944
  0.6689583967112469  0.5075575531504271  0.8753784223473318
  0.9923420100903400  0.1744052648684473  0.8829883758929071
  0.8387372846310157  0.6612385670338483  0.1156221387929364
  0.6582777682895653  0.8271282679159739  0.3621884224532579
  0.9999214958397431  0.4960574054335183  0.3809313781308887
  0.8143395313762198  0.6586426791816962  0.6384444197001926
  0.6608919020242752  0.8156668778986074  0.8589712596944352
  0.9872581704342807  0.5055667571384390  0.8824448111183614
  0.0136549658642409  0.8346622186794193  0.3653157467037573
  0.9962593785721197  0.8163674212220329  0.8772618934347278
  0.0862730006566963  0.9781968169293123  0.2487111568234681
  0.0844858488501004  0.9998224287314486  0.7466909811591549
  0.0872278702303930  0.3230443751375560  0.2358645025990427
  0.4184276101500828  0.9916486719354580  0.2390578329001656
  0.2542408678694912  0.1908513921112345  0.5165056663602101
  0.0828333242964803  0.3396774707219521  0.7666280417368796
  0.4124317953003001  0.9977511433989150  0.7411569764384751
  0.2550648085451286  0.1706779522989734  0.0117717536784454
  0.0857024128701127  0.6682359483648597  0.2407256776853188
  0.4230017085938158  0.3260813519705863  0.2254983128749188
  0.2471524367305449  0.5113151442894264  0.5208898920882703
  0.0820153270150072  0.6608282056006729  0.7656201127869124
  0.7487092003549520  0.9937228445930515  0.2379077626129060
  0.5850084191959013  0.1718283927992346  0.4995864690578244
  0.4189644541988145  0.3431144516370921  0.7483302363373028
  0.2492745688790663  0.5000871870056045  0.0027084692552322
  0.7560262238630031  0.0101910426276177  0.7496249487208289
  0.5834146460029643  0.1747702575713674  0.9968370023477817
  0.4183864984264858  0.6745692109452719  0.2410364222265073
  0.2485521020341679  0.8393577007929736  0.4887204987252716
  0.7470029008328822  0.3359436955816761  0.2490289953915124
  0.5824972185372559  0.4771560798320564  0.5381952850971174
  0.4180853606687265  0.6675812080733436  0.7570388692551475
  0.2529441080500163  0.8334672777279266  0.0074250133380360
  0.9121588671421748  0.1643199941179816  0.5214117748268166
  0.7513757697937891  0.3362197221468080  0.7513434709534508
  0.5822268905673056  0.5001028108181913  0.0079805811122853
  0.9169965385695065  0.1706769508853085  0.9869509003898713
  0.7455263989419336  0.6718326308274669  0.2200254022575834
  0.5802511545135829  0.8186586806409437  0.4954230970569213
  0.9097971222527335  0.5029735897545251  0.5308985879222305
  0.7464535783337496  0.6614767604273553  0.7371990630601033
  0.5802751140126787  0.8202225087766308  0.0023945467072579
  0.9153071662455616  0.5049066727023401  0.9985411817044820
  0.9118770355116297  0.8347188980681608  0.4789792321694009
  0.9176265665590009  0.8190794936230006  0.9980739069216256
  0.0071653156453237  0.1761201721185586  0.1253461355909735
  0.9857812158160257  0.1652886685334067  0.6339078120831800
  0.9965573914654300  0.5079865973578777  0.1344749082837637
  0.3366542915987409  0.1651718777768352  0.1163518595591526
  0.1612123854820169  0.3202583296226180  0.3796227677457082
  0.9886381410679803  0.4998899216130681  0.6401790728536199
  0.3448642667046400  0.1803274364212939  0.6186941066142140
  0.1653737511915594  0.3423866917852507  0.8878321707938426
  0.0047846200943908  0.8168371768449987  0.1267700755023711
  0.3354154537368714  0.5007246621103363  0.1310681171113046
  0.1698890383120499  0.6706062903585632  0.3691941511341028
  0.0033277485951473  0.8335877089011703  0.6205988876961612
  0.6629613931554701  0.1720167477893781  0.1222902809517876
  0.5167098964131611  0.3180861619091004  0.3709389269428272
  0.3466932863427417  0.5043090879040619  0.6370732219676114
  0.1595271835840322  0.6582593717950189  0.8827531296925599
  0.6683088069701668  0.1761721010673227  0.6306064147696731
  0.5039235743632773  0.3370108832142265  0.8723171063891684
  0.3358740098853730  0.8261123755863196  0.1234179532582047
  0.1578999934891456  0.9720172086750978  0.3649201233523058
  0.6613269174265710  0.5138254055443809  0.1283734706227619
  0.4947970252786504  0.6797695224547766  0.3593619988097387
  0.3417732918906893  0.8457112439064502  0.6186185968142652
  0.1728484581172793  0.9979829438652530  0.8761396801092118
  0.8241556788220947  0.3336214339266022  0.3824937858180846
  0.6687709381920186  0.4924613661197768  0.6331528019863200
  0.5031785969987794  0.6699849944673204  0.8805668943209142
  0.8331205563160680  0.3369611932524421  0.8729875169863774
  0.6566140899096524  0.8212440918311046  0.1166558145978343
  0.4968422585570806  0.9983179547835590  0.3714239086377233
  0.8330955819516817  0.6751496224633087  0.3679423470110805
  0.6615583020132334  0.8207471425039401  0.6172541392968185
  0.4971124738551964  0.9976889122104140  0.8614378074796605
  0.8393640193998024  0.6618626716176834  0.8754469308693800
  0.8289816884670174  0.9963160229730619  0.3714106306823410
  0.8306169464178765  0.0088634501743954  0.8674173658517788
  0.9969429632472995  0.0811912053424635  0.2416955634020255
  0.0002987439575080  0.0863597832132044  0.7531724229466832
  0.9946556884865458  0.4180503654504335  0.2542794052931541
  0.3463066036896336  0.0826701125394536  0.2195531255705916
  0.1801006563586398  0.2583910773152951  0.4885983709290258
  0.9951381920065856  0.4231045954476187  0.7579445431269889
  0.3362734322404890  0.0855020045167549  0.7500248357339743
  0.1685076603527165  0.2471917004114701  0.0166860529297210
  0.0055887119860429  0.7476659451448526  0.2303531039298150
  0.3352067622395296  0.4154445895843679  0.2170263588018528
  0.1600703771896050  0.5802283236891839  0.5154899935705970
  0.9950652888795304  0.7447769815216105  0.7692295247259224
  0.6648847769247652  0.0816219422857500  0.2407538307828929
  0.5078504009840259  0.2563915357083104  0.4912501201327473
  0.3422277047217364  0.4224631486039172  0.7485800348670821
  0.1661411821325203  0.5800148951783441  0.0048577503143932
  0.6666781148372110  0.0898143586111360  0.7504619727813662
  0.5058081140496853  0.2505175615644575  0.9951626190760763
  0.3386461035914934  0.7559191974621342  0.2297790740654193
  0.1660463476058851  0.9183577457333385  0.4857165787065583
  0.6632084895070562  0.4151533473915450  0.2796218138229705
  0.4934276929644099  0.5869478530848227  0.5312994844420871
  0.3430691001613653  0.7543616939192006  0.7606208413085724
  0.1733837736368145  0.9119530918865806  0.0083383507950856
  0.8219279701400311  0.2512073657538920  0.5234782328687047
  0.6596622657822664  0.4119314314777398  0.7472473417717183
  0.5035402166407863  0.5845450038717814  0.0083062538406651
  0.8319394686364916  0.2517490709165955  0.9902735924524677
  0.6599460589470354  0.7484970341973991  0.2305529045123933
  0.4927821965251766  0.9182679034533621  0.4965328133971099
  0.8356479328956183  0.5818030968089118  0.5342690139213033
  0.6632781943980248  0.7486201724580113  0.7466922214142357
  0.4946620255372949  0.9080091254082063  0.9942914412971575
  0.8316569352220000  0.5863909755084222  0.0020014022997188
  0.8292665877063854  0.9129510202996727  0.4779313381599195
  0.8334718014959392  0.9115019140763678  0.0030657857262213
 
  0.00000000E+00  0.00000000E+00  0.00000000E+00
  0.00000000E+00  0.00000000E+00  0.00000000E+00
  0.00000000E+00  0.00000000E+00  0.00000000E+00
  0.00000000E+00  0.00000000E+00  0.00000000E+00
  0.00000000E+00  0.00000000E+00  0.00000000E+00
  0.00000000E+00  0.00000000E+00  0.00000000E+00
  0.00000000E+00  0.00000000E+00  0.00000000E+00
  0.00000000E+00  0.00000000E+00  0.00000000E+00
  0.00000000E+00  0.00000000E+00  0.00000000E+00
  0.00000000E+00  0.00000000E+00  0.00000000E+00
  0.00000000E+00  0.00000000E+00  0.00000000E+00
  0.00000000E+00  0.00000000E+00  0.00000000E+00
  0.00000000E+00  0.00000000E+00  0.00000000E+00
  0.00000000E+00  0.00000000E+00  0.00000000E+00
  0.00000000E+00  0.00000000E+00  0.00000000E+00
  0.00000000E+00  0.00000000E+00  0.00000000E+00
  0.00000000E+00  0.00000000E+00  0.00000000E+00
  0.00000000E+00  0.00000000E+00  0.00000000E+00
  0.00000000E+00  0.00000000E+00  0.00000000E+00
  0.00000000E+00  0.00000000E+00  0.00000000E+00
  0.00000000E+00  0.00000000E+00  0.00000000E+00
  0.00000000E+00  0.00000000E+00  0.00000000E+00
  0.00000000E+00  0.00000000E+00  0.00000000E+00
  0.00000000E+00  0.00000000E+00  0.00000000E+00
  0.00000000E+00  0.00000000E+00  0.00000000E+00
  0.00000000E+00  0.00000000E+00  0.00000000E+00
  0.00000000E+00  0.00000000E+00  0.00000000E+00
  0.00000000E+00  0.00000000E+00  0.00000000E+00
  0.00000000E+00  0.00000000E+00  0.00000000E+00
  0.00000000E+00  0.00000000E+00  0.00000000E+00
  0.00000000E+00  0.00000000E+00  0.00000000E+00
  0.00000000E+00  0.00000000E+00  0.00000000E+00
  0.00000000E+00  0.00000000E+00  0.00000000E+00
  0.00000000E+00  0.00000000E+00  0.00000000E+00
  0.00000000E+00  0.00000000E+00  0.00000000E+00
  0.00000000E+00  0.00000000E+00  0.00000000E+00
  0.00000000E+00  0.00000000E+00  0.00000000E+00
  0.00000000E+00  0.00000000E+00  0.00000000E+00
  0.00000000E+00  0.00000000E+00  0.00000000E+00
  0.00000000E+00  0.00000000E+00  0.00000000E+00
  0.00000000E+00  0.00000000E+00  0.00000000E+00
  0.00000000E+00  0.00000000E+00  0.00000000E+00
  0.00000000E+00  0.00000000E+00  0.00000000E+00
  0.00000000E+00  0.00000000E+00  0.00000000E+00
  0.00000000E+00  0.00000000E+00  0.00000000E+00
  0.00000000E+00  0.00000000E+00  0.00000000E+00
  0.00000000E+00  0.00000000E+00  0.00000000E+00
  0.00000000E+00  0.00000000E+00  0.00000000E+00
  0.00000000E+00  0.00000000E+00  0.00000000E+00
  0.00000000E+00  0.00000000E+00  0.00000000E+00
  0.00000000E+00  0.00000000E+00  0.00000000E+00
  0.00000000E+00  0.00000000E+00  0.00000000E+00
  0.00000000E+00  0.00000000E+00  0.00000000E+00
  0.00000000E+00  0.00000000E+00  0.00000000E+00
  0.00000000E+00  0.00000000E+00  0.00000000E+00
  0.00000000E+00  0.00000000E+00  0.00000000E+00
  0.00000000E+00  0.00000000E+00  0.00000000E+00
  0.00000000E+00  0.00000000E+00  0.00000000E+00
  0.00000000E+00  0.00000000E+00  0.00000000E+00
  0.00000000E+00  0.00000000E+00  0.00000000E+00
  0.00000000E+00  0.00000000E+00  0.00000000E+00
  0.00000000E+00  0.00000000E+00  0.00000000E+00
  0.00000000E+00  0.00000000E+00  0.00000000E+00
  0.00000000E+00  0.00000000E+00  0.00000000E+00
  0.00000000E+00  0.00000000E+00  0.00000000E+00
  0.00000000E+00  0.00000000E+00  0.00000000E+00
  0.00000000E+00  0.00000000E+00  0.00000000E+00
  0.00000000E+00  0.00000000E+00  0.00000000E+00
  0.00000000E+00  0.00000000E+00  0.00000000E+00
  0.00000000E+00  0.00000000E+00  0.00000000E+00
  0.00000000E+00  0.00000000E+00  0.00000000E+00
  0.00000000E+00  0.00000000E+00  0.00000000E+00
  0.00000000E+00  0.00000000E+00  0.00000000E+00
  0.00000000E+00  0.00000000E+00  0.00000000E+00
  0.00000000E+00  0.00000000E+00  0.00000000E+00
  0.00000000E+00  0.00000000E+00  0.00000000E+00
  0.00000000E+00  0.00000000E+00  0.00000000E+00
  0.00000000E+00  0.00000000E+00  0.00000000E+00
  0.00000000E+00  0.00000000E+00  0.00000000E+00
  0.00000000E+00  0.00000000E+00  0.00000000E+00
  0.00000000E+00  0.00000000E+00  0.00000000E+00
  0.00000000E+00  0.00000000E+00  0.00000000E+00
  0.00000000E+00  0.00000000E+00  0.00000000E+00
  0.00000000E+00  0.00000000E+00  0.00000000E+00
  0.00000000E+00  0.00000000E+00  0.00000000E+00
  0.00000000E+00  0.00000000E+00  0.00000000E+00
  0.00000000E+00  0.00000000E+00  0.00000000E+00
  0.00000000E+00  0.00000000E+00  0.00000000E+00
  0.00000000E+00  0.00000000E+00  0.00000000E+00
  0.00000000E+00  0.00000000E+00  0.00000000E+00
  0.00000000E+00  0.00000000E+00  0.00000000E+00
  0.00000000E+00  0.00000000E+00  0.00000000E+00
  0.00000000E+00  0.00000000E+00  0.00000000E+00
  0.00000000E+00  0.00000000E+00  0.00000000E+00
  0.00000000E+00  0.00000000E+00  0.00000000E+00
  0.00000000E+00  0.00000000E+00  0.00000000E+00
  0.00000000E+00  0.00000000E+00  0.00000000E+00
  0.00000000E+00  0.00000000E+00  0.00000000E+00
  0.00000000E+00  0.00000000E+00  0.00000000E+00
  0.00000000E+00  0.00000000E+00  0.00000000E+00
  0.00000000E+00  0.00000000E+00  0.00000000E+00
  0.00000000E+00  0.00000000E+00  0.00000000E+00
  0.00000000E+00  0.00000000E+00  0.00000000E+00
  0.00000000E+00  0.00000000E+00  0.00000000E+00
  0.00000000E+00  0.00000000E+00  0.00000000E+00
  0.00000000E+00  0.00000000E+00  0.00000000E+00
  0.00000000E+00  0.00000000E+00  0.00000000E+00
  0.00000000E+00  0.00000000E+00  0.00000000E+00
  0.00000000E+00  0.00000000E+00  0.00000000E+00
  0.00000000E+00  0.00000000E+00  0.00000000E+00
  0.00000000E+00  0.00000000E+00  0.00000000E+00
  0.00000000E+00  0.00000000E+00  0.00000000E+00
  0.00000000E+00  0.00000000E+00  0.00000000E+00
  0.00000000E+00  0.00000000E+00  0.00000000E+00
  0.00000000E+00  0.00000000E+00  0.00000000E+00
  0.00000000E+00  0.00000000E+00  0.00000000E+00
  0.00000000E+00  0.00000000E+00  0.00000000E+00
  0.00000000E+00  0.00000000E+00  0.00000000E+00
  0.00000000E+00  0.00000000E+00  0.00000000E+00
  0.00000000E+00  0.00000000E+00  0.00000000E+00
  0.00000000E+00  0.00000000E+00  0.00000000E+00
  0.00000000E+00  0.00000000E+00  0.00000000E+00
  0.00000000E+00  0.00000000E+00  0.00000000E+00
  0.00000000E+00  0.00000000E+00  0.00000000E+00
  0.00000000E+00  0.00000000E+00  0.00000000E+00
  0.00000000E+00  0.00000000E+00  0.00000000E+00
  0.00000000E+00  0.00000000E+00  0.00000000E+00
  0.00000000E+00  0.00000000E+00  0.00000000E+00
  0.00000000E+00  0.00000000E+00  0.00000000E+00
  0.00000000E+00  0.00000000E+00  0.00000000E+00
  0.00000000E+00  0.00000000E+00  0.00000000E+00
  0.00000000E+00  0.00000000E+00  0.00000000E+00
  0.00000000E+00  0.00000000E+00  0.00000000E+00
  0.00000000E+00  0.00000000E+00  0.00000000E+00
  0.00000000E+00  0.00000000E+00  0.00000000E+00
  0.00000000E+00  0.00000000E+00  0.00000000E+00
  0.00000000E+00  0.00000000E+00  0.00000000E+00
  0.00000000E+00  0.00000000E+00  0.00000000E+00
  0.00000000E+00  0.00000000E+00  0.00000000E+00
  0.00000000E+00  0.00000000E+00  0.00000000E+00
  0.00000000E+00  0.00000000E+00  0.00000000E+00
  0.00000000E+00  0.00000000E+00  0.00000000E+00
  0.00000000E+00  0.00000000E+00  0.00000000E+00
  0.00000000E+00  0.00000000E+00  0.00000000E+00
  0.00000000E+00  0.00000000E+00  0.00000000E+00
  0.00000000E+00  0.00000000E+00  0.00000000E+00
  0.00000000E+00  0.00000000E+00  0.00000000E+00
  0.00000000E+00  0.00000000E+00  0.00000000E+00
  0.00000000E+00  0.00000000E+00  0.00000000E+00
  0.00000000E+00  0.00000000E+00  0.00000000E+00
  0.00000000E+00  0.00000000E+00  0.00000000E+00
  0.00000000E+00  0.00000000E+00  0.00000000E+00
  0.00000000E+00  0.00000000E+00  0.00000000E+00
  0.00000000E+00  0.00000000E+00  0.00000000E+00
  0.00000000E+00  0.00000000E+00  0.00000000E+00
  0.00000000E+00  0.00000000E+00  0.00000000E+00
  0.00000000E+00  0.00000000E+00  0.00000000E+00
  0.00000000E+00  0.00000000E+00  0.00000000E+00
  0.00000000E+00  0.00000000E+00  0.00000000E+00
  0.00000000E+00  0.00000000E+00  0.00000000E+00
  0.00000000E+00  0.00000000E+00  0.00000000E+00
  0.00000000E+00  0.00000000E+00  0.00000000E+00
  0.00000000E+00  0.00000000E+00  0.00000000E+00
  0.00000000E+00  0.00000000E+00  0.00000000E+00
  0.00000000E+00  0.00000000E+00  0.00000000E+00
  0.00000000E+00  0.00000000E+00  0.00000000E+00
  0.00000000E+00  0.00000000E+00  0.00000000E+00
  0.00000000E+00  0.00000000E+00  0.00000000E+00
  0.00000000E+00  0.00000000E+00  0.00000000E+00
  0.00000000E+00  0.00000000E+00  0.00000000E+00
  0.00000000E+00  0.00000000E+00  0.00000000E+00
  0.00000000E+00  0.00000000E+00  0.00000000E+00
  0.00000000E+00  0.00000000E+00  0.00000000E+00
  0.00000000E+00  0.00000000E+00  0.00000000E+00
  0.00000000E+00  0.00000000E+00  0.00000000E+00
  0.00000000E+00  0.00000000E+00  0.00000000E+00
  0.00000000E+00  0.00000000E+00  0.00000000E+00
  0.00000000E+00  0.00000000E+00  0.00000000E+00
  0.00000000E+00  0.00000000E+00  0.00000000E+00
  0.00000000E+00  0.00000000E+00  0.00000000E+00
  0.00000000E+00  0.00000000E+00  0.00000000E+00
  0.00000000E+00  0.00000000E+00  0.00000000E+00
  0.00000000E+00  0.00000000E+00  0.00000000E+00
  0.00000000E+00  0.00000000E+00  0.00000000E+00
  0.00000000E+00  0.00000000E+00  0.00000000E+00
  0.00000000E+00  0.00000000E+00  0.00000000E+00
  0.00000000E+00  0.00000000E+00  0.00000000E+00
  0.00000000E+00  0.00000000E+00  0.00000000E+00
  0.00000000E+00  0.00000000E+00  0.00000000E+00
  0.00000000E+00  0.00000000E+00  0.00000000E+00
  0.00000000E+00  0.00000000E+00  0.00000000E+00
  0.00000000E+00  0.00000000E+00  0.00000000E+00
  0.00000000E+00  0.00000000E+00  0.00000000E+00
  0.00000000E+00  0.00000000E+00  0.00000000E+00
  0.00000000E+00  0.00000000E+00  0.00000000E+00
  0.00000000E+00  0.00000000E+00  0.00000000E+00
  0.00000000E+00  0.00000000E+00  0.00000000E+00
  0.00000000E+00  0.00000000E+00  0.00000000E+00
  0.00000000E+00  0.00000000E+00  0.00000000E+00
  0.00000000E+00  0.00000000E+00  0.00000000E+00
  0.00000000E+00  0.00000000E+00  0.00000000E+00
  0.00000000E+00  0.00000000E+00  0.00000000E+00
  0.00000000E+00  0.00000000E+00  0.00000000E+00
  0.00000000E+00  0.00000000E+00  0.00000000E+00
  0.00000000E+00  0.00000000E+00  0.00000000E+00
  0.00000000E+00  0.00000000E+00  0.00000000E+00
  0.00000000E+00  0.00000000E+00  0.00000000E+00
  0.00000000E+00  0.00000000E+00  0.00000000E+00
  0.00000000E+00  0.00000000E+00  0.00000000E+00
  0.00000000E+00  0.00000000E+00  0.00000000E+00
  0.00000000E+00  0.00000000E+00  0.00000000E+00
  0.00000000E+00  0.00000000E+00  0.00000000E+00
  0.00000000E+00  0.00000000E+00  0.00000000E+00
  0.00000000E+00  0.00000000E+00  0.00000000E+00
  0.00000000E+00  0.00000000E+00  0.00000000E+00
  0.00000000E+00  0.00000000E+00  0.00000000E+00
  0.00000000E+00  0.00000000E+00  0.00000000E+00
  0.00000000E+00  0.00000000E+00  0.00000000E+00
  0.00000000E+00  0.00000000E+00  0.00000000E+00
  0.00000000E+00  0.00000000E+00  0.00000000E+00
  0.00000000E+00  0.00000000E+00  0.00000000E+00
  0.00000000E+00  0.00000000E+00  0.00000000E+00
  0.00000000E+00  0.00000000E+00  0.00000000E+00
  0.00000000E+00  0.00000000E+00  0.00000000E+00
  0.00000000E+00  0.00000000E+00  0.00000000E+00
  0.00000000E+00  0.00000000E+00  0.00000000E+00
  0.00000000E+00  0.00000000E+00  0.00000000E+00
  0.00000000E+00  0.00000000E+00  0.00000000E+00
  0.00000000E+00  0.00000000E+00  0.00000000E+00
  0.00000000E+00  0.00000000E+00  0.00000000E+00
  0.00000000E+00  0.00000000E+00  0.00000000E+00
  0.00000000E+00  0.00000000E+00  0.00000000E+00
  0.00000000E+00  0.00000000E+00  0.00000000E+00
  0.00000000E+00  0.00000000E+00  0.00000000E+00
  0.00000000E+00  0.00000000E+00  0.00000000E+00
  0.00000000E+00  0.00000000E+00  0.00000000E+00
  0.00000000E+00  0.00000000E+00  0.00000000E+00
  0.00000000E+00  0.00000000E+00  0.00000000E+00
  0.00000000E+00  0.00000000E+00  0.00000000E+00
  0.00000000E+00  0.00000000E+00  0.00000000E+00
  0.00000000E+00  0.00000000E+00  0.00000000E+00
  0.00000000E+00  0.00000000E+00  0.00000000E+00
  0.00000000E+00  0.00000000E+00  0.00000000E+00
  0.00000000E+00  0.00000000E+00  0.00000000E+00
  0.00000000E+00  0.00000000E+00  0.00000000E+00
  0.00000000E+00  0.00000000E+00  0.00000000E+00
  0.00000000E+00  0.00000000E+00  0.00000000E+00
  0.00000000E+00  0.00000000E+00  0.00000000E+00
  0.00000000E+00  0.00000000E+00  0.00000000E+00
  0.00000000E+00  0.00000000E+00  0.00000000E+00
  0.00000000E+00  0.00000000E+00  0.00000000E+00
  0.00000000E+00  0.00000000E+00  0.00000000E+00
