generated by phonopy                    
   1.00000000000000     
     0.0000000000000000    3.2526871197510743    3.2526871197511569
     3.2526871197511080    0.0000000000000000    3.2526871197511569
     3.2526871197511080    3.2526871197510743    0.0000000000000000
   Na   Ca   Mg   Zr   H 
     1     1     1     1    24
Direct
  0.2500000000000000  0.2500000000000000  0.2500000000000000
  0.7500000000000000  0.7500000000000000  0.7500000000000000
  0.0000000000000000  0.0000000000000000  0.0000000000000000
  0.5000000000000000  0.5000000000000000  0.5000000000000000
  0.1176100076244069  0.8950237542503956  0.6264857326112008
  0.8950237542503956  0.1176100076244069  0.3608805055139968
  0.6264857326112008  0.3608805055139968  0.1176100076244069
  0.3608805055139968  0.6264857326112008  0.8950237542503956
  0.6264857326112008  0.1176100076244069  0.8950237542503956
  0.3608805055139968  0.8950237542503956  0.1176100076244069
  0.1176100076244069  0.6264857326112008  0.3608805055139968
  0.8950237542503956  0.3608805055139968  0.6264857326112008
  0.8950237542503956  0.6264857326112008  0.1176100076244069
  0.1176100076244069  0.3608805055139968  0.8950237542503956
  0.3608805055139968  0.1176100076244069  0.6264857326112008
  0.6264857326112008  0.8950237542503956  0.3608805055139968
  0.1176100076244069  0.3608805055139968  0.6264857326112008
  0.3608805055139968  0.1176100076244069  0.8950237542503956
  0.6264857326112008  0.8950237542503956  0.1176100076244069
  0.8950237542503956  0.6264857326112008  0.3608805055139968
  0.6264857326112008  0.1176100076244069  0.3608805055139968
  0.8950237542503956  0.3608805055139968  0.1176100076244069
  0.1176100076244069  0.6264857326112008  0.8950237542503956
  0.3608805055139968  0.8950237542503956  0.6264857326112008
  0.3608805055139968  0.6264857326112008  0.1176100076244069
  0.1176100076244069  0.8950237542503956  0.3608805055139968
  0.8950237542503956  0.1176100076244069  0.6264857326112008
  0.6264857326112008  0.3608805055139968  0.8950237542503956
 
  0.00000000E+00  0.00000000E+00  0.00000000E+00
  0.00000000E+00  0.00000000E+00  0.00000000E+00
  0.00000000E+00  0.00000000E+00  0.00000000E+00
  0.00000000E+00  0.00000000E+00  0.00000000E+00
  0.00000000E+00  0.00000000E+00  0.00000000E+00
  0.00000000E+00  0.00000000E+00  0.00000000E+00
  0.00000000E+00  0.00000000E+00  0.00000000E+00
  0.00000000E+00  0.00000000E+00  0.00000000E+00
  0.00000000E+00  0.00000000E+00  0.00000000E+00
  0.00000000E+00  0.00000000E+00  0.00000000E+00
  0.00000000E+00  0.00000000E+00  0.00000000E+00
  0.00000000E+00  0.00000000E+00  0.00000000E+00
  0.00000000E+00  0.00000000E+00  0.00000000E+00
  0.00000000E+00  0.00000000E+00  0.00000000E+00
  0.00000000E+00  0.00000000E+00  0.00000000E+00
  0.00000000E+00  0.00000000E+00  0.00000000E+00
  0.00000000E+00  0.00000000E+00  0.00000000E+00
  0.00000000E+00  0.00000000E+00  0.00000000E+00
  0.00000000E+00  0.00000000E+00  0.00000000E+00
  0.00000000E+00  0.00000000E+00  0.00000000E+00
  0.00000000E+00  0.00000000E+00  0.00000000E+00
  0.00000000E+00  0.00000000E+00  0.00000000E+00
  0.00000000E+00  0.00000000E+00  0.00000000E+00
  0.00000000E+00  0.00000000E+00  0.00000000E+00
  0.00000000E+00  0.00000000E+00  0.00000000E+00
  0.00000000E+00  0.00000000E+00  0.00000000E+00
  0.00000000E+00  0.00000000E+00  0.00000000E+00
  0.00000000E+00  0.00000000E+00  0.00000000E+00
