POSCAR                                  
   1.00000000000000     
     9.8141310942828106   -0.0788882720722006   -0.0081771301035865
    -0.0788083286479397    9.8039099512426553   -0.0078392744407220
    -0.0055375378328483   -0.0052186421047633    6.5287312751189157
   Y    Sr   Na   Sc   H 
     9     9     9     9   216
Direct
  0.1715360588466481  0.1695122267731719  0.2482771998107580
  0.4912436949963919  0.5023805918151112  0.2492061642294274
  0.8322681325747396  0.1624679261075315  0.2498572637655059
  0.6652976759124414  0.3388851059256126  0.5029864617329380
  0.6699908156128274  0.3373281206248961  0.9960035198995101
  0.0059309005621060  0.3317635742237570  0.5002768374171040
  0.0077934238098081  0.6654376889218696  0.4990440391608644
  0.6633829754460763  0.0003008191147273  0.0030457423464298
  0.0070646071593430  0.0007970812025135  0.5052797240895472
  0.1718245946180446  0.1627681743699654  0.7497442631892994
  0.5044399740387107  0.1695290095332211  0.7482080095628660
  0.3287970681754189  0.3229635684612688  0.9893540887953591
  0.8401714032872718  0.5072789793858092  0.2471884605841126
  0.5001164904338751  0.8299754769496985  0.7548283852231776
  0.8387830440984203  0.5020859589871804  0.7536303832275024
  0.6521360357687485  0.6729047662667540  0.9962179363041699
  0.6582591632350727  0.0010037333843371  0.5067719597733884
  0.9927667449093178  0.6563679952075532  0.9989421015157660
  0.1734879236052933  0.5027260004248149  0.2487391262968401
  0.3347442541135450  0.3434731143376411  0.4927656849289477
  0.3297392766080307  0.6693996036428516  0.5022030837380385
  0.1665857959757915  0.8282800049309103  0.7521300673684124
  0.4947109424697658  0.5024992374259796  0.7465876884922977
  0.8385941402898283  0.1653338060633374  0.7527954136548445
  0.3298481223309366  0.9932843156129891  0.5004106547785625
  0.3279859463149251  0.9943607832348036  0.0054838676312627
  0.0044552980695585  0.3275735930474468  0.0004600782623640
  0.4927874794201799  0.1642782994136667  0.2526363569208527
  0.1758007053962487  0.4999593567252063  0.7461062318502201
  0.1721701940414633  0.8289133247006575  0.2503614709783761
  0.3251965538983228  0.6662549728595692  0.9961767567427486
  0.4797455600421046  0.8334360870474100  0.2553510455969246
  0.6594336764915738  0.6712131930830481  0.4986293809505327
  0.8380546720154243  0.8385142530747203  0.2550319751234866
  0.8392828487434016  0.8378846972544736  0.7475430100218503
  0.0074538049625801  0.9973506918924997  0.9965133975582745
  0.1731703022907141  0.0741681043238103  0.0060199863478374
  0.1834295001719255  0.0803502430722247  0.4908838983697876
  0.1646392060836419  0.4162131686954993  0.0055117601416796
  0.4859838532433258  0.0779332243096462  0.0100512668970794
  0.3414170981816653  0.2499859732004666  0.2743460687522088
  0.1760125565702992  0.4219939431611266  0.4876954846973689
  0.4784727378891773  0.0830758213004401  0.4869281031280721
  0.3390461533497202  0.2525152090288429  0.7105230680435284
  0.1659926709637105  0.7484314341879283  0.9886486161855430
  0.4960692002479874  0.4181666864633442  0.9827438994121920
  0.3247793093964546  0.5880726940880550  0.2546447174297910
  0.1780641324943133  0.7499663605582754  0.5097437819541710
  0.8432777168027172  0.0806092132753591  0.9850309195328180
  0.6627123369003911  0.2506706671984986  0.2483333953982978
  0.4937914949997619  0.4232988312096069  0.5100760749237594
  0.3307844486776688  0.5852528004344677  0.7388179623188478
  0.8357698228201045  0.0820542211083506  0.5170261014304600
  0.6828544302850332  0.2515037753171754  0.7488401530095032
  0.4799042507874347  0.7517293939071337  0.0183955348996392
  0.3279172331470406  0.9170581414115588  0.2461313896726125
  0.8555506513735693  0.4091442153995146  0.0032537520781588
  0.6649418840598571  0.5911878829486099  0.2618013988442414
  0.4936800991047434  0.7470054108410835  0.4937643972942638
  0.3235933501943862  0.9087351635831951  0.7692163125977842
  0.9999951143724175  0.2495557325687159  0.2307326179984699
  0.8385663878866936  0.4189110017422379  0.4969382132078266
  0.6568493790889391  0.5859685239528645  0.7337510116607788
  0.9959108401985901  0.2477125916599476  0.7663376490587694
  0.8300081716869272  0.7590468378193975  0.0066619260628826
  0.6492126074292344  0.9146434550151525  0.2514254173208670
  0.0220523388444818  0.5790955320240343  0.2559283060817918
  0.8280688180672442  0.7565119640833302  0.4949633139140843
  0.6796485325603214  0.9142495948756206  0.7558232734258468
  0.0220829267784950  0.5781914264397088  0.7414878437547259
  0.0071515831520514  0.9148129897163670  0.2452264655691891
  0.0109230132779032  0.9134953354456599  0.7577758240549599
  0.0784008860493941  0.1681746038387573  0.0012195545767923
  0.0892515444405646  0.1684102386317576  0.4954880761659197
  0.0860791055083396  0.4895958720727762  0.0161039616716891
  0.4171182596831287  0.1508214820527911  0.0092109157610452
  0.2504205328683824  0.3440150065099630  0.2609358607567529
  0.0941516637235082  0.4970440290606462  0.4860249045643812
  0.4152971831713330  0.1539204946716524  0.4977764146520229
  0.2529020635560428  0.3437053957974427  0.7210946765423074
  0.0834811471088130  0.8312551989536558  0.9990407897595688
  0.4095466861005193  0.5009898098425438  0.9834033979892993
  0.2508659084848190  0.6635334310538141  0.2563202263028828
  0.0909829878174904  0.8350038912024260  0.5024929348005855
  0.7551557058980904  0.1692834207025200  0.9860037058071924
  0.5797197402540064  0.3335948212425279  0.2506762998902019
  0.4133447400337289  0.5100147266993247  0.5114161102239478
  0.2537456330684194  0.6715642890630846  0.7418353840261389
  0.7517436343530122  0.1707162428803741  0.5123983302899049
  0.5810071283504641  0.3499177983888231  0.7492294219890994
  0.4068391010461738  0.8356480179880990  0.0074670021979486
  0.2505883433895733  0.9935786147169594  0.2532784016196175
  0.7456692553398696  0.5098042263087450  0.0007608657268108
  0.5777134016454184  0.6820106541128013  0.2621881353851236
  0.4081198836584150  0.8327023690891622  0.5001302914180030
  0.2497105550732996  0.9869895791023708  0.7428316045935048
  0.9233168656422777  0.3317827272130103  0.2323680056925141
  0.7479760257429504  0.5102944366702786  0.4985256412026473
  0.5790742425310995  0.6539463339784106  0.7291052873494408
  0.9238001532765097  0.3251864696982807  0.7658817254005612
  0.7521737237044661  0.8361550194334981  0.0121998277975166
  0.5775290237632476  0.9865054685052002  0.2506444357599662
  0.9147351588161072  0.6850973256662343  0.2591884434430796
  0.7504982226896004  0.8322567276516182  0.4953260449855037
  0.5843142774096037  0.9987271877760335  0.7602025925047897
  0.9119781410521952  0.6816983116469260  0.7369851292588834
  0.9216010711181823  0.9954809467091508  0.2404371547978172
  0.9187899564021507  0.0027491074271495  0.7605265765114950
  0.1678387406489250  0.9922288393948975  0.1264172111379906
  0.1842277938311270  0.9808916216556938  0.6323044936096096
  0.1577814550811922  0.3478292811220811  0.1231313445753202
  0.4853258766875754  0.9982340980486839  0.1333883379578538
  0.3362437139440004  0.1794380514627605  0.3771018644878623
  0.1837730602936105  0.3382712780344690  0.6195333893729824
  0.4776699037682093  0.9962753906418271  0.6269613365955919
  0.3393080810224589  0.1411481614119623  0.8755880962916933
  0.1677050570523448  0.6595061646781133  0.1228380998812852
  0.4999098312860397  0.3296823536387308  0.1238483672151389
  0.3231986490189414  0.5049033446171265  0.3767763400403581
  0.1789695559925022  0.6707957016167967  0.6266094144837666
  0.8424023751085059  0.9911771370680853  0.1191381412202617
  0.6579895899625683  0.1708759406647644  0.3731622498186482
  0.4862087494913752  0.3478401516097236  0.6224763003386400
  0.3384643215851639  0.5015014053513127  0.8688592600673601
  0.8352643230566130  0.0062098498349954  0.6333470039256426
  0.6833976756282496  0.1671202058155856  0.8736991564515719
  0.4813258333250374  0.6725979706961667  0.1250644929298161
  0.3255499058208358  0.8269190502712647  0.3811106180592319
  0.8450881294945773  0.3332316703684342  0.1212701322402765
  0.6637308827894799  0.5104773586150273  0.3748656530228445
  0.4797590149577715  0.6580760654875206  0.6264106827629092
  0.3234523843926951  0.8437134833179840  0.8716595203827282
  0.0014661928404678  0.1639139327704555  0.3720338431783858
  0.8360955345860432  0.3227745439846714  0.6305099946853403
  0.6566969500360784  0.5031737943202614  0.8670146298582964
  0.9970228461024249  0.1663397224174332  0.8768361995886664
  0.8227285859035547  0.6854660597203832  0.1278160660898848
  0.6657158992185401  0.8303122633046343  0.3753220790569287
  0.0233252702556825  0.4984891412896530  0.3703052713458064
  0.8297947174484932  0.6737115966317972  0.6187332252029378
  0.6856477532962941  0.8391388614146607  0.8716774217224526
  0.0193958294323409  0.4806623568747455  0.8755336597710937
  0.0061366063897310  0.8342139626032932  0.3710796864391668
  0.0033397098071291  0.8345717811529312  0.8788441447159556
  0.0861211022740704  0.9894335891169206  0.2426044347737673
  0.0863432445535040  0.9835993901879760  0.7620362410540835
  0.0874027617235029  0.3440354735821174  0.2381666623058081
  0.4094502056031715  0.0031236944921744  0.2562078365443767
  0.2610303465396768  0.1543187827735153  0.4960448312470405
  0.0867223287014411  0.3374031501705801  0.7638432688055943
  0.4105357933568712  0.0014927328761161  0.7317459548593135
  0.2528089672969784  0.1436741588710646  0.0043077378173209
  0.0895248704370459  0.6660417830598959  0.2439862200614158
  0.4144835948466721  0.3315125446765776  0.2543968479895682
  0.2533252369881751  0.5066809009001361  0.4924680518337965
  0.0882475342920799  0.6667675786832064  0.7544781496655162
  0.7496233296650487  0.9897722499778894  0.2539768057612974
  0.5796600184557832  0.1729398515273033  0.4825832326038579
  0.4159878870900471  0.3429103495296602  0.7269287722199280
  0.2471418452914165  0.4996636004464818  0.0039476367749032
  0.7592473119817171  0.0011628585759453  0.7547964335272255
  0.5831121689250480  0.1678994833871243  0.0158843284676138
  0.4096933553369979  0.6673643783311078  0.2738448382307013
  0.2509415606075791  0.8312542902982116  0.5099065201641082
  0.7519242324737263  0.3313327320293595  0.2516072870088522
  0.5769571653790422  0.5084205136360964  0.5111319018501064
  0.4145038069853157  0.6555911366978506  0.7257229700154966
  0.2443874709207350  0.8347279699010386  0.0022443472947771
  0.9127479161728900  0.1681861827505031  0.5140357452626034
  0.7613106997172352  0.3213650116005198  0.7489668223494519
  0.5722529902737392  0.4997928336175690  0.9869572825637221
  0.9166656877506369  0.1725734047299170  0.9895609504600102
  0.7438450210010217  0.6805974522430347  0.2575158100979493
  0.5784050445031212  0.8259346306977875  0.4801460761312981
  0.9229302234101908  0.4956951925258224  0.5030243356329862
  0.7457661569560088  0.6749372588964633  0.7370722620458139
  0.5746378837283999  0.8392677995909921  0.0332507732875769
  0.9266066984998247  0.4729561701009359  0.9987499608543544
  0.9181703471980995  0.8298580826867124  0.5021470624925684
  0.9186352151348842  0.8359237346799873  0.9985746886643980
  0.0023037751984276  0.1658723697757623  0.1174707267770216
  0.9920334852746464  0.1659447420141902  0.6350596106983417
  0.0236337334653172  0.4835434675897758  0.1230377051066540
  0.3391316161155942  0.1521511043069737  0.1271692577729056
  0.1805707833605084  0.3486062029565886  0.3729755565233148
  0.0143714214844337  0.4983249123911051  0.6277873466023891
  0.3379674038437841  0.1794522172236981  0.6100132193481898
  0.1524094864970422  0.3426518138540970  0.8734528479119064
  0.0011483715322171  0.8351168349900675  0.1206948761574509
  0.3207720014012594  0.4985699060253594  0.1210796581528726
  0.1795548238074076  0.6618801607839657  0.3739722926686468
  0.0069112940094698  0.8335571110725368  0.6305547262618916
  0.6586663728293161  0.1708107472339009  0.1242673921797817
  0.4905963156191220  0.3294736759210082  0.3767889485887252
  0.3374201582170215  0.5065314122727145  0.6228678952719235
  0.1677219595836945  0.6707331617928602  0.8746157907057963
  0.6851606363603580  0.1708874501794142  0.6334464057729789
  0.5010881829591156  0.3484968758850258  0.8689015256261285
  0.3257683766416264  0.8324815033407944  0.1214671088848505
  0.1765988607144990  0.9917444747392921  0.3725476707021897
  0.6633002983895082  0.5030707394551825  0.1262561294721962
  0.4799757998303775  0.6722861724346529  0.3770559819165413
  0.3236486808666328  0.8325723870187431  0.6255063062455193
  0.1713239252114604  0.9844307630945650  0.8806724247020696
  0.8347748274217821  0.3332523770080513  0.3739378536599389
  0.6584445921613664  0.5105948128681206  0.6223744630066363
  0.4794695768177419  0.6534740454918690  0.8734414479477479
  0.8445916334195758  0.3253987896904817  0.8741288412495507
  0.6814213575193833  0.8365324842227295  0.1333100935728027
  0.4856942768843453  0.9973256871255529  0.3731291565064012
  0.8274559621860291  0.6821058387963177  0.3789527523586926
  0.6755104651320707  0.8290268902024920  0.6220354706292781
  0.4847583579245622  0.0005667676911472  0.8894436375995340
  0.8230526600444819  0.6805427462099018  0.8704561844521024
  0.8348026235096455  0.9938583383340784  0.3778282505819917
  0.8402352426014872  0.0027050336580032  0.8780129231015010
  0.0017947418280428  0.0785474245140279  0.2405599996807339
  0.9895678798573115  0.0833222117950569  0.7633975824749371
  0.0133992809004937  0.4125286933960055  0.2418814226763715
  0.3376048187193703  0.0768085666470810  0.2624051343428775
  0.1786808474077048  0.2557736941256508  0.5011304790703832
  0.0110146207321549  0.4126852587331413  0.7640239493015386
  0.3385972599206895  0.0694217481184509  0.7615642640276334
  0.1502293732667113  0.2490876254962302  0.9997750873275635
  0.0070023608433374  0.7529660422457738  0.2473477856091435
  0.3242078033807800  0.4197111955098478  0.2498227707753600
  0.1807747983309866  0.5822995898592609  0.4948789284008228
  0.0077443123788896  0.7503202896211931  0.7515507343502748
  0.6552045659763976  0.0847600996110955  0.2516715474694351
  0.4850690063893808  0.2557067182844293  0.4893725493690653
  0.3361886877421867  0.4236496787395723  0.7352932367838960
  0.1686450398674069  0.5797950555781171  0.0059466953441998
  0.6822784781152578  0.0893206068153418  0.7570152171827331
  0.5002342195864244  0.2462097418110432  0.0159950772585873
  0.3247832491691653  0.7482109312227720  0.2523467409429614
  0.1745270226942495  0.9113320571397807  0.5056701146460370
  0.6616574958451054  0.4228970467592461  0.2506400781145572
  0.4906293792120877  0.5832293888868918  0.5054789902695731
  0.3217844330948907  0.7478682527670557  0.7500928299508800
  0.1733508951675518  0.9109464398165343  0.9930714965617824
  0.8371229652368442  0.2453231114060799  0.5135832701696117
  0.6541489242966989  0.4279790398526018  0.7491899399907567
  0.4834158364875805  0.5813401244851946  0.9840567033038852
  0.8481149080060035  0.2438564856735255  0.9890700191686790
  0.6651309581363734  0.7552549504413832  0.2597619128780622
  0.4831477180267072  0.9130168775337566  0.4911004871020452
  0.8213510491020273  0.5961762374125854  0.5056788028364210
  0.6787553767806855  0.7485752422654031  0.7332999234832513
  0.4803989960626609  0.9194432780480426  0.0171846186365059
  0.8141690903339196  0.5900214695439203  0.9971238110169125
  0.8325643545180412  0.9164212523269271  0.5016644409934301
  0.8394729856979595  0.9187180433553337  0.9955242021217359
 
  0.00000000E+00  0.00000000E+00  0.00000000E+00
  0.00000000E+00  0.00000000E+00  0.00000000E+00
  0.00000000E+00  0.00000000E+00  0.00000000E+00
  0.00000000E+00  0.00000000E+00  0.00000000E+00
  0.00000000E+00  0.00000000E+00  0.00000000E+00
  0.00000000E+00  0.00000000E+00  0.00000000E+00
  0.00000000E+00  0.00000000E+00  0.00000000E+00
  0.00000000E+00  0.00000000E+00  0.00000000E+00
  0.00000000E+00  0.00000000E+00  0.00000000E+00
  0.00000000E+00  0.00000000E+00  0.00000000E+00
  0.00000000E+00  0.00000000E+00  0.00000000E+00
  0.00000000E+00  0.00000000E+00  0.00000000E+00
  0.00000000E+00  0.00000000E+00  0.00000000E+00
  0.00000000E+00  0.00000000E+00  0.00000000E+00
  0.00000000E+00  0.00000000E+00  0.00000000E+00
  0.00000000E+00  0.00000000E+00  0.00000000E+00
  0.00000000E+00  0.00000000E+00  0.00000000E+00
  0.00000000E+00  0.00000000E+00  0.00000000E+00
  0.00000000E+00  0.00000000E+00  0.00000000E+00
  0.00000000E+00  0.00000000E+00  0.00000000E+00
  0.00000000E+00  0.00000000E+00  0.00000000E+00
  0.00000000E+00  0.00000000E+00  0.00000000E+00
  0.00000000E+00  0.00000000E+00  0.00000000E+00
  0.00000000E+00  0.00000000E+00  0.00000000E+00
  0.00000000E+00  0.00000000E+00  0.00000000E+00
  0.00000000E+00  0.00000000E+00  0.00000000E+00
  0.00000000E+00  0.00000000E+00  0.00000000E+00
  0.00000000E+00  0.00000000E+00  0.00000000E+00
  0.00000000E+00  0.00000000E+00  0.00000000E+00
  0.00000000E+00  0.00000000E+00  0.00000000E+00
  0.00000000E+00  0.00000000E+00  0.00000000E+00
  0.00000000E+00  0.00000000E+00  0.00000000E+00
  0.00000000E+00  0.00000000E+00  0.00000000E+00
  0.00000000E+00  0.00000000E+00  0.00000000E+00
  0.00000000E+00  0.00000000E+00  0.00000000E+00
  0.00000000E+00  0.00000000E+00  0.00000000E+00
  0.00000000E+00  0.00000000E+00  0.00000000E+00
  0.00000000E+00  0.00000000E+00  0.00000000E+00
  0.00000000E+00  0.00000000E+00  0.00000000E+00
  0.00000000E+00  0.00000000E+00  0.00000000E+00
  0.00000000E+00  0.00000000E+00  0.00000000E+00
  0.00000000E+00  0.00000000E+00  0.00000000E+00
  0.00000000E+00  0.00000000E+00  0.00000000E+00
  0.00000000E+00  0.00000000E+00  0.00000000E+00
  0.00000000E+00  0.00000000E+00  0.00000000E+00
  0.00000000E+00  0.00000000E+00  0.00000000E+00
  0.00000000E+00  0.00000000E+00  0.00000000E+00
  0.00000000E+00  0.00000000E+00  0.00000000E+00
  0.00000000E+00  0.00000000E+00  0.00000000E+00
  0.00000000E+00  0.00000000E+00  0.00000000E+00
  0.00000000E+00  0.00000000E+00  0.00000000E+00
  0.00000000E+00  0.00000000E+00  0.00000000E+00
  0.00000000E+00  0.00000000E+00  0.00000000E+00
  0.00000000E+00  0.00000000E+00  0.00000000E+00
  0.00000000E+00  0.00000000E+00  0.00000000E+00
  0.00000000E+00  0.00000000E+00  0.00000000E+00
  0.00000000E+00  0.00000000E+00  0.00000000E+00
  0.00000000E+00  0.00000000E+00  0.00000000E+00
  0.00000000E+00  0.00000000E+00  0.00000000E+00
  0.00000000E+00  0.00000000E+00  0.00000000E+00
  0.00000000E+00  0.00000000E+00  0.00000000E+00
  0.00000000E+00  0.00000000E+00  0.00000000E+00
  0.00000000E+00  0.00000000E+00  0.00000000E+00
  0.00000000E+00  0.00000000E+00  0.00000000E+00
  0.00000000E+00  0.00000000E+00  0.00000000E+00
  0.00000000E+00  0.00000000E+00  0.00000000E+00
  0.00000000E+00  0.00000000E+00  0.00000000E+00
  0.00000000E+00  0.00000000E+00  0.00000000E+00
  0.00000000E+00  0.00000000E+00  0.00000000E+00
  0.00000000E+00  0.00000000E+00  0.00000000E+00
  0.00000000E+00  0.00000000E+00  0.00000000E+00
  0.00000000E+00  0.00000000E+00  0.00000000E+00
  0.00000000E+00  0.00000000E+00  0.00000000E+00
  0.00000000E+00  0.00000000E+00  0.00000000E+00
  0.00000000E+00  0.00000000E+00  0.00000000E+00
  0.00000000E+00  0.00000000E+00  0.00000000E+00
  0.00000000E+00  0.00000000E+00  0.00000000E+00
  0.00000000E+00  0.00000000E+00  0.00000000E+00
  0.00000000E+00  0.00000000E+00  0.00000000E+00
  0.00000000E+00  0.00000000E+00  0.00000000E+00
  0.00000000E+00  0.00000000E+00  0.00000000E+00
  0.00000000E+00  0.00000000E+00  0.00000000E+00
  0.00000000E+00  0.00000000E+00  0.00000000E+00
  0.00000000E+00  0.00000000E+00  0.00000000E+00
  0.00000000E+00  0.00000000E+00  0.00000000E+00
  0.00000000E+00  0.00000000E+00  0.00000000E+00
  0.00000000E+00  0.00000000E+00  0.00000000E+00
  0.00000000E+00  0.00000000E+00  0.00000000E+00
  0.00000000E+00  0.00000000E+00  0.00000000E+00
  0.00000000E+00  0.00000000E+00  0.00000000E+00
  0.00000000E+00  0.00000000E+00  0.00000000E+00
  0.00000000E+00  0.00000000E+00  0.00000000E+00
  0.00000000E+00  0.00000000E+00  0.00000000E+00
  0.00000000E+00  0.00000000E+00  0.00000000E+00
  0.00000000E+00  0.00000000E+00  0.00000000E+00
  0.00000000E+00  0.00000000E+00  0.00000000E+00
  0.00000000E+00  0.00000000E+00  0.00000000E+00
  0.00000000E+00  0.00000000E+00  0.00000000E+00
  0.00000000E+00  0.00000000E+00  0.00000000E+00
  0.00000000E+00  0.00000000E+00  0.00000000E+00
  0.00000000E+00  0.00000000E+00  0.00000000E+00
  0.00000000E+00  0.00000000E+00  0.00000000E+00
  0.00000000E+00  0.00000000E+00  0.00000000E+00
  0.00000000E+00  0.00000000E+00  0.00000000E+00
  0.00000000E+00  0.00000000E+00  0.00000000E+00
  0.00000000E+00  0.00000000E+00  0.00000000E+00
  0.00000000E+00  0.00000000E+00  0.00000000E+00
  0.00000000E+00  0.00000000E+00  0.00000000E+00
  0.00000000E+00  0.00000000E+00  0.00000000E+00
  0.00000000E+00  0.00000000E+00  0.00000000E+00
  0.00000000E+00  0.00000000E+00  0.00000000E+00
  0.00000000E+00  0.00000000E+00  0.00000000E+00
  0.00000000E+00  0.00000000E+00  0.00000000E+00
  0.00000000E+00  0.00000000E+00  0.00000000E+00
  0.00000000E+00  0.00000000E+00  0.00000000E+00
  0.00000000E+00  0.00000000E+00  0.00000000E+00
  0.00000000E+00  0.00000000E+00  0.00000000E+00
  0.00000000E+00  0.00000000E+00  0.00000000E+00
  0.00000000E+00  0.00000000E+00  0.00000000E+00
  0.00000000E+00  0.00000000E+00  0.00000000E+00
  0.00000000E+00  0.00000000E+00  0.00000000E+00
  0.00000000E+00  0.00000000E+00  0.00000000E+00
  0.00000000E+00  0.00000000E+00  0.00000000E+00
  0.00000000E+00  0.00000000E+00  0.00000000E+00
  0.00000000E+00  0.00000000E+00  0.00000000E+00
  0.00000000E+00  0.00000000E+00  0.00000000E+00
  0.00000000E+00  0.00000000E+00  0.00000000E+00
  0.00000000E+00  0.00000000E+00  0.00000000E+00
  0.00000000E+00  0.00000000E+00  0.00000000E+00
  0.00000000E+00  0.00000000E+00  0.00000000E+00
  0.00000000E+00  0.00000000E+00  0.00000000E+00
  0.00000000E+00  0.00000000E+00  0.00000000E+00
  0.00000000E+00  0.00000000E+00  0.00000000E+00
  0.00000000E+00  0.00000000E+00  0.00000000E+00
  0.00000000E+00  0.00000000E+00  0.00000000E+00
  0.00000000E+00  0.00000000E+00  0.00000000E+00
  0.00000000E+00  0.00000000E+00  0.00000000E+00
  0.00000000E+00  0.00000000E+00  0.00000000E+00
  0.00000000E+00  0.00000000E+00  0.00000000E+00
  0.00000000E+00  0.00000000E+00  0.00000000E+00
  0.00000000E+00  0.00000000E+00  0.00000000E+00
  0.00000000E+00  0.00000000E+00  0.00000000E+00
  0.00000000E+00  0.00000000E+00  0.00000000E+00
  0.00000000E+00  0.00000000E+00  0.00000000E+00
  0.00000000E+00  0.00000000E+00  0.00000000E+00
  0.00000000E+00  0.00000000E+00  0.00000000E+00
  0.00000000E+00  0.00000000E+00  0.00000000E+00
  0.00000000E+00  0.00000000E+00  0.00000000E+00
  0.00000000E+00  0.00000000E+00  0.00000000E+00
  0.00000000E+00  0.00000000E+00  0.00000000E+00
  0.00000000E+00  0.00000000E+00  0.00000000E+00
  0.00000000E+00  0.00000000E+00  0.00000000E+00
  0.00000000E+00  0.00000000E+00  0.00000000E+00
  0.00000000E+00  0.00000000E+00  0.00000000E+00
  0.00000000E+00  0.00000000E+00  0.00000000E+00
  0.00000000E+00  0.00000000E+00  0.00000000E+00
  0.00000000E+00  0.00000000E+00  0.00000000E+00
  0.00000000E+00  0.00000000E+00  0.00000000E+00
  0.00000000E+00  0.00000000E+00  0.00000000E+00
  0.00000000E+00  0.00000000E+00  0.00000000E+00
  0.00000000E+00  0.00000000E+00  0.00000000E+00
  0.00000000E+00  0.00000000E+00  0.00000000E+00
  0.00000000E+00  0.00000000E+00  0.00000000E+00
  0.00000000E+00  0.00000000E+00  0.00000000E+00
  0.00000000E+00  0.00000000E+00  0.00000000E+00
  0.00000000E+00  0.00000000E+00  0.00000000E+00
  0.00000000E+00  0.00000000E+00  0.00000000E+00
  0.00000000E+00  0.00000000E+00  0.00000000E+00
  0.00000000E+00  0.00000000E+00  0.00000000E+00
  0.00000000E+00  0.00000000E+00  0.00000000E+00
  0.00000000E+00  0.00000000E+00  0.00000000E+00
  0.00000000E+00  0.00000000E+00  0.00000000E+00
  0.00000000E+00  0.00000000E+00  0.00000000E+00
  0.00000000E+00  0.00000000E+00  0.00000000E+00
  0.00000000E+00  0.00000000E+00  0.00000000E+00
  0.00000000E+00  0.00000000E+00  0.00000000E+00
  0.00000000E+00  0.00000000E+00  0.00000000E+00
  0.00000000E+00  0.00000000E+00  0.00000000E+00
  0.00000000E+00  0.00000000E+00  0.00000000E+00
  0.00000000E+00  0.00000000E+00  0.00000000E+00
  0.00000000E+00  0.00000000E+00  0.00000000E+00
  0.00000000E+00  0.00000000E+00  0.00000000E+00
  0.00000000E+00  0.00000000E+00  0.00000000E+00
  0.00000000E+00  0.00000000E+00  0.00000000E+00
  0.00000000E+00  0.00000000E+00  0.00000000E+00
  0.00000000E+00  0.00000000E+00  0.00000000E+00
  0.00000000E+00  0.00000000E+00  0.00000000E+00
  0.00000000E+00  0.00000000E+00  0.00000000E+00
  0.00000000E+00  0.00000000E+00  0.00000000E+00
  0.00000000E+00  0.00000000E+00  0.00000000E+00
  0.00000000E+00  0.00000000E+00  0.00000000E+00
  0.00000000E+00  0.00000000E+00  0.00000000E+00
  0.00000000E+00  0.00000000E+00  0.00000000E+00
  0.00000000E+00  0.00000000E+00  0.00000000E+00
  0.00000000E+00  0.00000000E+00  0.00000000E+00
  0.00000000E+00  0.00000000E+00  0.00000000E+00
  0.00000000E+00  0.00000000E+00  0.00000000E+00
  0.00000000E+00  0.00000000E+00  0.00000000E+00
  0.00000000E+00  0.00000000E+00  0.00000000E+00
  0.00000000E+00  0.00000000E+00  0.00000000E+00
  0.00000000E+00  0.00000000E+00  0.00000000E+00
  0.00000000E+00  0.00000000E+00  0.00000000E+00
  0.00000000E+00  0.00000000E+00  0.00000000E+00
  0.00000000E+00  0.00000000E+00  0.00000000E+00
  0.00000000E+00  0.00000000E+00  0.00000000E+00
  0.00000000E+00  0.00000000E+00  0.00000000E+00
  0.00000000E+00  0.00000000E+00  0.00000000E+00
  0.00000000E+00  0.00000000E+00  0.00000000E+00
  0.00000000E+00  0.00000000E+00  0.00000000E+00
  0.00000000E+00  0.00000000E+00  0.00000000E+00
  0.00000000E+00  0.00000000E+00  0.00000000E+00
  0.00000000E+00  0.00000000E+00  0.00000000E+00
  0.00000000E+00  0.00000000E+00  0.00000000E+00
  0.00000000E+00  0.00000000E+00  0.00000000E+00
  0.00000000E+00  0.00000000E+00  0.00000000E+00
  0.00000000E+00  0.00000000E+00  0.00000000E+00
  0.00000000E+00  0.00000000E+00  0.00000000E+00
  0.00000000E+00  0.00000000E+00  0.00000000E+00
  0.00000000E+00  0.00000000E+00  0.00000000E+00
  0.00000000E+00  0.00000000E+00  0.00000000E+00
  0.00000000E+00  0.00000000E+00  0.00000000E+00
  0.00000000E+00  0.00000000E+00  0.00000000E+00
  0.00000000E+00  0.00000000E+00  0.00000000E+00
  0.00000000E+00  0.00000000E+00  0.00000000E+00
  0.00000000E+00  0.00000000E+00  0.00000000E+00
  0.00000000E+00  0.00000000E+00  0.00000000E+00
  0.00000000E+00  0.00000000E+00  0.00000000E+00
  0.00000000E+00  0.00000000E+00  0.00000000E+00
  0.00000000E+00  0.00000000E+00  0.00000000E+00
  0.00000000E+00  0.00000000E+00  0.00000000E+00
  0.00000000E+00  0.00000000E+00  0.00000000E+00
  0.00000000E+00  0.00000000E+00  0.00000000E+00
  0.00000000E+00  0.00000000E+00  0.00000000E+00
  0.00000000E+00  0.00000000E+00  0.00000000E+00
  0.00000000E+00  0.00000000E+00  0.00000000E+00
  0.00000000E+00  0.00000000E+00  0.00000000E+00
  0.00000000E+00  0.00000000E+00  0.00000000E+00
  0.00000000E+00  0.00000000E+00  0.00000000E+00
  0.00000000E+00  0.00000000E+00  0.00000000E+00
  0.00000000E+00  0.00000000E+00  0.00000000E+00
  0.00000000E+00  0.00000000E+00  0.00000000E+00
  0.00000000E+00  0.00000000E+00  0.00000000E+00
  0.00000000E+00  0.00000000E+00  0.00000000E+00
  0.00000000E+00  0.00000000E+00  0.00000000E+00
  0.00000000E+00  0.00000000E+00  0.00000000E+00
  0.00000000E+00  0.00000000E+00  0.00000000E+00
  0.00000000E+00  0.00000000E+00  0.00000000E+00
  0.00000000E+00  0.00000000E+00  0.00000000E+00
  0.00000000E+00  0.00000000E+00  0.00000000E+00
  0.00000000E+00  0.00000000E+00  0.00000000E+00
  0.00000000E+00  0.00000000E+00  0.00000000E+00
  0.00000000E+00  0.00000000E+00  0.00000000E+00
