generated by phonopy                    
   1.00000000000000     
     0.0000000000000000    3.3733644382709689    3.3733644382710457
     3.3733644382709995    0.0000000000000000    3.3733644382710457
     3.3733644382709995    3.3733644382709689    0.0000000000000000
   Ca   Hf   Sc   Ce   H 
     1     1     1     1    24
Direct
  0.2500000000000000  0.2500000000000000  0.2500000000000000
  0.7500000000000000  0.7500000000000000  0.7500000000000000
  0.0000000000000000  0.0000000000000000  0.0000000000000000
  0.5000000000000000  0.5000000000000000  0.5000000000000000
  0.1259291022889926  0.8836771654702744  0.6309795814712373
  0.8836771654702744  0.1259291022889926  0.3594141507694957
  0.6309795814712373  0.3594141507694957  0.1259291022889926
  0.3594141507694957  0.6309795814712373  0.8836771654702744
  0.6309795814712373  0.1259291022889926  0.8836771654702744
  0.3594141507694957  0.8836771654702744  0.1259291022889926
  0.1259291022889926  0.6309795814712373  0.3594141507694957
  0.8836771654702744  0.3594141507694957  0.6309795814712373
  0.8836771654702744  0.6309795814712373  0.1259291022889926
  0.1259291022889926  0.3594141507694957  0.8836771654702744
  0.3594141507694957  0.1259291022889926  0.6309795814712373
  0.6309795814712373  0.8836771654702744  0.3594141507694957
  0.1259291022889926  0.3594141507694957  0.6309795814712373
  0.3594141507694957  0.1259291022889926  0.8836771654702744
  0.6309795814712373  0.8836771654702744  0.1259291022889926
  0.8836771654702744  0.6309795814712373  0.3594141507694957
  0.6309795814712373  0.1259291022889926  0.3594141507694957
  0.8836771654702744  0.3594141507694957  0.1259291022889926
  0.1259291022889926  0.6309795814712373  0.8836771654702744
  0.3594141507694957  0.8836771654702744  0.6309795814712373
  0.3594141507694957  0.6309795814712373  0.1259291022889926
  0.1259291022889926  0.8836771654702744  0.3594141507694957
  0.8836771654702744  0.1259291022889926  0.6309795814712373
  0.6309795814712373  0.3594141507694957  0.8836771654702744
 
  0.00000000E+00  0.00000000E+00  0.00000000E+00
  0.00000000E+00  0.00000000E+00  0.00000000E+00
  0.00000000E+00  0.00000000E+00  0.00000000E+00
  0.00000000E+00  0.00000000E+00  0.00000000E+00
  0.00000000E+00  0.00000000E+00  0.00000000E+00
  0.00000000E+00  0.00000000E+00  0.00000000E+00
  0.00000000E+00  0.00000000E+00  0.00000000E+00
  0.00000000E+00  0.00000000E+00  0.00000000E+00
  0.00000000E+00  0.00000000E+00  0.00000000E+00
  0.00000000E+00  0.00000000E+00  0.00000000E+00
  0.00000000E+00  0.00000000E+00  0.00000000E+00
  0.00000000E+00  0.00000000E+00  0.00000000E+00
  0.00000000E+00  0.00000000E+00  0.00000000E+00
  0.00000000E+00  0.00000000E+00  0.00000000E+00
  0.00000000E+00  0.00000000E+00  0.00000000E+00
  0.00000000E+00  0.00000000E+00  0.00000000E+00
  0.00000000E+00  0.00000000E+00  0.00000000E+00
  0.00000000E+00  0.00000000E+00  0.00000000E+00
  0.00000000E+00  0.00000000E+00  0.00000000E+00
  0.00000000E+00  0.00000000E+00  0.00000000E+00
  0.00000000E+00  0.00000000E+00  0.00000000E+00
  0.00000000E+00  0.00000000E+00  0.00000000E+00
  0.00000000E+00  0.00000000E+00  0.00000000E+00
  0.00000000E+00  0.00000000E+00  0.00000000E+00
  0.00000000E+00  0.00000000E+00  0.00000000E+00
  0.00000000E+00  0.00000000E+00  0.00000000E+00
  0.00000000E+00  0.00000000E+00  0.00000000E+00
  0.00000000E+00  0.00000000E+00  0.00000000E+00
