generated by phonopy                    
   1.00000000000000     
     0.0000000000000000    3.2601096242526899    3.2601096242527596
     3.2601096242527197    0.0000000000000000    3.2601096242527596
     3.2601096242527197    3.2601096242526899    0.0000000000000000
   Na   Sr   Sc   Hf   H 
     1     1     1     1    24
Direct
  0.2500000000000000  0.2500000000000000  0.2500000000000000
  0.7500000000000000  0.7500000000000000  0.7500000000000000
  0.0000000000000000  0.0000000000000000  0.0000000000000000
  0.5000000000000000  0.5000000000000000  0.5000000000000000
  0.1267694403632191  0.8975269964710648  0.6135567845315890
  0.8975269964710648  0.1267694403632191  0.3621467786341341
  0.6135567845315890  0.3621467786341341  0.1267694403632191
  0.3621467786341341  0.6135567845315890  0.8975269964710648
  0.6135567845315890  0.1267694403632191  0.8975269964710648
  0.3621467786341341  0.8975269964710648  0.1267694403632191
  0.1267694403632191  0.6135567845315890  0.3621467786341341
  0.8975269964710648  0.3621467786341341  0.6135567845315890
  0.8975269964710648  0.6135567845315890  0.1267694403632191
  0.1267694403632191  0.3621467786341341  0.8975269964710648
  0.3621467786341341  0.1267694403632191  0.6135567845315890
  0.6135567845315890  0.8975269964710648  0.3621467786341341
  0.1267694403632191  0.3621467786341341  0.6135567845315890
  0.3621467786341341  0.1267694403632191  0.8975269964710648
  0.6135567845315890  0.8975269964710648  0.1267694403632191
  0.8975269964710648  0.6135567845315890  0.3621467786341341
  0.6135567845315890  0.1267694403632191  0.3621467786341341
  0.8975269964710648  0.3621467786341341  0.1267694403632191
  0.1267694403632191  0.6135567845315890  0.8975269964710648
  0.3621467786341341  0.8975269964710648  0.6135567845315890
  0.3621467786341341  0.6135567845315890  0.1267694403632191
  0.1267694403632191  0.8975269964710648  0.3621467786341341
  0.8975269964710648  0.1267694403632191  0.6135567845315890
  0.6135567845315890  0.3621467786341341  0.8975269964710648
 
  0.00000000E+00  0.00000000E+00  0.00000000E+00
  0.00000000E+00  0.00000000E+00  0.00000000E+00
  0.00000000E+00  0.00000000E+00  0.00000000E+00
  0.00000000E+00  0.00000000E+00  0.00000000E+00
  0.00000000E+00  0.00000000E+00  0.00000000E+00
  0.00000000E+00  0.00000000E+00  0.00000000E+00
  0.00000000E+00  0.00000000E+00  0.00000000E+00
  0.00000000E+00  0.00000000E+00  0.00000000E+00
  0.00000000E+00  0.00000000E+00  0.00000000E+00
  0.00000000E+00  0.00000000E+00  0.00000000E+00
  0.00000000E+00  0.00000000E+00  0.00000000E+00
  0.00000000E+00  0.00000000E+00  0.00000000E+00
  0.00000000E+00  0.00000000E+00  0.00000000E+00
  0.00000000E+00  0.00000000E+00  0.00000000E+00
  0.00000000E+00  0.00000000E+00  0.00000000E+00
  0.00000000E+00  0.00000000E+00  0.00000000E+00
  0.00000000E+00  0.00000000E+00  0.00000000E+00
  0.00000000E+00  0.00000000E+00  0.00000000E+00
  0.00000000E+00  0.00000000E+00  0.00000000E+00
  0.00000000E+00  0.00000000E+00  0.00000000E+00
  0.00000000E+00  0.00000000E+00  0.00000000E+00
  0.00000000E+00  0.00000000E+00  0.00000000E+00
  0.00000000E+00  0.00000000E+00  0.00000000E+00
  0.00000000E+00  0.00000000E+00  0.00000000E+00
  0.00000000E+00  0.00000000E+00  0.00000000E+00
  0.00000000E+00  0.00000000E+00  0.00000000E+00
  0.00000000E+00  0.00000000E+00  0.00000000E+00
  0.00000000E+00  0.00000000E+00  0.00000000E+00
