generated by phonopy                    
   1.00000000000000     
     0.0000000000000000    3.4249503566634614    3.4249503566635844
     3.4249503566635116    0.0000000000000000    3.4249503566635844
     3.4249503566635116    3.4249503566634614    0.0000000000000000
   Na   Sr   Ca   Y    H 
     1     1     1     1    24
Direct
  0.2500000000000000  0.2500000000000000  0.2500000000000000
  0.7500000000000000  0.7500000000000000  0.7500000000000000
  0.0000000000000000  0.0000000000000000  0.0000000000000000
  0.5000000000000000  0.5000000000000000  0.5000000000000000
  0.1325035560230461  0.8977968126393350  0.6122062464041989
  0.8977968126393350  0.1325035560230461  0.3574933849334201
  0.6122062464041989  0.3574933849334201  0.1325035560230461
  0.3574933849334201  0.6122062464041989  0.8977968126393350
  0.6122062464041989  0.1325035560230461  0.8977968126393350
  0.3574933849334201  0.8977968126393350  0.1325035560230461
  0.1325035560230461  0.6122062464041989  0.3574933849334201
  0.8977968126393350  0.3574933849334201  0.6122062464041989
  0.8977968126393350  0.6122062464041989  0.1325035560230461
  0.1325035560230461  0.3574933849334201  0.8977968126393350
  0.3574933849334201  0.1325035560230461  0.6122062464041989
  0.6122062464041989  0.8977968126393350  0.3574933849334201
  0.1325035560230461  0.3574933849334201  0.6122062464041989
  0.3574933849334201  0.1325035560230461  0.8977968126393350
  0.6122062464041989  0.8977968126393350  0.1325035560230461
  0.8977968126393350  0.6122062464041989  0.3574933849334201
  0.6122062464041989  0.1325035560230461  0.3574933849334201
  0.8977968126393350  0.3574933849334201  0.1325035560230461
  0.1325035560230461  0.6122062464041989  0.8977968126393350
  0.3574933849334201  0.8977968126393350  0.6122062464041989
  0.3574933849334201  0.6122062464041989  0.1325035560230461
  0.1325035560230461  0.8977968126393350  0.3574933849334201
  0.8977968126393350  0.1325035560230461  0.6122062464041989
  0.6122062464041989  0.3574933849334201  0.8977968126393350
 
  0.00000000E+00  0.00000000E+00  0.00000000E+00
  0.00000000E+00  0.00000000E+00  0.00000000E+00
  0.00000000E+00  0.00000000E+00  0.00000000E+00
  0.00000000E+00  0.00000000E+00  0.00000000E+00
  0.00000000E+00  0.00000000E+00  0.00000000E+00
  0.00000000E+00  0.00000000E+00  0.00000000E+00
  0.00000000E+00  0.00000000E+00  0.00000000E+00
  0.00000000E+00  0.00000000E+00  0.00000000E+00
  0.00000000E+00  0.00000000E+00  0.00000000E+00
  0.00000000E+00  0.00000000E+00  0.00000000E+00
  0.00000000E+00  0.00000000E+00  0.00000000E+00
  0.00000000E+00  0.00000000E+00  0.00000000E+00
  0.00000000E+00  0.00000000E+00  0.00000000E+00
  0.00000000E+00  0.00000000E+00  0.00000000E+00
  0.00000000E+00  0.00000000E+00  0.00000000E+00
  0.00000000E+00  0.00000000E+00  0.00000000E+00
  0.00000000E+00  0.00000000E+00  0.00000000E+00
  0.00000000E+00  0.00000000E+00  0.00000000E+00
  0.00000000E+00  0.00000000E+00  0.00000000E+00
  0.00000000E+00  0.00000000E+00  0.00000000E+00
  0.00000000E+00  0.00000000E+00  0.00000000E+00
  0.00000000E+00  0.00000000E+00  0.00000000E+00
  0.00000000E+00  0.00000000E+00  0.00000000E+00
  0.00000000E+00  0.00000000E+00  0.00000000E+00
  0.00000000E+00  0.00000000E+00  0.00000000E+00
  0.00000000E+00  0.00000000E+00  0.00000000E+00
  0.00000000E+00  0.00000000E+00  0.00000000E+00
  0.00000000E+00  0.00000000E+00  0.00000000E+00
