generated by phonopy                    
   1.00000000000000     
     0.0000000000000000    3.2171391992917386    3.2171391992918266
     3.2171391992917759    0.0000000000000000    3.2171391992918266
     3.2171391992917759    3.2171391992917386    0.0000000000000000
   Mg   Zr   Ca   Sc   H 
     1     1     1     1    24
Direct
  0.2500000000000000  0.2500000000000000  0.2500000000000000
  0.7500000000000000  0.7500000000000000  0.7500000000000000
  0.0000000000000000  0.0000000000000000  0.0000000000000000
  0.5000000000000000  0.5000000000000000  0.5000000000000000
  0.1365265131271443  0.8833352041487501  0.6163232599149566
  0.8833352041487501  0.1365265131271443  0.3638150228091419
  0.6163232599149566  0.3638150228091419  0.1365265131271443
  0.3638150228091419  0.6163232599149566  0.8833352041487501
  0.6163232599149566  0.1365265131271443  0.8833352041487501
  0.3638150228091419  0.8833352041487501  0.1365265131271443
  0.1365265131271443  0.6163232599149566  0.3638150228091419
  0.8833352041487501  0.3638150228091419  0.6163232599149566
  0.8833352041487501  0.6163232599149566  0.1365265131271443
  0.1365265131271443  0.3638150228091419  0.8833352041487501
  0.3638150228091419  0.1365265131271443  0.6163232599149566
  0.6163232599149566  0.8833352041487501  0.3638150228091419
  0.1365265131271443  0.3638150228091419  0.6163232599149566
  0.3638150228091419  0.1365265131271443  0.8833352041487501
  0.6163232599149566  0.8833352041487501  0.1365265131271443
  0.8833352041487501  0.6163232599149566  0.3638150228091419
  0.6163232599149566  0.1365265131271443  0.3638150228091419
  0.8833352041487501  0.3638150228091419  0.1365265131271443
  0.1365265131271443  0.6163232599149566  0.8833352041487501
  0.3638150228091419  0.8833352041487501  0.6163232599149566
  0.3638150228091419  0.6163232599149566  0.1365265131271443
  0.1365265131271443  0.8833352041487501  0.3638150228091419
  0.8833352041487501  0.1365265131271443  0.6163232599149566
  0.6163232599149566  0.3638150228091419  0.8833352041487501
 
  0.00000000E+00  0.00000000E+00  0.00000000E+00
  0.00000000E+00  0.00000000E+00  0.00000000E+00
  0.00000000E+00  0.00000000E+00  0.00000000E+00
  0.00000000E+00  0.00000000E+00  0.00000000E+00
  0.00000000E+00  0.00000000E+00  0.00000000E+00
  0.00000000E+00  0.00000000E+00  0.00000000E+00
  0.00000000E+00  0.00000000E+00  0.00000000E+00
  0.00000000E+00  0.00000000E+00  0.00000000E+00
  0.00000000E+00  0.00000000E+00  0.00000000E+00
  0.00000000E+00  0.00000000E+00  0.00000000E+00
  0.00000000E+00  0.00000000E+00  0.00000000E+00
  0.00000000E+00  0.00000000E+00  0.00000000E+00
  0.00000000E+00  0.00000000E+00  0.00000000E+00
  0.00000000E+00  0.00000000E+00  0.00000000E+00
  0.00000000E+00  0.00000000E+00  0.00000000E+00
  0.00000000E+00  0.00000000E+00  0.00000000E+00
  0.00000000E+00  0.00000000E+00  0.00000000E+00
  0.00000000E+00  0.00000000E+00  0.00000000E+00
  0.00000000E+00  0.00000000E+00  0.00000000E+00
  0.00000000E+00  0.00000000E+00  0.00000000E+00
  0.00000000E+00  0.00000000E+00  0.00000000E+00
  0.00000000E+00  0.00000000E+00  0.00000000E+00
  0.00000000E+00  0.00000000E+00  0.00000000E+00
  0.00000000E+00  0.00000000E+00  0.00000000E+00
  0.00000000E+00  0.00000000E+00  0.00000000E+00
  0.00000000E+00  0.00000000E+00  0.00000000E+00
  0.00000000E+00  0.00000000E+00  0.00000000E+00
  0.00000000E+00  0.00000000E+00  0.00000000E+00
