generated by phonopy                    
   1.00000000000000     
     0.0000000000000000    3.2830273964738375    3.2830273964739169
     3.2830273964738717    0.0000000000000000    3.2830273964739169
     3.2830273964738717    3.2830273964738375    0.0000000000000000
   Na   Y    Zr   Hf   H 
     1     1     1     1    24
Direct
  0.2500000000000000  0.2500000000000000  0.2500000000000000
  0.7500000000000000  0.7500000000000000  0.7500000000000000
  0.0000000000000000  0.0000000000000000  0.0000000000000000
  0.5000000000000000  0.5000000000000000  0.5000000000000000
  0.1294268223520305  0.8918321113459982  0.6092763637797631
  0.8918321113459982  0.1294268223520305  0.3694647025222011
  0.6092763637797631  0.3694647025222011  0.1294268223520305
  0.3694647025222011  0.6092763637797631  0.8918321113459982
  0.6092763637797631  0.1294268223520305  0.8918321113459982
  0.3694647025222011  0.8918321113459982  0.1294268223520305
  0.1294268223520305  0.6092763637797631  0.3694647025222011
  0.8918321113459982  0.3694647025222011  0.6092763637797631
  0.8918321113459982  0.6092763637797631  0.1294268223520305
  0.1294268223520305  0.3694647025222011  0.8918321113459982
  0.3694647025222011  0.1294268223520305  0.6092763637797631
  0.6092763637797631  0.8918321113459982  0.3694647025222011
  0.1294268223520305  0.3694647025222011  0.6092763637797631
  0.3694647025222011  0.1294268223520305  0.8918321113459982
  0.6092763637797631  0.8918321113459982  0.1294268223520305
  0.8918321113459982  0.6092763637797631  0.3694647025222011
  0.6092763637797631  0.1294268223520305  0.3694647025222011
  0.8918321113459982  0.3694647025222011  0.1294268223520305
  0.1294268223520305  0.6092763637797631  0.8918321113459982
  0.3694647025222011  0.8918321113459982  0.6092763637797631
  0.3694647025222011  0.6092763637797631  0.1294268223520305
  0.1294268223520305  0.8918321113459982  0.3694647025222011
  0.8918321113459982  0.1294268223520305  0.6092763637797631
  0.6092763637797631  0.3694647025222011  0.8918321113459982
 
  0.00000000E+00  0.00000000E+00  0.00000000E+00
  0.00000000E+00  0.00000000E+00  0.00000000E+00
  0.00000000E+00  0.00000000E+00  0.00000000E+00
  0.00000000E+00  0.00000000E+00  0.00000000E+00
  0.00000000E+00  0.00000000E+00  0.00000000E+00
  0.00000000E+00  0.00000000E+00  0.00000000E+00
  0.00000000E+00  0.00000000E+00  0.00000000E+00
  0.00000000E+00  0.00000000E+00  0.00000000E+00
  0.00000000E+00  0.00000000E+00  0.00000000E+00
  0.00000000E+00  0.00000000E+00  0.00000000E+00
  0.00000000E+00  0.00000000E+00  0.00000000E+00
  0.00000000E+00  0.00000000E+00  0.00000000E+00
  0.00000000E+00  0.00000000E+00  0.00000000E+00
  0.00000000E+00  0.00000000E+00  0.00000000E+00
  0.00000000E+00  0.00000000E+00  0.00000000E+00
  0.00000000E+00  0.00000000E+00  0.00000000E+00
  0.00000000E+00  0.00000000E+00  0.00000000E+00
  0.00000000E+00  0.00000000E+00  0.00000000E+00
  0.00000000E+00  0.00000000E+00  0.00000000E+00
  0.00000000E+00  0.00000000E+00  0.00000000E+00
  0.00000000E+00  0.00000000E+00  0.00000000E+00
  0.00000000E+00  0.00000000E+00  0.00000000E+00
  0.00000000E+00  0.00000000E+00  0.00000000E+00
  0.00000000E+00  0.00000000E+00  0.00000000E+00
  0.00000000E+00  0.00000000E+00  0.00000000E+00
  0.00000000E+00  0.00000000E+00  0.00000000E+00
  0.00000000E+00  0.00000000E+00  0.00000000E+00
  0.00000000E+00  0.00000000E+00  0.00000000E+00
