generated by phonopy                    
   1.00000000000000     
     0.0000000000000000    3.2669150460701211    3.2669150460702365
     3.2669150460701695    0.0000000000000000    3.2669150460702365
     3.2669150460701695    3.2669150460701211    0.0000000000000000
   Na   Sr   Sc   Y    H 
     1     1     1     1    24
Direct
  0.2500000000000000  0.2500000000000000  0.2500000000000000
  0.7500000000000000  0.7500000000000000  0.7500000000000000
  0.0000000000000000  0.0000000000000000  0.0000000000000000
  0.5000000000000000  0.5000000000000000  0.5000000000000000
  0.1304589317313827  0.8970006735875415  0.6137610042280812
  0.8970006735875415  0.1304589317313827  0.3587793904530017
  0.6137610042280812  0.3587793904530017  0.1304589317313827
  0.3587793904530017  0.6137610042280812  0.8970006735875415
  0.6137610042280812  0.1304589317313827  0.8970006735875415
  0.3587793904530017  0.8970006735875415  0.1304589317313827
  0.1304589317313827  0.6137610042280812  0.3587793904530017
  0.8970006735875415  0.3587793904530017  0.6137610042280812
  0.8970006735875415  0.6137610042280812  0.1304589317313827
  0.1304589317313827  0.3587793904530017  0.8970006735875415
  0.3587793904530017  0.1304589317313827  0.6137610042280812
  0.6137610042280812  0.8970006735875415  0.3587793904530017
  0.1304589317313827  0.3587793904530017  0.6137610042280812
  0.3587793904530017  0.1304589317313827  0.8970006735875415
  0.6137610042280812  0.8970006735875415  0.1304589317313827
  0.8970006735875415  0.6137610042280812  0.3587793904530017
  0.6137610042280812  0.1304589317313827  0.3587793904530017
  0.8970006735875415  0.3587793904530017  0.1304589317313827
  0.1304589317313827  0.6137610042280812  0.8970006735875415
  0.3587793904530017  0.8970006735875415  0.6137610042280812
  0.3587793904530017  0.6137610042280812  0.1304589317313827
  0.1304589317313827  0.8970006735875415  0.3587793904530017
  0.8970006735875415  0.1304589317313827  0.6137610042280812
  0.6137610042280812  0.3587793904530017  0.8970006735875415
 
  0.00000000E+00  0.00000000E+00  0.00000000E+00
  0.00000000E+00  0.00000000E+00  0.00000000E+00
  0.00000000E+00  0.00000000E+00  0.00000000E+00
  0.00000000E+00  0.00000000E+00  0.00000000E+00
  0.00000000E+00  0.00000000E+00  0.00000000E+00
  0.00000000E+00  0.00000000E+00  0.00000000E+00
  0.00000000E+00  0.00000000E+00  0.00000000E+00
  0.00000000E+00  0.00000000E+00  0.00000000E+00
  0.00000000E+00  0.00000000E+00  0.00000000E+00
  0.00000000E+00  0.00000000E+00  0.00000000E+00
  0.00000000E+00  0.00000000E+00  0.00000000E+00
  0.00000000E+00  0.00000000E+00  0.00000000E+00
  0.00000000E+00  0.00000000E+00  0.00000000E+00
  0.00000000E+00  0.00000000E+00  0.00000000E+00
  0.00000000E+00  0.00000000E+00  0.00000000E+00
  0.00000000E+00  0.00000000E+00  0.00000000E+00
  0.00000000E+00  0.00000000E+00  0.00000000E+00
  0.00000000E+00  0.00000000E+00  0.00000000E+00
  0.00000000E+00  0.00000000E+00  0.00000000E+00
  0.00000000E+00  0.00000000E+00  0.00000000E+00
  0.00000000E+00  0.00000000E+00  0.00000000E+00
  0.00000000E+00  0.00000000E+00  0.00000000E+00
  0.00000000E+00  0.00000000E+00  0.00000000E+00
  0.00000000E+00  0.00000000E+00  0.00000000E+00
  0.00000000E+00  0.00000000E+00  0.00000000E+00
  0.00000000E+00  0.00000000E+00  0.00000000E+00
  0.00000000E+00  0.00000000E+00  0.00000000E+00
  0.00000000E+00  0.00000000E+00  0.00000000E+00
