POSCAR                                  
   1.00000000000000     
    10.0536105764695467   -0.0254558027205138    0.0088036530218190
    -0.0257376724459238   10.1014781564381373    0.1192516573424274
     0.0057105427540061    0.0793411753976997    6.7466746398188722
   Y    Ca   Hf   La   H 
     9     9     9     9   216
Direct
  0.1709120352837630  0.1660822919412226  0.2510679092231882
  0.1629242705215148  0.8230589613170594  0.2592538091416898
  0.3276586822567111  0.6659303538002703  0.5048020717068553
  0.8418644093356136  0.1671526562035197  0.7550761576053802
  0.8289917745414286  0.4947100364225108  0.2314557355134070
  0.4983867652769405  0.8337608219216435  0.7527477011711383
  0.3332709889968513  0.9921675321555625  0.9971300720365477
  0.6635366896373682  0.9946490592972097  0.5001244051983704
  0.6688242630941303  0.9960569548561580  0.0044252318450262
  0.1677757545020384  0.1611766236093999  0.7507128688522187
  0.1674294359419264  0.8422292102478650  0.7561305340062958
  0.4960011320272812  0.5133680073891398  0.7456500453988113
  0.3365743600156605  0.6679457066655559  0.0058982107998631
  0.6810711311685296  0.3426934339000667  0.9945382652463479
  0.6639567334322862  0.6676568325692429  0.0021344360434838
  0.9979900492789326  0.3312199672794591  0.9955353543994505
  0.8314149305086431  0.8284123771046907  0.2425056186764962
  0.0038572587674537  0.9990362279176068  0.9989435400032320
  0.1599974781722224  0.4994185799520210  0.2225949612379381
  0.3163927364459269  0.3591636065775745  0.5056060111629606
  0.1726784250650510  0.5002925669088540  0.7814889070249080
  0.5028649551185538  0.5048475711847047  0.2432677114320612
  0.5016679774823913  0.8285121786319820  0.2504978882906812
  0.3322295849522661  0.9866202636019139  0.5021614503387042
  0.0097297734806290  0.3400828522937474  0.5021382588914207
  0.8352775710261540  0.8421290202832523  0.7638918836942636
  0.9998351425773109  0.6718415491114840  0.9972783887542889
  0.4970682853657280  0.1797242041226070  0.2471709764338925
  0.5009725574020365  0.1799430777006634  0.7460212775419990
  0.3419170975190298  0.3212314009141224  0.0057246960762569
  0.8436910533611552  0.1546043688627634  0.2576178448041588
  0.6485201632744761  0.3188322368926535  0.4983926655956807
  0.6692863714192399  0.6594323592563924  0.5097993916230763
  0.8351248610277295  0.5090983112363716  0.7248926211278643
  0.9978855644414750  0.6629120292197541  0.5046232374577784
  0.0002472321542299  0.0101717098634637  0.4906985682102771
  0.1660470128200586  0.0801174354054126  0.9978789344044827
  0.1813895828017138  0.0859379624037686  0.5072711477353593
  0.1658637449142262  0.4011195109928209  0.9976716826093650
  0.5071067116031287  0.0807921147064903  0.9988697981046499
  0.3270313972443901  0.2538898022861176  0.2941831886721644
  0.1585704179225758  0.4267542872625327  0.5464642029812836
  0.4889390007522962  0.0784678763686131  0.4987403146008660
  0.3231846268222611  0.2462637366758713  0.7179464910530342
  0.1718074886511829  0.7507511820037323  0.9962761151303354
  0.5120598820020703  0.4277898156768600  0.9940200354880560
  0.3396622027373013  0.5848870472591585  0.2524903355948211
  0.1666803757553197  0.7491999477450904  0.5224867296560163
  0.8379398420070387  0.0790659966851806  0.9960194915497027
  0.6781958094038814  0.2479222857372037  0.2245794166922224
  0.4879008044194748  0.4270647022957519  0.5024616766957593
  0.3339507150829419  0.5923830505030381  0.7645710940114725
  0.8245843868064640  0.0788458134520269  0.5215061469278055
  0.6803368212467120  0.2505422563307889  0.7732458416843784
  0.5008113683955102  0.7462753770420818  0.0023953116910107
  0.3356678139014733  0.9070973577419466  0.2478159949502512
  0.8420632475223755  0.4189048849803996  0.9831647240314538
  0.6632334064554541  0.5875260879302076  0.2439263178908035
  0.4965681258640089  0.7474947287586531  0.5008024054458389
  0.3330902412462464  0.9126040256789310  0.7526865348463829
  0.0086570467322176  0.2553277462927639  0.2400988807417548
  0.8266467876196231  0.4044462419632566  0.4825279103389946
  0.6592467212779596  0.5877980614434435  0.7726764597216516
  0.0109129713841298  0.2478858039613456  0.7609833472909528
  0.8293422402384323  0.7496789743897310  0.0087694775711569
  0.6626964554488382  0.9096525892691076  0.2539186508624169
  0.9935352809648634  0.5798896120911081  0.2457567674176104
  0.8326056178038215  0.7526518005542329  0.4805818228796994
  0.6675845747356917  0.9189903115481854  0.7533504946583420
  0.0147892716524964  0.5869506825557878  0.7668757847710950
  0.9986409145397204  0.9099548551288876  0.2377899242609871
  0.0019636896860220  0.9219822769684640  0.7550837022344439
  0.0827176432056120  0.1665221002022719  0.9985537045495860
  0.0927056969157007  0.1781201464226640  0.5067532253312308
  0.0738698594755292  0.4983819734160306  0.9955240662168023
  0.4252200814113039  0.1493967276950130  0.9957072799501958
  0.2471990350701461  0.3419824486678706  0.2550973024596672
  0.0821386876240382  0.5002532746097330  0.4572958327611332
  0.4053291722289245  0.1534392653061616  0.4983931961302659
  0.2441442369945221  0.3294331979161456  0.7509254089984552
  0.0832075983216853  0.8367724052594880  0.9984448360309131
  0.4223382668444557  0.5024024345327618  0.9989433294024224
  0.2535523816565544  0.6569485442917937  0.2444020100382431
  0.0789102643690711  0.8364944882376335  0.5170400892831992
  0.7591042265936849  0.1679930546090915  0.9999352342757675
  0.5918086399738698  0.3482805282476846  0.2246911479460678
  0.4064595082504283  0.5082810235862709  0.4700083593256039
  0.2485183996830074  0.6736376980753960  0.7636181505346258
  0.7534038328089707  0.1621399042289937  0.5123438687947299
  0.5874425132469341  0.3579579046270496  0.7714030164532346
  0.4160248228237364  0.8280148898169131  0.0068414352798953
  0.2530625383342766  0.9930413090895200  0.2506117554445453
  0.7487953479764968  0.5102048871875198  0.9833795536192582
  0.5901918378921067  0.6652567127435134  0.2471515215133948
  0.4183821690496359  0.8239744739469188  0.4975557134165527
  0.2490934865873626  0.0015977798603615  0.7483962731305454
  0.9178165863342542  0.3321168928415688  0.2493814969887325
  0.7437194426409519  0.4830184875574801  0.4774487463798494
  0.5826072889558915  0.6718620515321803  0.7649442169527276
  0.9211457263062357  0.3362543590674036  0.7438292796696828
  0.7499332860123076  0.8260053131240213  0.0057149051570846
  0.5778684124454969  0.0016390945398967  0.2498807923881259
  0.9110151156413266  0.6657955857585449  0.2449447835388767
  0.7473406394279323  0.8321091731595018  0.4900018431266844
  0.5831387311369411  0.0025392780863669  0.7534764064445625
  0.9194516953483003  0.6813545509939161  0.7628940743728592
  0.9200081101808877  0.9806025209817903  0.2356521199428343
  0.9217619191131021  0.0002572979824578  0.7579178987927691
  0.1663168037055343  0.9915874368174187  0.1246845786337687
  0.1716683288517089  0.0049565647208567  0.6251546775874814
  0.1577077497506281  0.3322605263661842  0.1251464907659923
  0.5005168947538081  0.9998087501340436  0.1310111882937051
  0.3298437582576312  0.1449017661771705  0.3804735275518922
  0.1615984033132278  0.3132956923644414  0.6268048787488851
  0.4959385162098044  0.0040022713858860  0.6253428750835326
  0.3263333523008001  0.1555449042079147  0.8625934794764731
  0.1704908373799796  0.6674759098842671  0.1224126519330540
  0.5167887291544986  0.3517357544465511  0.1095947333031759
  0.2841714576553400  0.5132951779931929  0.3931850663076375
  0.1644501580115261  0.6795616407824525  0.6503155951692250
  0.8382741294304807  0.9865921195727694  0.1180808557990289
  0.6700297400565560  0.1558254866687747  0.3668680135492579
  0.4814501115341514  0.3593478728474295  0.6193085549079171
  0.3420616454843355  0.5021168831520129  0.8841359979263785
  0.8292694586273370  0.9983888206120994  0.6294680629883018
  0.6744175655714102  0.1694416484541037  0.8808734905559561
  0.5007131843672141  0.6682618313539734  0.1215036503593012
  0.3344906465521618  0.8300151408491416  0.3776754190694547
  0.8415111800847512  0.3278300628063278  0.1234602902531350
  0.6655984425285766  0.4898015112066929  0.3655578501105765
  0.4936806251545036  0.6724726318338767  0.6244213482887915
  0.3305513819412482  0.8272024941200584  0.8760518200902325
  0.0122283425473384  0.1859419001273181  0.3753088988652493
  0.8335622529913280  0.3305869625203002  0.6156350369560002
  0.6578686096254032  0.5081132010194835  0.8754980755960844
  0.0096592033231815  0.1710903244844815  0.8732787213730830
  0.8315490313288834  0.6689445903379649  0.1151756153317294
  0.6752114472659230  0.8321915846022208  0.3820603612354603
  0.0012186686042028  0.4979917332249073  0.3553388199097043
  0.8350612857080648  0.6951966317353566  0.6330408984435181
  0.6625955909352825  0.8303084778863763  0.8834265502566865
  0.0002169150412357  0.4902271549517110  0.8681510967914932
  0.9877973642764459  0.8376013614825411  0.3776955400999427
  0.0072126635745349  0.8374025015122015  0.8808680366235109
  0.0903549796500869  0.9948507470157111  0.2342591669769547
  0.0848912981231891  0.0005431041557955  0.7559715105767282
  0.0807572994428085  0.3295450393334960  0.2350620672740078
  0.4166620855042922  0.9990563759290936  0.2496949605607028
  0.2546313749896427  0.1852010492277145  0.4959891241811789
  0.0865969101600044  0.3281635088535850  0.7568098105846701
  0.4188459644054348  0.0039906730672428  0.7494402267098792
  0.2443338608458845  0.1525091016505868  0.9949126622323092
  0.0794271781288884  0.6589646107649472  0.2443513968258912
  0.4086139700148053  0.3549677667090663  0.2656084891880894
  0.2219037879205388  0.5147714166507527  0.5226071953287743
  0.0889211575698425  0.6805846447465029  0.7551938790954011
  0.7478722054366216  0.9849136798399059  0.2518264813458728
  0.5716601817425655  0.1464228683438265  0.4963826366090203
  0.4112635616128060  0.3545673653781449  0.7431245050436885
  0.2648841212279933  0.5027407547496949  0.0109917716259744
  0.7487636641429916  0.0015538739172669  0.7532914595762179
  0.5969521917874019  0.1694692123120163  0.9985545381532077
  0.4120846866683721  0.6605764291376346  0.2542423852323239
  0.2475267217999786  0.8289055384959738  0.5091689167016966
  0.7520535435107973  0.3263566060644791  0.2473350720199718
  0.5691933315061704  0.4923918577045683  0.4994103322880363
  0.4086569413288501  0.6675904670563924  0.7583723088907632
  0.2487560816434637  0.8261295469376577  0.0082683285467411
  0.9219150855578206  0.1870594230213598  0.5099037693374200
  0.7557208246579705  0.3321009351929831  0.7453617617784829
  0.5880746656577145  0.4988030292213708  0.9730507965620490
  0.9228150234514345  0.1655529787602887  0.9991805766482145
  0.7485993076211628  0.6661907125780857  0.2406232859990922
  0.5853905326264623  0.8291932816467238  0.5022523155386125
  0.9184863873341413  0.4883969380037954  0.4707978373291084
  0.7503228864105864  0.6821779900978271  0.7720435229265945
  0.5888350533918683  0.8289058008573207  0.9990814732593165
  0.9167149897048361  0.4997392835779877  0.9863151009433011
  0.9123571438708566  0.8349876536126999  0.4961653097634198
  0.9181828322730183  0.8364564078626557  0.0066060221795183
  0.0115699976283210  0.1662609423231700  0.1120920986439060
  0.0102697243731527  0.1790986338123020  0.6333836019924348
  0.9909223835529559  0.4997978598382815  0.1081545262785468
  0.3294044326102039  0.1490122269778098  0.1288159677242007
  0.1617251678943674  0.3433962257543826  0.3752723207786772
  0.0263739132756839  0.4943307656951177  0.6260619996234595
  0.3279414290934710  0.1550104317718564  0.6239168451931931
  0.1618319390489660  0.3232322489023431  0.8758624019038663
  0.9962793527398688  0.8347933755501771  0.1242432677589633
  0.3367431975260118  0.5013314561678541  0.1256524165699417
  0.1680058249407068  0.6445054313409742  0.3763761279236633
  0.9981980274916253  0.8349043470269493  0.6266731240044692
  0.6717746363327848  0.1686037931525490  0.1207850913334454
  0.4827661013589051  0.3515307422972000  0.3776538726501997
  0.3308106452371007  0.5093630611675337  0.6377506100787187
  0.1701879994139617  0.6805763606804192  0.8873824406271495
  0.6761953496992348  0.1533816376608357  0.6351951334480006
  0.5123169839627124  0.3542423894543774  0.8703902996503388
  0.3315494252183342  0.8281509255609762  0.1274115704491336
  0.1755821538098132  0.9936072850924802  0.3710841822575262
  0.6642233513125007  0.5034533294022410  0.1111059171420905
  0.4973163924768258  0.6685957403832532  0.3761865649094318
  0.3313068940371764  0.8269107263394346  0.6309067030342135
  0.1636645015803424  0.0003621973845469  0.8776544281464496
  0.8364194853204197  0.3290926730204973  0.3730782532211308
  0.6544864613428345  0.4841444030877042  0.6212999376912549
  0.5001864106273715  0.6674273006581757  0.8837866322668120
  0.8392338144333138  0.3375911033975783  0.8644058356826321
  0.6666883929314835  0.8259384619084997  0.1218260244899767
  0.4953812602972363  0.0007565698867964  0.3693757639537480
  0.8339295942666354  0.6670732183102714  0.3573742423440649
  0.6724632734341540  0.8316101643767908  0.6281368086197290
  0.5040369450130981  0.0029816519297086  0.8743359027501754
  0.8310797727797876  0.6733169860007138  0.8810820399553165
  0.8263389289360745  0.9753507695972843  0.3774037383312390
  0.8386060986180439  0.0026845020465416  0.8796464325841598
  0.0155538348337245  0.0793290704930314  0.2250547201193029
  0.0057780431318832  0.0835244902463685  0.7585052738756062
  0.9982117523259717  0.4157686990281277  0.2410239780411345
  0.3321706226294694  0.0718356255629899  0.2521009651873243
  0.1836606352155812  0.2407946476691976  0.5065192688088089
  0.0092158637146440  0.4165766679670000  0.7559074956875094
  0.3286104737268545  0.0837905722860270  0.7366834422466439
  0.1595876087742241  0.2455048839736946  0.9895163004313687
  0.9934154726703142  0.7446254194998403  0.2410786508650986
  0.3321544712038644  0.4281531578029814  0.2531858878540305
  0.1639831740637661  0.5863200427268040  0.5497188522131964
  0.0075802891730916  0.7573677372860956  0.7562982398233444
  0.6622538438864112  0.0776439293075271  0.2439458894357571
  0.4493190780008760  0.2498836607580657  0.4948878380944706
  0.3372058954598103  0.4210662555234208  0.7588122980285021
  0.1701331152116765  0.5941901046581748  0.9956450582371161
  0.6726540968316002  0.0830377475545916  0.7590575929586763
  0.5280278809048227  0.2615740969294578  0.9946599043255162
  0.3350278701495810  0.7446030601706610  0.2479606207339273
  0.1660754060783276  0.9170550961297437  0.5044090385030486
  0.6629677543831534  0.4117853826657338  0.2428064599422370
  0.4915093170922873  0.5853594693050042  0.4876743058802191
  0.3256826027635782  0.7511125442258688  0.7627009505211575
  0.1625123441279257  0.9130509208860289  0.0083827674190999
  0.8243715998888064  0.2452867009325317  0.5046524212958730
  0.6594224257497245  0.4180928077134567  0.7461076105187985
  0.5005663321791545  0.5890694484773107  0.9944512640298839
  0.8348792639469380  0.2460752379283946  0.0017752531163993
  0.6661336042189490  0.7459618141401236  0.2490552582573287
  0.4986254625039948  0.9134293663316413  0.4957511917503155
  0.8338610627579044  0.5774577579279736  0.4598562829547035
  0.6661829649511901  0.7534583601935694  0.7616457031771162
  0.5024294619405154  0.9141937547262415  0.0053686774556212
  0.8311905143145779  0.5879883085353157  0.9858827605011342
  0.8305029268583297  0.9146749481740457  0.5105209691075103
  0.8410950698844033  0.9151353176842747  0.0077912021174242
 
  0.00000000E+00  0.00000000E+00  0.00000000E+00
  0.00000000E+00  0.00000000E+00  0.00000000E+00
  0.00000000E+00  0.00000000E+00  0.00000000E+00
  0.00000000E+00  0.00000000E+00  0.00000000E+00
  0.00000000E+00  0.00000000E+00  0.00000000E+00
  0.00000000E+00  0.00000000E+00  0.00000000E+00
  0.00000000E+00  0.00000000E+00  0.00000000E+00
  0.00000000E+00  0.00000000E+00  0.00000000E+00
  0.00000000E+00  0.00000000E+00  0.00000000E+00
  0.00000000E+00  0.00000000E+00  0.00000000E+00
  0.00000000E+00  0.00000000E+00  0.00000000E+00
  0.00000000E+00  0.00000000E+00  0.00000000E+00
  0.00000000E+00  0.00000000E+00  0.00000000E+00
  0.00000000E+00  0.00000000E+00  0.00000000E+00
  0.00000000E+00  0.00000000E+00  0.00000000E+00
  0.00000000E+00  0.00000000E+00  0.00000000E+00
  0.00000000E+00  0.00000000E+00  0.00000000E+00
  0.00000000E+00  0.00000000E+00  0.00000000E+00
  0.00000000E+00  0.00000000E+00  0.00000000E+00
  0.00000000E+00  0.00000000E+00  0.00000000E+00
  0.00000000E+00  0.00000000E+00  0.00000000E+00
  0.00000000E+00  0.00000000E+00  0.00000000E+00
  0.00000000E+00  0.00000000E+00  0.00000000E+00
  0.00000000E+00  0.00000000E+00  0.00000000E+00
  0.00000000E+00  0.00000000E+00  0.00000000E+00
  0.00000000E+00  0.00000000E+00  0.00000000E+00
  0.00000000E+00  0.00000000E+00  0.00000000E+00
  0.00000000E+00  0.00000000E+00  0.00000000E+00
  0.00000000E+00  0.00000000E+00  0.00000000E+00
  0.00000000E+00  0.00000000E+00  0.00000000E+00
  0.00000000E+00  0.00000000E+00  0.00000000E+00
  0.00000000E+00  0.00000000E+00  0.00000000E+00
  0.00000000E+00  0.00000000E+00  0.00000000E+00
  0.00000000E+00  0.00000000E+00  0.00000000E+00
  0.00000000E+00  0.00000000E+00  0.00000000E+00
  0.00000000E+00  0.00000000E+00  0.00000000E+00
  0.00000000E+00  0.00000000E+00  0.00000000E+00
  0.00000000E+00  0.00000000E+00  0.00000000E+00
  0.00000000E+00  0.00000000E+00  0.00000000E+00
  0.00000000E+00  0.00000000E+00  0.00000000E+00
  0.00000000E+00  0.00000000E+00  0.00000000E+00
  0.00000000E+00  0.00000000E+00  0.00000000E+00
  0.00000000E+00  0.00000000E+00  0.00000000E+00
  0.00000000E+00  0.00000000E+00  0.00000000E+00
  0.00000000E+00  0.00000000E+00  0.00000000E+00
  0.00000000E+00  0.00000000E+00  0.00000000E+00
  0.00000000E+00  0.00000000E+00  0.00000000E+00
  0.00000000E+00  0.00000000E+00  0.00000000E+00
  0.00000000E+00  0.00000000E+00  0.00000000E+00
  0.00000000E+00  0.00000000E+00  0.00000000E+00
  0.00000000E+00  0.00000000E+00  0.00000000E+00
  0.00000000E+00  0.00000000E+00  0.00000000E+00
  0.00000000E+00  0.00000000E+00  0.00000000E+00
  0.00000000E+00  0.00000000E+00  0.00000000E+00
  0.00000000E+00  0.00000000E+00  0.00000000E+00
  0.00000000E+00  0.00000000E+00  0.00000000E+00
  0.00000000E+00  0.00000000E+00  0.00000000E+00
  0.00000000E+00  0.00000000E+00  0.00000000E+00
  0.00000000E+00  0.00000000E+00  0.00000000E+00
  0.00000000E+00  0.00000000E+00  0.00000000E+00
  0.00000000E+00  0.00000000E+00  0.00000000E+00
  0.00000000E+00  0.00000000E+00  0.00000000E+00
  0.00000000E+00  0.00000000E+00  0.00000000E+00
  0.00000000E+00  0.00000000E+00  0.00000000E+00
  0.00000000E+00  0.00000000E+00  0.00000000E+00
  0.00000000E+00  0.00000000E+00  0.00000000E+00
  0.00000000E+00  0.00000000E+00  0.00000000E+00
  0.00000000E+00  0.00000000E+00  0.00000000E+00
  0.00000000E+00  0.00000000E+00  0.00000000E+00
  0.00000000E+00  0.00000000E+00  0.00000000E+00
  0.00000000E+00  0.00000000E+00  0.00000000E+00
  0.00000000E+00  0.00000000E+00  0.00000000E+00
  0.00000000E+00  0.00000000E+00  0.00000000E+00
  0.00000000E+00  0.00000000E+00  0.00000000E+00
  0.00000000E+00  0.00000000E+00  0.00000000E+00
  0.00000000E+00  0.00000000E+00  0.00000000E+00
  0.00000000E+00  0.00000000E+00  0.00000000E+00
  0.00000000E+00  0.00000000E+00  0.00000000E+00
  0.00000000E+00  0.00000000E+00  0.00000000E+00
  0.00000000E+00  0.00000000E+00  0.00000000E+00
  0.00000000E+00  0.00000000E+00  0.00000000E+00
  0.00000000E+00  0.00000000E+00  0.00000000E+00
  0.00000000E+00  0.00000000E+00  0.00000000E+00
  0.00000000E+00  0.00000000E+00  0.00000000E+00
  0.00000000E+00  0.00000000E+00  0.00000000E+00
  0.00000000E+00  0.00000000E+00  0.00000000E+00
  0.00000000E+00  0.00000000E+00  0.00000000E+00
  0.00000000E+00  0.00000000E+00  0.00000000E+00
  0.00000000E+00  0.00000000E+00  0.00000000E+00
  0.00000000E+00  0.00000000E+00  0.00000000E+00
  0.00000000E+00  0.00000000E+00  0.00000000E+00
  0.00000000E+00  0.00000000E+00  0.00000000E+00
  0.00000000E+00  0.00000000E+00  0.00000000E+00
  0.00000000E+00  0.00000000E+00  0.00000000E+00
  0.00000000E+00  0.00000000E+00  0.00000000E+00
  0.00000000E+00  0.00000000E+00  0.00000000E+00
  0.00000000E+00  0.00000000E+00  0.00000000E+00
  0.00000000E+00  0.00000000E+00  0.00000000E+00
  0.00000000E+00  0.00000000E+00  0.00000000E+00
  0.00000000E+00  0.00000000E+00  0.00000000E+00
  0.00000000E+00  0.00000000E+00  0.00000000E+00
  0.00000000E+00  0.00000000E+00  0.00000000E+00
  0.00000000E+00  0.00000000E+00  0.00000000E+00
  0.00000000E+00  0.00000000E+00  0.00000000E+00
  0.00000000E+00  0.00000000E+00  0.00000000E+00
  0.00000000E+00  0.00000000E+00  0.00000000E+00
  0.00000000E+00  0.00000000E+00  0.00000000E+00
  0.00000000E+00  0.00000000E+00  0.00000000E+00
  0.00000000E+00  0.00000000E+00  0.00000000E+00
  0.00000000E+00  0.00000000E+00  0.00000000E+00
  0.00000000E+00  0.00000000E+00  0.00000000E+00
  0.00000000E+00  0.00000000E+00  0.00000000E+00
  0.00000000E+00  0.00000000E+00  0.00000000E+00
  0.00000000E+00  0.00000000E+00  0.00000000E+00
  0.00000000E+00  0.00000000E+00  0.00000000E+00
  0.00000000E+00  0.00000000E+00  0.00000000E+00
  0.00000000E+00  0.00000000E+00  0.00000000E+00
  0.00000000E+00  0.00000000E+00  0.00000000E+00
  0.00000000E+00  0.00000000E+00  0.00000000E+00
  0.00000000E+00  0.00000000E+00  0.00000000E+00
  0.00000000E+00  0.00000000E+00  0.00000000E+00
  0.00000000E+00  0.00000000E+00  0.00000000E+00
  0.00000000E+00  0.00000000E+00  0.00000000E+00
  0.00000000E+00  0.00000000E+00  0.00000000E+00
  0.00000000E+00  0.00000000E+00  0.00000000E+00
  0.00000000E+00  0.00000000E+00  0.00000000E+00
  0.00000000E+00  0.00000000E+00  0.00000000E+00
  0.00000000E+00  0.00000000E+00  0.00000000E+00
  0.00000000E+00  0.00000000E+00  0.00000000E+00
  0.00000000E+00  0.00000000E+00  0.00000000E+00
  0.00000000E+00  0.00000000E+00  0.00000000E+00
  0.00000000E+00  0.00000000E+00  0.00000000E+00
  0.00000000E+00  0.00000000E+00  0.00000000E+00
  0.00000000E+00  0.00000000E+00  0.00000000E+00
  0.00000000E+00  0.00000000E+00  0.00000000E+00
  0.00000000E+00  0.00000000E+00  0.00000000E+00
  0.00000000E+00  0.00000000E+00  0.00000000E+00
  0.00000000E+00  0.00000000E+00  0.00000000E+00
  0.00000000E+00  0.00000000E+00  0.00000000E+00
  0.00000000E+00  0.00000000E+00  0.00000000E+00
  0.00000000E+00  0.00000000E+00  0.00000000E+00
  0.00000000E+00  0.00000000E+00  0.00000000E+00
  0.00000000E+00  0.00000000E+00  0.00000000E+00
  0.00000000E+00  0.00000000E+00  0.00000000E+00
  0.00000000E+00  0.00000000E+00  0.00000000E+00
  0.00000000E+00  0.00000000E+00  0.00000000E+00
  0.00000000E+00  0.00000000E+00  0.00000000E+00
  0.00000000E+00  0.00000000E+00  0.00000000E+00
  0.00000000E+00  0.00000000E+00  0.00000000E+00
  0.00000000E+00  0.00000000E+00  0.00000000E+00
  0.00000000E+00  0.00000000E+00  0.00000000E+00
  0.00000000E+00  0.00000000E+00  0.00000000E+00
  0.00000000E+00  0.00000000E+00  0.00000000E+00
  0.00000000E+00  0.00000000E+00  0.00000000E+00
  0.00000000E+00  0.00000000E+00  0.00000000E+00
  0.00000000E+00  0.00000000E+00  0.00000000E+00
  0.00000000E+00  0.00000000E+00  0.00000000E+00
  0.00000000E+00  0.00000000E+00  0.00000000E+00
  0.00000000E+00  0.00000000E+00  0.00000000E+00
  0.00000000E+00  0.00000000E+00  0.00000000E+00
  0.00000000E+00  0.00000000E+00  0.00000000E+00
  0.00000000E+00  0.00000000E+00  0.00000000E+00
  0.00000000E+00  0.00000000E+00  0.00000000E+00
  0.00000000E+00  0.00000000E+00  0.00000000E+00
  0.00000000E+00  0.00000000E+00  0.00000000E+00
  0.00000000E+00  0.00000000E+00  0.00000000E+00
  0.00000000E+00  0.00000000E+00  0.00000000E+00
  0.00000000E+00  0.00000000E+00  0.00000000E+00
  0.00000000E+00  0.00000000E+00  0.00000000E+00
  0.00000000E+00  0.00000000E+00  0.00000000E+00
  0.00000000E+00  0.00000000E+00  0.00000000E+00
  0.00000000E+00  0.00000000E+00  0.00000000E+00
  0.00000000E+00  0.00000000E+00  0.00000000E+00
  0.00000000E+00  0.00000000E+00  0.00000000E+00
  0.00000000E+00  0.00000000E+00  0.00000000E+00
  0.00000000E+00  0.00000000E+00  0.00000000E+00
  0.00000000E+00  0.00000000E+00  0.00000000E+00
  0.00000000E+00  0.00000000E+00  0.00000000E+00
  0.00000000E+00  0.00000000E+00  0.00000000E+00
  0.00000000E+00  0.00000000E+00  0.00000000E+00
  0.00000000E+00  0.00000000E+00  0.00000000E+00
  0.00000000E+00  0.00000000E+00  0.00000000E+00
  0.00000000E+00  0.00000000E+00  0.00000000E+00
  0.00000000E+00  0.00000000E+00  0.00000000E+00
  0.00000000E+00  0.00000000E+00  0.00000000E+00
  0.00000000E+00  0.00000000E+00  0.00000000E+00
  0.00000000E+00  0.00000000E+00  0.00000000E+00
  0.00000000E+00  0.00000000E+00  0.00000000E+00
  0.00000000E+00  0.00000000E+00  0.00000000E+00
  0.00000000E+00  0.00000000E+00  0.00000000E+00
  0.00000000E+00  0.00000000E+00  0.00000000E+00
  0.00000000E+00  0.00000000E+00  0.00000000E+00
  0.00000000E+00  0.00000000E+00  0.00000000E+00
  0.00000000E+00  0.00000000E+00  0.00000000E+00
  0.00000000E+00  0.00000000E+00  0.00000000E+00
  0.00000000E+00  0.00000000E+00  0.00000000E+00
  0.00000000E+00  0.00000000E+00  0.00000000E+00
  0.00000000E+00  0.00000000E+00  0.00000000E+00
  0.00000000E+00  0.00000000E+00  0.00000000E+00
  0.00000000E+00  0.00000000E+00  0.00000000E+00
  0.00000000E+00  0.00000000E+00  0.00000000E+00
  0.00000000E+00  0.00000000E+00  0.00000000E+00
  0.00000000E+00  0.00000000E+00  0.00000000E+00
  0.00000000E+00  0.00000000E+00  0.00000000E+00
  0.00000000E+00  0.00000000E+00  0.00000000E+00
  0.00000000E+00  0.00000000E+00  0.00000000E+00
  0.00000000E+00  0.00000000E+00  0.00000000E+00
  0.00000000E+00  0.00000000E+00  0.00000000E+00
  0.00000000E+00  0.00000000E+00  0.00000000E+00
  0.00000000E+00  0.00000000E+00  0.00000000E+00
  0.00000000E+00  0.00000000E+00  0.00000000E+00
  0.00000000E+00  0.00000000E+00  0.00000000E+00
  0.00000000E+00  0.00000000E+00  0.00000000E+00
  0.00000000E+00  0.00000000E+00  0.00000000E+00
  0.00000000E+00  0.00000000E+00  0.00000000E+00
  0.00000000E+00  0.00000000E+00  0.00000000E+00
  0.00000000E+00  0.00000000E+00  0.00000000E+00
  0.00000000E+00  0.00000000E+00  0.00000000E+00
  0.00000000E+00  0.00000000E+00  0.00000000E+00
  0.00000000E+00  0.00000000E+00  0.00000000E+00
  0.00000000E+00  0.00000000E+00  0.00000000E+00
  0.00000000E+00  0.00000000E+00  0.00000000E+00
  0.00000000E+00  0.00000000E+00  0.00000000E+00
  0.00000000E+00  0.00000000E+00  0.00000000E+00
  0.00000000E+00  0.00000000E+00  0.00000000E+00
  0.00000000E+00  0.00000000E+00  0.00000000E+00
  0.00000000E+00  0.00000000E+00  0.00000000E+00
  0.00000000E+00  0.00000000E+00  0.00000000E+00
  0.00000000E+00  0.00000000E+00  0.00000000E+00
  0.00000000E+00  0.00000000E+00  0.00000000E+00
  0.00000000E+00  0.00000000E+00  0.00000000E+00
  0.00000000E+00  0.00000000E+00  0.00000000E+00
  0.00000000E+00  0.00000000E+00  0.00000000E+00
  0.00000000E+00  0.00000000E+00  0.00000000E+00
  0.00000000E+00  0.00000000E+00  0.00000000E+00
  0.00000000E+00  0.00000000E+00  0.00000000E+00
  0.00000000E+00  0.00000000E+00  0.00000000E+00
  0.00000000E+00  0.00000000E+00  0.00000000E+00
  0.00000000E+00  0.00000000E+00  0.00000000E+00
  0.00000000E+00  0.00000000E+00  0.00000000E+00
  0.00000000E+00  0.00000000E+00  0.00000000E+00
  0.00000000E+00  0.00000000E+00  0.00000000E+00
  0.00000000E+00  0.00000000E+00  0.00000000E+00
  0.00000000E+00  0.00000000E+00  0.00000000E+00
  0.00000000E+00  0.00000000E+00  0.00000000E+00
  0.00000000E+00  0.00000000E+00  0.00000000E+00
  0.00000000E+00  0.00000000E+00  0.00000000E+00
  0.00000000E+00  0.00000000E+00  0.00000000E+00
  0.00000000E+00  0.00000000E+00  0.00000000E+00
  0.00000000E+00  0.00000000E+00  0.00000000E+00
  0.00000000E+00  0.00000000E+00  0.00000000E+00
  0.00000000E+00  0.00000000E+00  0.00000000E+00
