generated by phonopy                    
   1.00000000000000     
     0.0000000000000000    3.3113748260170084    3.3113748260170985
     3.3113748260170457    0.0000000000000000    3.3113748260170985
     3.3113748260170457    3.3113748260170084    0.0000000000000000
   Na   Hf   Sc   Y    H 
     1     1     1     1    24
Direct
  0.2500000000000000  0.2500000000000000  0.2500000000000000
  0.7500000000000000  0.7500000000000000  0.7500000000000000
  0.0000000000000000  0.0000000000000000  0.0000000000000000
  0.5000000000000000  0.5000000000000000  0.5000000000000000
  0.1320102994557573  0.8907463243485765  0.6187056497321208
  0.8907463243485765  0.1320102994557573  0.3585377264635454
  0.6187056497321208  0.3585377264635454  0.1320102994557573
  0.3585377264635454  0.6187056497321208  0.8907463243485765
  0.6187056497321208  0.1320102994557573  0.8907463243485765
  0.3585377264635454  0.8907463243485765  0.1320102994557573
  0.1320102994557573  0.6187056497321208  0.3585377264635454
  0.8907463243485765  0.3585377264635454  0.6187056497321208
  0.8907463243485765  0.6187056497321208  0.1320102994557573
  0.1320102994557573  0.3585377264635454  0.8907463243485765
  0.3585377264635454  0.1320102994557573  0.6187056497321208
  0.6187056497321208  0.8907463243485765  0.3585377264635454
  0.1320102994557573  0.3585377264635454  0.6187056497321208
  0.3585377264635454  0.1320102994557573  0.8907463243485765
  0.6187056497321208  0.8907463243485765  0.1320102994557573
  0.8907463243485765  0.6187056497321208  0.3585377264635454
  0.6187056497321208  0.1320102994557573  0.3585377264635454
  0.8907463243485765  0.3585377264635454  0.1320102994557573
  0.1320102994557573  0.6187056497321208  0.8907463243485765
  0.3585377264635454  0.8907463243485765  0.6187056497321208
  0.3585377264635454  0.6187056497321208  0.1320102994557573
  0.1320102994557573  0.8907463243485765  0.3585377264635454
  0.8907463243485765  0.1320102994557573  0.6187056497321208
  0.6187056497321208  0.3585377264635454  0.8907463243485765
 
  0.00000000E+00  0.00000000E+00  0.00000000E+00
  0.00000000E+00  0.00000000E+00  0.00000000E+00
  0.00000000E+00  0.00000000E+00  0.00000000E+00
  0.00000000E+00  0.00000000E+00  0.00000000E+00
  0.00000000E+00  0.00000000E+00  0.00000000E+00
  0.00000000E+00  0.00000000E+00  0.00000000E+00
  0.00000000E+00  0.00000000E+00  0.00000000E+00
  0.00000000E+00  0.00000000E+00  0.00000000E+00
  0.00000000E+00  0.00000000E+00  0.00000000E+00
  0.00000000E+00  0.00000000E+00  0.00000000E+00
  0.00000000E+00  0.00000000E+00  0.00000000E+00
  0.00000000E+00  0.00000000E+00  0.00000000E+00
  0.00000000E+00  0.00000000E+00  0.00000000E+00
  0.00000000E+00  0.00000000E+00  0.00000000E+00
  0.00000000E+00  0.00000000E+00  0.00000000E+00
  0.00000000E+00  0.00000000E+00  0.00000000E+00
  0.00000000E+00  0.00000000E+00  0.00000000E+00
  0.00000000E+00  0.00000000E+00  0.00000000E+00
  0.00000000E+00  0.00000000E+00  0.00000000E+00
  0.00000000E+00  0.00000000E+00  0.00000000E+00
  0.00000000E+00  0.00000000E+00  0.00000000E+00
  0.00000000E+00  0.00000000E+00  0.00000000E+00
  0.00000000E+00  0.00000000E+00  0.00000000E+00
  0.00000000E+00  0.00000000E+00  0.00000000E+00
  0.00000000E+00  0.00000000E+00  0.00000000E+00
  0.00000000E+00  0.00000000E+00  0.00000000E+00
  0.00000000E+00  0.00000000E+00  0.00000000E+00
  0.00000000E+00  0.00000000E+00  0.00000000E+00
