generated by phonopy                    
   1.00000000000000     
     0.0000000000000000    3.2857469944889974    3.2857469944890494
     3.2857469944890179    0.0000000000000000    3.2857469944890494
     3.2857469944890179    3.2857469944889974    0.0000000000000000
   Na   Hf   K    Sc   H 
     1     1     1     1    24
Direct
  0.2500000000000000  0.2500000000000000  0.2500000000000000
  0.7500000000000000  0.7500000000000000  0.7500000000000000
  0.0000000000000000  0.0000000000000000  0.0000000000000000
  0.5000000000000000  0.5000000000000000  0.5000000000000000
  0.1410122986799465  0.8843728579019938  0.6137591654538355
  0.8843728579019938  0.1410122986799465  0.3608556779642242
  0.6137591654538355  0.3608556779642242  0.1410122986799465
  0.3608556779642242  0.6137591654538355  0.8843728579019938
  0.6137591654538355  0.1410122986799465  0.8843728579019938
  0.3608556779642242  0.8843728579019938  0.1410122986799465
  0.1410122986799465  0.6137591654538355  0.3608556779642242
  0.8843728579019938  0.3608556779642242  0.6137591654538355
  0.8843728579019938  0.6137591654538355  0.1410122986799465
  0.1410122986799465  0.3608556779642242  0.8843728579019938
  0.3608556779642242  0.1410122986799465  0.6137591654538355
  0.6137591654538355  0.8843728579019938  0.3608556779642242
  0.1410122986799465  0.3608556779642242  0.6137591654538355
  0.3608556779642242  0.1410122986799465  0.8843728579019938
  0.6137591654538355  0.8843728579019938  0.1410122986799465
  0.8843728579019938  0.6137591654538355  0.3608556779642242
  0.6137591654538355  0.1410122986799465  0.3608556779642242
  0.8843728579019938  0.3608556779642242  0.1410122986799465
  0.1410122986799465  0.6137591654538355  0.8843728579019938
  0.3608556779642242  0.8843728579019938  0.6137591654538355
  0.3608556779642242  0.6137591654538355  0.1410122986799465
  0.1410122986799465  0.8843728579019938  0.3608556779642242
  0.8843728579019938  0.1410122986799465  0.6137591654538355
  0.6137591654538355  0.3608556779642242  0.8843728579019938
 
  0.00000000E+00  0.00000000E+00  0.00000000E+00
  0.00000000E+00  0.00000000E+00  0.00000000E+00
  0.00000000E+00  0.00000000E+00  0.00000000E+00
  0.00000000E+00  0.00000000E+00  0.00000000E+00
  0.00000000E+00  0.00000000E+00  0.00000000E+00
  0.00000000E+00  0.00000000E+00  0.00000000E+00
  0.00000000E+00  0.00000000E+00  0.00000000E+00
  0.00000000E+00  0.00000000E+00  0.00000000E+00
  0.00000000E+00  0.00000000E+00  0.00000000E+00
  0.00000000E+00  0.00000000E+00  0.00000000E+00
  0.00000000E+00  0.00000000E+00  0.00000000E+00
  0.00000000E+00  0.00000000E+00  0.00000000E+00
  0.00000000E+00  0.00000000E+00  0.00000000E+00
  0.00000000E+00  0.00000000E+00  0.00000000E+00
  0.00000000E+00  0.00000000E+00  0.00000000E+00
  0.00000000E+00  0.00000000E+00  0.00000000E+00
  0.00000000E+00  0.00000000E+00  0.00000000E+00
  0.00000000E+00  0.00000000E+00  0.00000000E+00
  0.00000000E+00  0.00000000E+00  0.00000000E+00
  0.00000000E+00  0.00000000E+00  0.00000000E+00
  0.00000000E+00  0.00000000E+00  0.00000000E+00
  0.00000000E+00  0.00000000E+00  0.00000000E+00
  0.00000000E+00  0.00000000E+00  0.00000000E+00
  0.00000000E+00  0.00000000E+00  0.00000000E+00
  0.00000000E+00  0.00000000E+00  0.00000000E+00
  0.00000000E+00  0.00000000E+00  0.00000000E+00
  0.00000000E+00  0.00000000E+00  0.00000000E+00
  0.00000000E+00  0.00000000E+00  0.00000000E+00
