generated by phonopy                    
   1.00000000000000     
     0.0000000000000000    3.2924759862417647    3.2924759862418589
     3.2924759862418025    0.0000000000000000    3.2924759862418589
     3.2924759862418025    3.2924759862417647    0.0000000000000000
   Na   Y    Ca   Sc   H 
     1     1     1     1    24
Direct
  0.2500000000000000  0.2500000000000000  0.2500000000000000
  0.7500000000000000  0.7500000000000000  0.7500000000000000
  0.0000000000000000  0.0000000000000000  0.0000000000000000
  0.5000000000000000  0.5000000000000000  0.5000000000000000
  0.1366442645594930  0.8881116325423548  0.6119719861960391
  0.8881116325423548  0.1366442645594930  0.3632721167021131
  0.6119719861960391  0.3632721167021131  0.1366442645594930
  0.3632721167021131  0.6119719861960391  0.8881116325423548
  0.6119719861960391  0.1366442645594930  0.8881116325423548
  0.3632721167021131  0.8881116325423548  0.1366442645594930
  0.1366442645594930  0.6119719861960391  0.3632721167021131
  0.8881116325423548  0.3632721167021131  0.6119719861960391
  0.8881116325423548  0.6119719861960391  0.1366442645594930
  0.1366442645594930  0.3632721167021131  0.8881116325423548
  0.3632721167021131  0.1366442645594930  0.6119719861960391
  0.6119719861960391  0.8881116325423548  0.3632721167021131
  0.1366442645594930  0.3632721167021131  0.6119719861960391
  0.3632721167021131  0.1366442645594930  0.8881116325423548
  0.6119719861960391  0.8881116325423548  0.1366442645594930
  0.8881116325423548  0.6119719861960391  0.3632721167021131
  0.6119719861960391  0.1366442645594930  0.3632721167021131
  0.8881116325423548  0.3632721167021131  0.1366442645594930
  0.1366442645594930  0.6119719861960391  0.8881116325423548
  0.3632721167021131  0.8881116325423548  0.6119719861960391
  0.3632721167021131  0.6119719861960391  0.1366442645594930
  0.1366442645594930  0.8881116325423548  0.3632721167021131
  0.8881116325423548  0.1366442645594930  0.6119719861960391
  0.6119719861960391  0.3632721167021131  0.8881116325423548
 
  0.00000000E+00  0.00000000E+00  0.00000000E+00
  0.00000000E+00  0.00000000E+00  0.00000000E+00
  0.00000000E+00  0.00000000E+00  0.00000000E+00
  0.00000000E+00  0.00000000E+00  0.00000000E+00
  0.00000000E+00  0.00000000E+00  0.00000000E+00
  0.00000000E+00  0.00000000E+00  0.00000000E+00
  0.00000000E+00  0.00000000E+00  0.00000000E+00
  0.00000000E+00  0.00000000E+00  0.00000000E+00
  0.00000000E+00  0.00000000E+00  0.00000000E+00
  0.00000000E+00  0.00000000E+00  0.00000000E+00
  0.00000000E+00  0.00000000E+00  0.00000000E+00
  0.00000000E+00  0.00000000E+00  0.00000000E+00
  0.00000000E+00  0.00000000E+00  0.00000000E+00
  0.00000000E+00  0.00000000E+00  0.00000000E+00
  0.00000000E+00  0.00000000E+00  0.00000000E+00
  0.00000000E+00  0.00000000E+00  0.00000000E+00
  0.00000000E+00  0.00000000E+00  0.00000000E+00
  0.00000000E+00  0.00000000E+00  0.00000000E+00
  0.00000000E+00  0.00000000E+00  0.00000000E+00
  0.00000000E+00  0.00000000E+00  0.00000000E+00
  0.00000000E+00  0.00000000E+00  0.00000000E+00
  0.00000000E+00  0.00000000E+00  0.00000000E+00
  0.00000000E+00  0.00000000E+00  0.00000000E+00
  0.00000000E+00  0.00000000E+00  0.00000000E+00
  0.00000000E+00  0.00000000E+00  0.00000000E+00
  0.00000000E+00  0.00000000E+00  0.00000000E+00
  0.00000000E+00  0.00000000E+00  0.00000000E+00
  0.00000000E+00  0.00000000E+00  0.00000000E+00
