generated by phonopy                    
   1.00000000000000     
     0.0000000000000000    3.2927670368573021    3.2927670368573643
     3.2927670368573265    0.0000000000000000    3.2927670368573643
     3.2927670368573265    3.2927670368573021    0.0000000000000000
   K    Hf   Sc   Y    H 
     1     1     1     1    24
Direct
  0.2500000000000000  0.2500000000000000  0.2500000000000000
  0.7500000000000000  0.7500000000000000  0.7500000000000000
  0.0000000000000000  0.0000000000000000  0.0000000000000000
  0.5000000000000000  0.5000000000000000  0.5000000000000000
  0.1242104447771908  0.8849718941867266  0.6267077450160201
  0.8849718941867266  0.1242104447771908  0.3641099160200554
  0.6267077450160201  0.3641099160200554  0.1242104447771908
  0.3641099160200554  0.6267077450160201  0.8849718941867266
  0.6267077450160201  0.1242104447771908  0.8849718941867266
  0.3641099160200554  0.8849718941867266  0.1242104447771908
  0.1242104447771908  0.6267077450160201  0.3641099160200554
  0.8849718941867266  0.3641099160200554  0.6267077450160201
  0.8849718941867266  0.6267077450160201  0.1242104447771908
  0.1242104447771908  0.3641099160200554  0.8849718941867266
  0.3641099160200554  0.1242104447771908  0.6267077450160201
  0.6267077450160201  0.8849718941867266  0.3641099160200554
  0.1242104447771908  0.3641099160200554  0.6267077450160201
  0.3641099160200554  0.1242104447771908  0.8849718941867266
  0.6267077450160201  0.8849718941867266  0.1242104447771908
  0.8849718941867266  0.6267077450160201  0.3641099160200554
  0.6267077450160201  0.1242104447771908  0.3641099160200554
  0.8849718941867266  0.3641099160200554  0.1242104447771908
  0.1242104447771908  0.6267077450160201  0.8849718941867266
  0.3641099160200554  0.8849718941867266  0.6267077450160201
  0.3641099160200554  0.6267077450160201  0.1242104447771908
  0.1242104447771908  0.8849718941867266  0.3641099160200554
  0.8849718941867266  0.1242104447771908  0.6267077450160201
  0.6267077450160201  0.3641099160200554  0.8849718941867266
 
  0.00000000E+00  0.00000000E+00  0.00000000E+00
  0.00000000E+00  0.00000000E+00  0.00000000E+00
  0.00000000E+00  0.00000000E+00  0.00000000E+00
  0.00000000E+00  0.00000000E+00  0.00000000E+00
  0.00000000E+00  0.00000000E+00  0.00000000E+00
  0.00000000E+00  0.00000000E+00  0.00000000E+00
  0.00000000E+00  0.00000000E+00  0.00000000E+00
  0.00000000E+00  0.00000000E+00  0.00000000E+00
  0.00000000E+00  0.00000000E+00  0.00000000E+00
  0.00000000E+00  0.00000000E+00  0.00000000E+00
  0.00000000E+00  0.00000000E+00  0.00000000E+00
  0.00000000E+00  0.00000000E+00  0.00000000E+00
  0.00000000E+00  0.00000000E+00  0.00000000E+00
  0.00000000E+00  0.00000000E+00  0.00000000E+00
  0.00000000E+00  0.00000000E+00  0.00000000E+00
  0.00000000E+00  0.00000000E+00  0.00000000E+00
  0.00000000E+00  0.00000000E+00  0.00000000E+00
  0.00000000E+00  0.00000000E+00  0.00000000E+00
  0.00000000E+00  0.00000000E+00  0.00000000E+00
  0.00000000E+00  0.00000000E+00  0.00000000E+00
  0.00000000E+00  0.00000000E+00  0.00000000E+00
  0.00000000E+00  0.00000000E+00  0.00000000E+00
  0.00000000E+00  0.00000000E+00  0.00000000E+00
  0.00000000E+00  0.00000000E+00  0.00000000E+00
  0.00000000E+00  0.00000000E+00  0.00000000E+00
  0.00000000E+00  0.00000000E+00  0.00000000E+00
  0.00000000E+00  0.00000000E+00  0.00000000E+00
  0.00000000E+00  0.00000000E+00  0.00000000E+00
