generated by phonopy                    
   1.00000000000000     
     0.0000000000000000    3.2393197246057253    3.2393197246057834
     3.2393197246057492    0.0000000000000000    3.2393197246057834
     3.2393197246057492    3.2393197246057253    0.0000000000000000
   Na   Zr   Sc   Hf   H 
     1     1     1     1    24
Direct
  0.2500000000000000  0.2500000000000000  0.2500000000000000
  0.7500000000000000  0.7500000000000000  0.7500000000000000
  0.0000000000000000  0.0000000000000000  0.0000000000000000
  0.5000000000000000  0.5000000000000000  0.5000000000000000
  0.1270944660273443  0.8936211037904869  0.6173726773890564
  0.8936211037904869  0.1270944660273443  0.3619117527931124
  0.6173726773890564  0.3619117527931124  0.1270944660273443
  0.3619117527931124  0.6173726773890564  0.8936211037904869
  0.6173726773890564  0.1270944660273443  0.8936211037904869
  0.3619117527931124  0.8936211037904869  0.1270944660273443
  0.1270944660273443  0.6173726773890564  0.3619117527931124
  0.8936211037904869  0.3619117527931124  0.6173726773890564
  0.8936211037904869  0.6173726773890564  0.1270944660273443
  0.1270944660273443  0.3619117527931124  0.8936211037904869
  0.3619117527931124  0.1270944660273443  0.6173726773890564
  0.6173726773890564  0.8936211037904869  0.3619117527931124
  0.1270944660273443  0.3619117527931124  0.6173726773890564
  0.3619117527931124  0.1270944660273443  0.8936211037904869
  0.6173726773890564  0.8936211037904869  0.1270944660273443
  0.8936211037904869  0.6173726773890564  0.3619117527931124
  0.6173726773890564  0.1270944660273443  0.3619117527931124
  0.8936211037904869  0.3619117527931124  0.1270944660273443
  0.1270944660273443  0.6173726773890564  0.8936211037904869
  0.3619117527931124  0.8936211037904869  0.6173726773890564
  0.3619117527931124  0.6173726773890564  0.1270944660273443
  0.1270944660273443  0.8936211037904869  0.3619117527931124
  0.8936211037904869  0.1270944660273443  0.6173726773890564
  0.6173726773890564  0.3619117527931124  0.8936211037904869
 
  0.00000000E+00  0.00000000E+00  0.00000000E+00
  0.00000000E+00  0.00000000E+00  0.00000000E+00
  0.00000000E+00  0.00000000E+00  0.00000000E+00
  0.00000000E+00  0.00000000E+00  0.00000000E+00
  0.00000000E+00  0.00000000E+00  0.00000000E+00
  0.00000000E+00  0.00000000E+00  0.00000000E+00
  0.00000000E+00  0.00000000E+00  0.00000000E+00
  0.00000000E+00  0.00000000E+00  0.00000000E+00
  0.00000000E+00  0.00000000E+00  0.00000000E+00
  0.00000000E+00  0.00000000E+00  0.00000000E+00
  0.00000000E+00  0.00000000E+00  0.00000000E+00
  0.00000000E+00  0.00000000E+00  0.00000000E+00
  0.00000000E+00  0.00000000E+00  0.00000000E+00
  0.00000000E+00  0.00000000E+00  0.00000000E+00
  0.00000000E+00  0.00000000E+00  0.00000000E+00
  0.00000000E+00  0.00000000E+00  0.00000000E+00
  0.00000000E+00  0.00000000E+00  0.00000000E+00
  0.00000000E+00  0.00000000E+00  0.00000000E+00
  0.00000000E+00  0.00000000E+00  0.00000000E+00
  0.00000000E+00  0.00000000E+00  0.00000000E+00
  0.00000000E+00  0.00000000E+00  0.00000000E+00
  0.00000000E+00  0.00000000E+00  0.00000000E+00
  0.00000000E+00  0.00000000E+00  0.00000000E+00
  0.00000000E+00  0.00000000E+00  0.00000000E+00
  0.00000000E+00  0.00000000E+00  0.00000000E+00
  0.00000000E+00  0.00000000E+00  0.00000000E+00
  0.00000000E+00  0.00000000E+00  0.00000000E+00
  0.00000000E+00  0.00000000E+00  0.00000000E+00
