generated by phonopy                    
   1.00000000000000     
     0.0000000000000000    3.1780458794782542    3.1780458794783231
     3.1780458794782804    0.0000000000000000    3.1780458794783231
     3.1780458794782804    3.1780458794782542    0.0000000000000000
   Na   Sc   Mg   Zr   H 
     1     1     1     1    24
Direct
  0.2500000000000000  0.2500000000000000  0.2500000000000000
  0.7500000000000000  0.7500000000000000  0.7500000000000000
  0.0000000000000000  0.0000000000000000  0.0000000000000000
  0.5000000000000000  0.5000000000000000  0.5000000000000000
  0.1190368079321473  0.8935251184462203  0.6261341041401778
  0.8935251184462203  0.1190368079321473  0.3613039694814546
  0.6261341041401778  0.3613039694814546  0.1190368079321473
  0.3613039694814546  0.6261341041401778  0.8935251184462203
  0.6261341041401778  0.1190368079321473  0.8935251184462203
  0.3613039694814546  0.8935251184462203  0.1190368079321473
  0.1190368079321473  0.6261341041401778  0.3613039694814546
  0.8935251184462203  0.3613039694814546  0.6261341041401778
  0.8935251184462203  0.6261341041401778  0.1190368079321473
  0.1190368079321473  0.3613039694814546  0.8935251184462203
  0.3613039694814546  0.1190368079321473  0.6261341041401778
  0.6261341041401778  0.8935251184462203  0.3613039694814546
  0.1190368079321473  0.3613039694814546  0.6261341041401778
  0.3613039694814546  0.1190368079321473  0.8935251184462203
  0.6261341041401778  0.8935251184462203  0.1190368079321473
  0.8935251184462203  0.6261341041401778  0.3613039694814546
  0.6261341041401778  0.1190368079321473  0.3613039694814546
  0.8935251184462203  0.3613039694814546  0.1190368079321473
  0.1190368079321473  0.6261341041401778  0.8935251184462203
  0.3613039694814546  0.8935251184462203  0.6261341041401778
  0.3613039694814546  0.6261341041401778  0.1190368079321473
  0.1190368079321473  0.8935251184462203  0.3613039694814546
  0.8935251184462203  0.1190368079321473  0.6261341041401778
  0.6261341041401778  0.3613039694814546  0.8935251184462203
 
  0.00000000E+00  0.00000000E+00  0.00000000E+00
  0.00000000E+00  0.00000000E+00  0.00000000E+00
  0.00000000E+00  0.00000000E+00  0.00000000E+00
  0.00000000E+00  0.00000000E+00  0.00000000E+00
  0.00000000E+00  0.00000000E+00  0.00000000E+00
  0.00000000E+00  0.00000000E+00  0.00000000E+00
  0.00000000E+00  0.00000000E+00  0.00000000E+00
  0.00000000E+00  0.00000000E+00  0.00000000E+00
  0.00000000E+00  0.00000000E+00  0.00000000E+00
  0.00000000E+00  0.00000000E+00  0.00000000E+00
  0.00000000E+00  0.00000000E+00  0.00000000E+00
  0.00000000E+00  0.00000000E+00  0.00000000E+00
  0.00000000E+00  0.00000000E+00  0.00000000E+00
  0.00000000E+00  0.00000000E+00  0.00000000E+00
  0.00000000E+00  0.00000000E+00  0.00000000E+00
  0.00000000E+00  0.00000000E+00  0.00000000E+00
  0.00000000E+00  0.00000000E+00  0.00000000E+00
  0.00000000E+00  0.00000000E+00  0.00000000E+00
  0.00000000E+00  0.00000000E+00  0.00000000E+00
  0.00000000E+00  0.00000000E+00  0.00000000E+00
  0.00000000E+00  0.00000000E+00  0.00000000E+00
  0.00000000E+00  0.00000000E+00  0.00000000E+00
  0.00000000E+00  0.00000000E+00  0.00000000E+00
  0.00000000E+00  0.00000000E+00  0.00000000E+00
  0.00000000E+00  0.00000000E+00  0.00000000E+00
  0.00000000E+00  0.00000000E+00  0.00000000E+00
  0.00000000E+00  0.00000000E+00  0.00000000E+00
  0.00000000E+00  0.00000000E+00  0.00000000E+00
