generated by phonopy                    
   1.00000000000000     
     0.0000000000000000    3.1809364112659257    3.1809364112659964
     3.1809364112659533    0.0000000000000000    3.1809364112659964
     3.1809364112659533    3.1809364112659257    0.0000000000000000
   Na   Sc   Mg   Hf   H 
     1     1     1     1    24
Direct
  0.2500000000000000  0.2500000000000000  0.2500000000000000
  0.7500000000000000  0.7500000000000000  0.7500000000000000
  0.0000000000000000  0.0000000000000000  0.0000000000000000
  0.5000000000000000  0.5000000000000000  0.5000000000000000
  0.1175370123437887  0.8947362774938199  0.6259619311719788
  0.8947362774938199  0.1175370123437887  0.3617647789904126
  0.6259619311719788  0.3617647789904126  0.1175370123437887
  0.3617647789904126  0.6259619311719788  0.8947362774938199
  0.6259619311719788  0.1175370123437887  0.8947362774938199
  0.3617647789904126  0.8947362774938199  0.1175370123437887
  0.1175370123437887  0.6259619311719788  0.3617647789904126
  0.8947362774938199  0.3617647789904126  0.6259619311719788
  0.8947362774938199  0.6259619311719788  0.1175370123437887
  0.1175370123437887  0.3617647789904126  0.8947362774938199
  0.3617647789904126  0.1175370123437887  0.6259619311719788
  0.6259619311719788  0.8947362774938199  0.3617647789904126
  0.1175370123437887  0.3617647789904126  0.6259619311719788
  0.3617647789904126  0.1175370123437887  0.8947362774938199
  0.6259619311719788  0.8947362774938199  0.1175370123437887
  0.8947362774938199  0.6259619311719788  0.3617647789904126
  0.6259619311719788  0.1175370123437887  0.3617647789904126
  0.8947362774938199  0.3617647789904126  0.1175370123437887
  0.1175370123437887  0.6259619311719788  0.8947362774938199
  0.3617647789904126  0.8947362774938199  0.6259619311719788
  0.3617647789904126  0.6259619311719788  0.1175370123437887
  0.1175370123437887  0.8947362774938199  0.3617647789904126
  0.8947362774938199  0.1175370123437887  0.6259619311719788
  0.6259619311719788  0.3617647789904126  0.8947362774938199
 
  0.00000000E+00  0.00000000E+00  0.00000000E+00
  0.00000000E+00  0.00000000E+00  0.00000000E+00
  0.00000000E+00  0.00000000E+00  0.00000000E+00
  0.00000000E+00  0.00000000E+00  0.00000000E+00
  0.00000000E+00  0.00000000E+00  0.00000000E+00
  0.00000000E+00  0.00000000E+00  0.00000000E+00
  0.00000000E+00  0.00000000E+00  0.00000000E+00
  0.00000000E+00  0.00000000E+00  0.00000000E+00
  0.00000000E+00  0.00000000E+00  0.00000000E+00
  0.00000000E+00  0.00000000E+00  0.00000000E+00
  0.00000000E+00  0.00000000E+00  0.00000000E+00
  0.00000000E+00  0.00000000E+00  0.00000000E+00
  0.00000000E+00  0.00000000E+00  0.00000000E+00
  0.00000000E+00  0.00000000E+00  0.00000000E+00
  0.00000000E+00  0.00000000E+00  0.00000000E+00
  0.00000000E+00  0.00000000E+00  0.00000000E+00
  0.00000000E+00  0.00000000E+00  0.00000000E+00
  0.00000000E+00  0.00000000E+00  0.00000000E+00
  0.00000000E+00  0.00000000E+00  0.00000000E+00
  0.00000000E+00  0.00000000E+00  0.00000000E+00
  0.00000000E+00  0.00000000E+00  0.00000000E+00
  0.00000000E+00  0.00000000E+00  0.00000000E+00
  0.00000000E+00  0.00000000E+00  0.00000000E+00
  0.00000000E+00  0.00000000E+00  0.00000000E+00
  0.00000000E+00  0.00000000E+00  0.00000000E+00
  0.00000000E+00  0.00000000E+00  0.00000000E+00
  0.00000000E+00  0.00000000E+00  0.00000000E+00
  0.00000000E+00  0.00000000E+00  0.00000000E+00
