       N       E                     dE             d eps       ncg     rms          rms(c)
DAV:   1     0.115081646491E+05    0.11508E+05   -0.28933E+05148320   0.181E+03
DAV:   2     0.150591345838E+04   -0.10002E+05   -0.93882E+04203272   0.818E+02
DAV:   3    -0.324226166540E+03   -0.18301E+04   -0.16968E+04248032   0.366E+02
DAV:   4    -0.599531497705E+03   -0.27531E+03   -0.26102E+03278520   0.182E+02
DAV:   5    -0.632917709845E+03   -0.33386E+02   -0.31867E+02280744   0.771E+01
DAV:   6    -0.639335294765E+03   -0.64176E+01   -0.62440E+01280768   0.314E+01
DAV:   7    -0.640587351567E+03   -0.12521E+01   -0.12330E+01280752   0.159E+01
DAV:   8    -0.640828597696E+03   -0.24125E+00   -0.23903E+00280768   0.661E+00
DAV:   9    -0.640872900666E+03   -0.44303E-01   -0.44049E-01280752   0.303E+00
DAV:  10    -0.640881177243E+03   -0.82766E-02   -0.82444E-02280768   0.118E+00
DAV:  11    -0.640882779897E+03   -0.16027E-02   -0.15980E-02280768   0.521E-01
DAV:  12    -0.640883104595E+03   -0.32470E-03   -0.32397E-03280768   0.208E-01
DAV:  13    -0.640883172849E+03   -0.68254E-04   -0.68131E-04280768   0.934E-02
DAV:  14    -0.640883187668E+03   -0.14820E-04   -0.14800E-04280688   0.384E-02
DAV:  15    -0.640883190966E+03   -0.32975E-05   -0.32937E-05254880   0.175E-02
DAV:  16    -0.640883191713E+03   -0.74710E-06   -0.74466E-06202880   0.736E-03
DAV:  17    -0.640883191881E+03   -0.16790E-06   -0.16988E-06158976   0.350E-03
DAV:  18    -0.640883191923E+03   -0.41677E-07   -0.40519E-07144688   0.195E-03
   1 F= -.64088319E+03 E0= -.64088319E+03  d E =0.000000E+00
