POSCAR                                  
   1.00000000000000     
    10.3001043385404163   -0.0477960554020542    0.0392329745967437
    -0.0479227328786323   10.3504735764473885    0.0567917292094341
     0.0259325150506446    0.0375903679537885    6.8600524018768754
   Y    Sc   Zr   K    H 
     9     9     9     9   216
Direct
  0.1738201780571864  0.1658069777204991  0.2465987500240018
  0.1746006851304034  0.5014418470196934  0.2489127248954710
  0.3330644101377679  0.3284711909247697 -0.0000440640305384
  0.8337944242244175  0.1754257992792233  0.2485735137333882
  0.4996791235308380  0.5004246625763535  0.7480152913048215
  0.6698541167854027  0.3340188914585855  0.0006309682733476
  0.4919019418025607  0.8352266086663124  0.7590049331813108
  0.0039138939467334  0.0013228441370311  0.4999472381183184
  0.9992480181456148  0.9986525301974380  0.9980582756961816
  0.1618156950550042  0.1712506350766855  0.7465006935008820
  0.5040177271458995  0.1651057740084431  0.2546732968083740
  0.1720261300488909  0.4923297865293654  0.7472567935790724
  0.5074856958421425  0.4936621992195688  0.2527226305846882
  0.6702237947892289  0.3318511788951979  0.4928858210509290
  0.3311935704258189  0.0038970138613986  0.5072978348952231
  0.0018987625690887  0.3393311499380700  0.4971519860193599
  0.8218979720966224  0.4910503576550382  0.7308994696590235
  0.6655425347950513  0.0064176582711670  0.5034553443054572
  0.3414950527804251  0.3258975625786080  0.5024452800089840
  0.5068267711229403  0.1629608634545799  0.7525376614571374
  0.3297620501476162  0.6679281850140447  0.5031461940921269
  0.1604140416078120  0.8204246114141516  0.7519098218946924
  0.4966735173285123  0.8405440544649724  0.2534097786111679
  0.6643306760596470  0.6694278098921519  0.4978928451131536
  0.6622012568321261  0.6699691674662169  0.9973349274009947
  0.8306455997798394  0.8382278488272547  0.2577328872703101
  0.8293262456710245  0.8419245706239027  0.7453477588225521
  0.1679598884254661  0.8349421894838336  0.2434271419922333
  0.3276325214053935  0.6596609443367065  0.0094228537683841
  0.8407802840847297  0.1718638769481811  0.7535250400292487
  0.8473331499087388  0.5174488981199169  0.2333874955601447
  0.3285328459840974  0.9913530617562156  0.0080209035402117
  0.9951053337248701  0.3288765999423225  0.9917115263049292
  0.9954644765760425  0.6625824973634928  0.5025182698209476
  0.6645132681174633  0.0012625501613450  0.9989364205527000
  0.9869743916585667  0.6527683620957995  0.0102719085481566
  0.1705343011195079  0.0812949138250936  0.9812807969471893
  0.1729606229841961  0.0859085672445151  0.5134723672279110
  0.1650521122257694  0.4105526186012642  0.9920293902792841
  0.4972851718510689  0.0821788710471360  0.0137980020630962
  0.3472454431498330  0.2452792482242106  0.2553665063656979
  0.1683584675541998  0.4140441142101406  0.5035755670445146
  0.5005029224602412  0.0826604196529098  0.4978618725102518
  0.3270998773402747  0.2419425160719460  0.7503591762231304
  0.1576183235690182  0.7382179519212336  0.0087721952666604
  0.5025249904482646  0.4122219260035198  0.0041997617477928
  0.3509590492617536  0.5789594800314409  0.2629770239972071
  0.1625756554430988  0.7493820135290653  0.4963521348316522
  0.8306927394024630  0.0825589030063868  0.0054205800338909
  0.6631322726818000  0.2532035325798052  0.2608782499510562
  0.5117815109871923  0.4150658316516196  0.4929491583350674
  0.3280706737479007  0.5774264367174653  0.7500361572921720
  0.8311549669111771  0.0863841276081760  0.5003876036912288
  0.6744964821306282  0.2515657184851544  0.7304075175188767
  0.4921269936518555  0.7458921567998844  0.0123851444024490
  0.3328638071786327  0.9232693098893745  0.2749128105543756
  0.8440155004282703  0.4285436868667402  0.9834575231918984
  0.6693719785441890  0.5820503721056801  0.2498938748484950
  0.4971869209418746  0.7529397976332898  0.4980980736939892
  0.3184904078225368  0.9214428088922411  0.7452328087793283
  0.0092738728630694  0.2515618681222156  0.2580261035359331
  0.8227437884806379  0.4265770373739013  0.4825440591361656
  0.6772029395464982  0.5855015577373649  0.7515985409723994
  0.0102071513635090  0.2518971684067156  0.7305601458511974
  0.8348271122967584  0.7482278405914009  0.9789698197265267
  0.6654291178116658  0.9201507475222297  0.2544462732501634
  0.0221291019121505  0.5883360388490033  0.2650554174303808
  0.8329729059757531  0.7523014053692315  0.5108197782007516
  0.6617486693180835  0.9175439161699080  0.7459505550887863
  0.9761254605967845  0.5796333033568752  0.7534435595356797
  0.0044106990094536  0.9217611101698413  0.2525974461620476
  0.0089854203764603  0.9168265640316099  0.7516274668402719
  0.0848306691855260  0.1699642387979081  0.9885025997124772
  0.0864644027537667  0.1714872818392088  0.5034119715833700
  0.0715029089782332  0.4938408466290914  0.9758479090442195
  0.4121434601411348  0.1585120060701582  0.9913798160103299
  0.2553311734594462  0.3344231253670011  0.2600818528896754
  0.0825292444251244  0.4978258219002069  0.5202898508703805
  0.4207739776047701  0.1583212115956411  0.5056846741059927
  0.2480079640415248  0.3240646043389278  0.7431038599475793
  0.0689785244534883  0.8232018892835055  0.9988064797708776
  0.4220192507319093  0.4995777959046334  0.0088059087232130
  0.2604926895324409  0.6747562352426365  0.2632614799691118
  0.0848570431521544  0.8284951859019886  0.5015807034740200
  0.7507823294333392  0.1677039286555576  0.9995976720334477
  0.5841004024589634  0.3319583956841010  0.2562374404440781
  0.4199911142794210  0.4989759598209814  0.4945122679315040
  0.2459503945452756  0.6657213944032421  0.7599123127798990
  0.7538636850629985  0.1761431871773911  0.5033898498832312
  0.5846470176517500  0.3325455555687029  0.7405560698969903
  0.4128101576293651  0.8236158226362402  0.0150293330380476
  0.2602447408688031  0.9981590299898068  0.2701221023516946
  0.7489250956289837  0.5056082826307557  0.9908773109687210
  0.5792534724137557  0.6682291858623708  0.2552600942040248
  0.4123021681655386  0.8395722260311110  0.5048709605259172
  0.2515574905564651  0.0120063760174415  0.7542444992167820
  0.9237422223554455  0.3508632776512925  0.2610442341713322
  0.7548194540697980  0.4854328381687395  0.4823428220213651
  0.5816320260993458  0.6690456724792200  0.7458159638477609
  0.9179354786151959  0.3495371704787719  0.7343007633771791
  0.7460205771816809  0.8345465199817762  0.0018908959864612
  0.5858443763734643  0.0039753465350262  0.2612614668187520
  0.9162706662653505  0.6901775499077112  0.2605074029548993
  0.7427749474605038  0.8425812490621605  0.5023297574343121
  0.5829385020833681  0.9991671253222595  0.7414181494505396
  0.9177897202901506  0.6390787928803771  0.7547790493779495
  0.9131363551548292  0.0047384016393114  0.2559701655361724
  0.9148816800497751  0.0033656906360468  0.7440854183960118
  0.1616209736321496  0.0039038125259523  0.1216019813867799
  0.1681705910783745  0.0042255663710263  0.6311616937368199
  0.1602540807500656  0.3355318492773318  0.1176952492292873
  0.4959242282389365  0.0104563424516816  0.1295028211405577
  0.3415152893231653  0.1644641204860608  0.3815252373276796
  0.1679442465531958  0.3350374976755918  0.6258358907625886
  0.4971541951649945  0.0012210452491899  0.6210328562782786
  0.3411675852095652  0.1590239514402230  0.8810728436763751
  0.1547871242653970  0.6747135298794585  0.1159501693285352
  0.5010532291971049  0.3334950056838371  0.1292370516721970
  0.3433415341522562  0.4910109640339947  0.3756669497122906
  0.1608032162160960  0.6494743407431581  0.6293132151791428
  0.8289154504131913  0.9985555192485026  0.1205235332248459
  0.6631710404057765  0.1663816562995747  0.3767349124365122
  0.5065570337197314  0.3293227121648233  0.6201946784350806
  0.3254812030214106  0.4981088975795414  0.8791522418194897
  0.8333024760614325  0.0066447026059253  0.6257086865169685
  0.6664447385256300  0.1683531024363133  0.8760870262099129
  0.5002017544038037  0.6558488153919914  0.1297239978250962
  0.3320327744835014  0.8352237374637295  0.3845273385241366
  0.8317224454964598  0.3484717321286793  0.1230824215466678
  0.6696798672427123  0.5072907409902095  0.3659187202765889
  0.4991434329792324  0.6680518766979896  0.6228823946106754
  0.3180884868919592  0.8251723846275728  0.8870720844557322
  0.0061096848758144  0.1751132372401570  0.3751269197597144
  0.8348337135718885  0.3347249593332287  0.6124381307477423
  0.6689891578980072  0.4977359496155296  0.8655272175882742
  0.0107322477139136  0.1640996543757694  0.8738868590336406
  0.8184091219809529  0.6868755025394269  0.1200015972426282
  0.6626438206477588  0.8358064678073126  0.3784408851037538
  0.0075149066163690  0.4973553957539937  0.3777472462632041
  0.8277342167117003  0.6729885164209590  0.6331448563337263
  0.6675163445444514  0.8366859224398085  0.8755937057303815
  0.0201788742425802  0.4959342310176733  0.8693484619688636
  0.9985565577573076  0.8346298646139193  0.3758260838807669
  0.9910531529232216  0.8232114712839658  0.8835305517832532
  0.0854172910950875  0.9958718213899106  0.2472560060804909
  0.0908076319787189  0.9918823570276405  0.7470857272419875
  0.0868423964480522  0.3334461024444321  0.2534033197534018
  0.4204101048937329  0.0078804171449931  0.2634693047089702
  0.2524662382278338  0.1627178099479308  0.5110988764254791
  0.0833979589383167  0.3415350596859038  0.7386372637228892
  0.4098153161515329  0.0060722723399970  0.7473705982163227
  0.2520433617557643  0.1580876799042478  0.9829963013888112
  0.0827804668539611  0.6574683250092589  0.2494160602818460
  0.4241397316769539  0.3289592654888587  0.2518058351207463
  0.2563514564371138  0.4949097387256921  0.5015020418901447
  0.0756532888685518  0.6594871933431714  0.7575466306719284
  0.7471703584959331  0.0031819096647554  0.2578676864894219
  0.5855161945040086  0.1668506666786757  0.4965922066804586
  0.4206773204033841  0.3244874256550585  0.7495338942238923
  0.2553451710931030  0.4917463482673078  0.9882699257623393
  0.7461203505033329  0.0109251070917911  0.7403947821322615
  0.5821114747150763  0.1658227879077441  0.0165902506242427
  0.4245145195964220  0.6658690725488641  0.2536167113838478
  0.2480977955610769  0.8396711843630112  0.5009935958628047
  0.7550216661489914  0.3499045111334607  0.2578019042314390
  0.5857568072060865  0.4946925957457375  0.4908832828360997
  0.4103464134592137  0.6657547342814126  0.7530424764549486
  0.2416265685816311  0.8255927463111054  0.9833757546718416
  0.9199501822644246  0.1769710443079709  0.4998027393645303
  0.7476450228760844  0.3296525006752733  0.7308025560875073
  0.5843671364353176  0.5008609746021739  0.0006953954580366
  0.9186637381449760  0.1632468283355866  0.0039793854501696
  0.7427556987443703  0.6705253721034876  0.2523903472360962
  0.5807392739569330  0.8446613511201032  0.5007413578412244
  0.9174404747355024  0.4902615016811636  0.5053502082090292
  0.7516277239099421  0.6625769476511364  0.7416504618565372
  0.5858287522263462  0.8314331439590865  0.0078953209454496
  0.9085819726976417  0.4884235768044401  0.9543807889363857
  0.9196512757671458  0.8313794307221593  0.5112085443325582
  0.9110814619177742  0.8263634067867087  0.9878123247825665
  0.0051072612510532  0.1662802109946646  0.1230957365198490
  0.0054904908385351  0.1751593488157661  0.6218068889365468
  0.0194044514243423  0.4841556964076075  0.1217623105344366
  0.3480295834697946  0.1600311252806088  0.1269619942597116
  0.1662077149657331  0.3335817542117165  0.3816452229928979
  0.0144232443752701  0.4969613193030332  0.6259614699950352
  0.3339624876530751  0.1640297656819511  0.6319889911903698
  0.1640492462035185  0.3348194829382737  0.8704596333135713
 -0.0000122370323456  0.8252034537236400  0.1215161059928688
  0.3467573826983713  0.4926096243543467  0.1296676081041412
  0.1682318717349165  0.6704333245077142  0.3831308338374581
  0.9917047343751264  0.8306461229060964  0.6221656242582391
  0.6583447362662239  0.1646004323104549  0.1234582999175387
  0.5072847002043851  0.3287267714849917  0.3740542561741240
  0.3319751496359811  0.4941631938959360  0.6215777350847836
  0.1567820338449384  0.6422344079890502  0.8788128816546924
  0.6690026401463370  0.1680995683732756  0.6254033261362943
  0.5022287998245136  0.3294288278367062  0.8779531895662503
  0.3413481200585147  0.8245561209026427  0.1375945483911795
  0.1732080210749595  0.9992327288444177  0.3792669758177670
  0.6706904356710598  0.5030505927498793  0.1273656494831127
  0.5015167360348444  0.6652754819877122  0.3697616716964199
  0.3280689155548713  0.8343153702027319  0.6258688969935960
  0.1661132436988527  0.0123334645173449  0.8716393539927600
  0.8362751590268546  0.3447693429038632  0.3687625552598820
  0.6653355202172986  0.5030733099390942  0.6126505534040714
  0.4958762863189204  0.6655883268633583  0.8866799675932593
  0.8291364702905122  0.3415606534010721  0.8625302408714520
  0.6669898926534178  0.8361613061024670  0.1315358526768439
  0.5022855301256457  0.0076448678085145  0.3829565502946690
  0.8256909767797929  0.6732837627958154  0.3769448912241934
  0.6632021286702177  0.8383661502387199  0.6169100354177162
  0.4962510797062041  0.0020207075598225  0.8853180376424898
  0.8296997750075241  0.6837319157284215  0.8755063552021264
  0.8308475765812647  0.0044722529055619  0.3774420983358150
  0.8306460747271776  0.9991334255148592  0.8768123538081756
  0.0000755468423353  0.0878010717115354  0.2526879844060220
  0.0064726176008578  0.0855608411371903  0.7450190617599142
  0.0007513417299977  0.4126586261137047  0.2427321187915721
  0.3449432499893577  0.0810421665212402  0.2580356511485660
  0.1666003323860339  0.2525920959966261  0.5040288895751917
  0.9931229545505874  0.4121859849499043  0.7391942884863276
  0.3183404262811693  0.0792554912491655  0.7540252373380407
  0.1594047859099693  0.2491277802784910  0.9910325846790113
  0.9872787614538365  0.7541962043150460  0.2467085468259756
  0.3451732302854641  0.4169984027157128  0.2631766612509053
  0.1664536284211843  0.5832545076567071  0.5196473481619622
  0.9904748084392651  0.7407447187980413  0.7583227065290242
  0.6630422711964844  0.0840379857006516  0.2588621440416604
  0.5096326454092741  0.2458966068584007  0.4964034004728736
  0.3336928750413401  0.4127889399391488  0.7419099766536817
  0.1597265842603918  0.5794734139097582  0.9772480184035868
  0.6760230435292489  0.0828377922984829  0.7401819414038647
  0.5013335926008461  0.2463259085797236  0.0089095939448067
  0.3312344707509395  0.7478089708333506  0.2519075053066043
  0.1771593067973800  0.9151099816597056  0.5050334248153013
  0.6749394909548757  0.4209391560777168  0.2541635349911526
  0.4998718487389948  0.5819997138612327  0.4847886966213520
  0.3249425703860186  0.7429246735040620  0.7567276292848004
  0.1629254142482883  0.9119245304497624  0.9804808620980852
  0.8329633723444846  0.2529448281275274  0.5036785773961775
  0.6640994708732656  0.4148305892453299  0.7374157431433942
  0.4968973572146821  0.5812000529430350  0.0146391990617644
  0.8295513281620717  0.2490554980779080  0.9972582010672035
  0.6588106169287885  0.7514751319840669  0.2494542405618004
  0.4934834155029226  0.9223280518293636  0.5056941397868675
  0.8235867239104367  0.5854392655157515  0.5031575124508827
  0.6679028445243015  0.7536888522148596  0.7473129740688674
  0.4980078345276320  0.9217507808746679  0.0043812225455164
  0.8172733885467970  0.5851042888117312  0.9539349169083482
  0.8255634734928969  0.9249670188675226  0.4947421839307207
  0.8283238876258274  0.9214037158980596  0.0146814197456858
 
  0.00000000E+00  0.00000000E+00  0.00000000E+00
  0.00000000E+00  0.00000000E+00  0.00000000E+00
  0.00000000E+00  0.00000000E+00  0.00000000E+00
  0.00000000E+00  0.00000000E+00  0.00000000E+00
  0.00000000E+00  0.00000000E+00  0.00000000E+00
  0.00000000E+00  0.00000000E+00  0.00000000E+00
  0.00000000E+00  0.00000000E+00  0.00000000E+00
  0.00000000E+00  0.00000000E+00  0.00000000E+00
  0.00000000E+00  0.00000000E+00  0.00000000E+00
  0.00000000E+00  0.00000000E+00  0.00000000E+00
  0.00000000E+00  0.00000000E+00  0.00000000E+00
  0.00000000E+00  0.00000000E+00  0.00000000E+00
  0.00000000E+00  0.00000000E+00  0.00000000E+00
  0.00000000E+00  0.00000000E+00  0.00000000E+00
  0.00000000E+00  0.00000000E+00  0.00000000E+00
  0.00000000E+00  0.00000000E+00  0.00000000E+00
  0.00000000E+00  0.00000000E+00  0.00000000E+00
  0.00000000E+00  0.00000000E+00  0.00000000E+00
  0.00000000E+00  0.00000000E+00  0.00000000E+00
  0.00000000E+00  0.00000000E+00  0.00000000E+00
  0.00000000E+00  0.00000000E+00  0.00000000E+00
  0.00000000E+00  0.00000000E+00  0.00000000E+00
  0.00000000E+00  0.00000000E+00  0.00000000E+00
  0.00000000E+00  0.00000000E+00  0.00000000E+00
  0.00000000E+00  0.00000000E+00  0.00000000E+00
  0.00000000E+00  0.00000000E+00  0.00000000E+00
  0.00000000E+00  0.00000000E+00  0.00000000E+00
  0.00000000E+00  0.00000000E+00  0.00000000E+00
  0.00000000E+00  0.00000000E+00  0.00000000E+00
  0.00000000E+00  0.00000000E+00  0.00000000E+00
  0.00000000E+00  0.00000000E+00  0.00000000E+00
  0.00000000E+00  0.00000000E+00  0.00000000E+00
  0.00000000E+00  0.00000000E+00  0.00000000E+00
  0.00000000E+00  0.00000000E+00  0.00000000E+00
  0.00000000E+00  0.00000000E+00  0.00000000E+00
  0.00000000E+00  0.00000000E+00  0.00000000E+00
  0.00000000E+00  0.00000000E+00  0.00000000E+00
  0.00000000E+00  0.00000000E+00  0.00000000E+00
  0.00000000E+00  0.00000000E+00  0.00000000E+00
  0.00000000E+00  0.00000000E+00  0.00000000E+00
  0.00000000E+00  0.00000000E+00  0.00000000E+00
  0.00000000E+00  0.00000000E+00  0.00000000E+00
  0.00000000E+00  0.00000000E+00  0.00000000E+00
  0.00000000E+00  0.00000000E+00  0.00000000E+00
  0.00000000E+00  0.00000000E+00  0.00000000E+00
  0.00000000E+00  0.00000000E+00  0.00000000E+00
  0.00000000E+00  0.00000000E+00  0.00000000E+00
  0.00000000E+00  0.00000000E+00  0.00000000E+00
  0.00000000E+00  0.00000000E+00  0.00000000E+00
  0.00000000E+00  0.00000000E+00  0.00000000E+00
  0.00000000E+00  0.00000000E+00  0.00000000E+00
  0.00000000E+00  0.00000000E+00  0.00000000E+00
  0.00000000E+00  0.00000000E+00  0.00000000E+00
  0.00000000E+00  0.00000000E+00  0.00000000E+00
  0.00000000E+00  0.00000000E+00  0.00000000E+00
  0.00000000E+00  0.00000000E+00  0.00000000E+00
  0.00000000E+00  0.00000000E+00  0.00000000E+00
  0.00000000E+00  0.00000000E+00  0.00000000E+00
  0.00000000E+00  0.00000000E+00  0.00000000E+00
  0.00000000E+00  0.00000000E+00  0.00000000E+00
  0.00000000E+00  0.00000000E+00  0.00000000E+00
  0.00000000E+00  0.00000000E+00  0.00000000E+00
  0.00000000E+00  0.00000000E+00  0.00000000E+00
  0.00000000E+00  0.00000000E+00  0.00000000E+00
  0.00000000E+00  0.00000000E+00  0.00000000E+00
  0.00000000E+00  0.00000000E+00  0.00000000E+00
  0.00000000E+00  0.00000000E+00  0.00000000E+00
  0.00000000E+00  0.00000000E+00  0.00000000E+00
  0.00000000E+00  0.00000000E+00  0.00000000E+00
  0.00000000E+00  0.00000000E+00  0.00000000E+00
  0.00000000E+00  0.00000000E+00  0.00000000E+00
  0.00000000E+00  0.00000000E+00  0.00000000E+00
  0.00000000E+00  0.00000000E+00  0.00000000E+00
  0.00000000E+00  0.00000000E+00  0.00000000E+00
  0.00000000E+00  0.00000000E+00  0.00000000E+00
  0.00000000E+00  0.00000000E+00  0.00000000E+00
  0.00000000E+00  0.00000000E+00  0.00000000E+00
  0.00000000E+00  0.00000000E+00  0.00000000E+00
  0.00000000E+00  0.00000000E+00  0.00000000E+00
  0.00000000E+00  0.00000000E+00  0.00000000E+00
  0.00000000E+00  0.00000000E+00  0.00000000E+00
  0.00000000E+00  0.00000000E+00  0.00000000E+00
  0.00000000E+00  0.00000000E+00  0.00000000E+00
  0.00000000E+00  0.00000000E+00  0.00000000E+00
  0.00000000E+00  0.00000000E+00  0.00000000E+00
  0.00000000E+00  0.00000000E+00  0.00000000E+00
  0.00000000E+00  0.00000000E+00  0.00000000E+00
  0.00000000E+00  0.00000000E+00  0.00000000E+00
  0.00000000E+00  0.00000000E+00  0.00000000E+00
  0.00000000E+00  0.00000000E+00  0.00000000E+00
  0.00000000E+00  0.00000000E+00  0.00000000E+00
  0.00000000E+00  0.00000000E+00  0.00000000E+00
  0.00000000E+00  0.00000000E+00  0.00000000E+00
  0.00000000E+00  0.00000000E+00  0.00000000E+00
  0.00000000E+00  0.00000000E+00  0.00000000E+00
  0.00000000E+00  0.00000000E+00  0.00000000E+00
  0.00000000E+00  0.00000000E+00  0.00000000E+00
  0.00000000E+00  0.00000000E+00  0.00000000E+00
  0.00000000E+00  0.00000000E+00  0.00000000E+00
  0.00000000E+00  0.00000000E+00  0.00000000E+00
  0.00000000E+00  0.00000000E+00  0.00000000E+00
  0.00000000E+00  0.00000000E+00  0.00000000E+00
  0.00000000E+00  0.00000000E+00  0.00000000E+00
  0.00000000E+00  0.00000000E+00  0.00000000E+00
  0.00000000E+00  0.00000000E+00  0.00000000E+00
  0.00000000E+00  0.00000000E+00  0.00000000E+00
  0.00000000E+00  0.00000000E+00  0.00000000E+00
  0.00000000E+00  0.00000000E+00  0.00000000E+00
  0.00000000E+00  0.00000000E+00  0.00000000E+00
  0.00000000E+00  0.00000000E+00  0.00000000E+00
  0.00000000E+00  0.00000000E+00  0.00000000E+00
  0.00000000E+00  0.00000000E+00  0.00000000E+00
  0.00000000E+00  0.00000000E+00  0.00000000E+00
  0.00000000E+00  0.00000000E+00  0.00000000E+00
  0.00000000E+00  0.00000000E+00  0.00000000E+00
  0.00000000E+00  0.00000000E+00  0.00000000E+00
  0.00000000E+00  0.00000000E+00  0.00000000E+00
  0.00000000E+00  0.00000000E+00  0.00000000E+00
  0.00000000E+00  0.00000000E+00  0.00000000E+00
  0.00000000E+00  0.00000000E+00  0.00000000E+00
  0.00000000E+00  0.00000000E+00  0.00000000E+00
  0.00000000E+00  0.00000000E+00  0.00000000E+00
  0.00000000E+00  0.00000000E+00  0.00000000E+00
  0.00000000E+00  0.00000000E+00  0.00000000E+00
  0.00000000E+00  0.00000000E+00  0.00000000E+00
  0.00000000E+00  0.00000000E+00  0.00000000E+00
  0.00000000E+00  0.00000000E+00  0.00000000E+00
  0.00000000E+00  0.00000000E+00  0.00000000E+00
  0.00000000E+00  0.00000000E+00  0.00000000E+00
  0.00000000E+00  0.00000000E+00  0.00000000E+00
  0.00000000E+00  0.00000000E+00  0.00000000E+00
  0.00000000E+00  0.00000000E+00  0.00000000E+00
  0.00000000E+00  0.00000000E+00  0.00000000E+00
  0.00000000E+00  0.00000000E+00  0.00000000E+00
  0.00000000E+00  0.00000000E+00  0.00000000E+00
  0.00000000E+00  0.00000000E+00  0.00000000E+00
  0.00000000E+00  0.00000000E+00  0.00000000E+00
  0.00000000E+00  0.00000000E+00  0.00000000E+00
  0.00000000E+00  0.00000000E+00  0.00000000E+00
  0.00000000E+00  0.00000000E+00  0.00000000E+00
  0.00000000E+00  0.00000000E+00  0.00000000E+00
  0.00000000E+00  0.00000000E+00  0.00000000E+00
  0.00000000E+00  0.00000000E+00  0.00000000E+00
  0.00000000E+00  0.00000000E+00  0.00000000E+00
  0.00000000E+00  0.00000000E+00  0.00000000E+00
  0.00000000E+00  0.00000000E+00  0.00000000E+00
  0.00000000E+00  0.00000000E+00  0.00000000E+00
  0.00000000E+00  0.00000000E+00  0.00000000E+00
  0.00000000E+00  0.00000000E+00  0.00000000E+00
  0.00000000E+00  0.00000000E+00  0.00000000E+00
  0.00000000E+00  0.00000000E+00  0.00000000E+00
  0.00000000E+00  0.00000000E+00  0.00000000E+00
  0.00000000E+00  0.00000000E+00  0.00000000E+00
  0.00000000E+00  0.00000000E+00  0.00000000E+00
  0.00000000E+00  0.00000000E+00  0.00000000E+00
  0.00000000E+00  0.00000000E+00  0.00000000E+00
  0.00000000E+00  0.00000000E+00  0.00000000E+00
  0.00000000E+00  0.00000000E+00  0.00000000E+00
  0.00000000E+00  0.00000000E+00  0.00000000E+00
  0.00000000E+00  0.00000000E+00  0.00000000E+00
  0.00000000E+00  0.00000000E+00  0.00000000E+00
  0.00000000E+00  0.00000000E+00  0.00000000E+00
  0.00000000E+00  0.00000000E+00  0.00000000E+00
  0.00000000E+00  0.00000000E+00  0.00000000E+00
  0.00000000E+00  0.00000000E+00  0.00000000E+00
  0.00000000E+00  0.00000000E+00  0.00000000E+00
  0.00000000E+00  0.00000000E+00  0.00000000E+00
  0.00000000E+00  0.00000000E+00  0.00000000E+00
  0.00000000E+00  0.00000000E+00  0.00000000E+00
  0.00000000E+00  0.00000000E+00  0.00000000E+00
  0.00000000E+00  0.00000000E+00  0.00000000E+00
  0.00000000E+00  0.00000000E+00  0.00000000E+00
  0.00000000E+00  0.00000000E+00  0.00000000E+00
  0.00000000E+00  0.00000000E+00  0.00000000E+00
  0.00000000E+00  0.00000000E+00  0.00000000E+00
  0.00000000E+00  0.00000000E+00  0.00000000E+00
  0.00000000E+00  0.00000000E+00  0.00000000E+00
  0.00000000E+00  0.00000000E+00  0.00000000E+00
  0.00000000E+00  0.00000000E+00  0.00000000E+00
  0.00000000E+00  0.00000000E+00  0.00000000E+00
  0.00000000E+00  0.00000000E+00  0.00000000E+00
  0.00000000E+00  0.00000000E+00  0.00000000E+00
  0.00000000E+00  0.00000000E+00  0.00000000E+00
  0.00000000E+00  0.00000000E+00  0.00000000E+00
  0.00000000E+00  0.00000000E+00  0.00000000E+00
  0.00000000E+00  0.00000000E+00  0.00000000E+00
  0.00000000E+00  0.00000000E+00  0.00000000E+00
  0.00000000E+00  0.00000000E+00  0.00000000E+00
  0.00000000E+00  0.00000000E+00  0.00000000E+00
  0.00000000E+00  0.00000000E+00  0.00000000E+00
  0.00000000E+00  0.00000000E+00  0.00000000E+00
  0.00000000E+00  0.00000000E+00  0.00000000E+00
  0.00000000E+00  0.00000000E+00  0.00000000E+00
  0.00000000E+00  0.00000000E+00  0.00000000E+00
  0.00000000E+00  0.00000000E+00  0.00000000E+00
  0.00000000E+00  0.00000000E+00  0.00000000E+00
  0.00000000E+00  0.00000000E+00  0.00000000E+00
  0.00000000E+00  0.00000000E+00  0.00000000E+00
  0.00000000E+00  0.00000000E+00  0.00000000E+00
  0.00000000E+00  0.00000000E+00  0.00000000E+00
  0.00000000E+00  0.00000000E+00  0.00000000E+00
  0.00000000E+00  0.00000000E+00  0.00000000E+00
  0.00000000E+00  0.00000000E+00  0.00000000E+00
  0.00000000E+00  0.00000000E+00  0.00000000E+00
  0.00000000E+00  0.00000000E+00  0.00000000E+00
  0.00000000E+00  0.00000000E+00  0.00000000E+00
  0.00000000E+00  0.00000000E+00  0.00000000E+00
  0.00000000E+00  0.00000000E+00  0.00000000E+00
  0.00000000E+00  0.00000000E+00  0.00000000E+00
  0.00000000E+00  0.00000000E+00  0.00000000E+00
  0.00000000E+00  0.00000000E+00  0.00000000E+00
  0.00000000E+00  0.00000000E+00  0.00000000E+00
  0.00000000E+00  0.00000000E+00  0.00000000E+00
  0.00000000E+00  0.00000000E+00  0.00000000E+00
  0.00000000E+00  0.00000000E+00  0.00000000E+00
  0.00000000E+00  0.00000000E+00  0.00000000E+00
  0.00000000E+00  0.00000000E+00  0.00000000E+00
  0.00000000E+00  0.00000000E+00  0.00000000E+00
  0.00000000E+00  0.00000000E+00  0.00000000E+00
  0.00000000E+00  0.00000000E+00  0.00000000E+00
  0.00000000E+00  0.00000000E+00  0.00000000E+00
  0.00000000E+00  0.00000000E+00  0.00000000E+00
  0.00000000E+00  0.00000000E+00  0.00000000E+00
  0.00000000E+00  0.00000000E+00  0.00000000E+00
  0.00000000E+00  0.00000000E+00  0.00000000E+00
  0.00000000E+00  0.00000000E+00  0.00000000E+00
  0.00000000E+00  0.00000000E+00  0.00000000E+00
  0.00000000E+00  0.00000000E+00  0.00000000E+00
  0.00000000E+00  0.00000000E+00  0.00000000E+00
  0.00000000E+00  0.00000000E+00  0.00000000E+00
  0.00000000E+00  0.00000000E+00  0.00000000E+00
  0.00000000E+00  0.00000000E+00  0.00000000E+00
  0.00000000E+00  0.00000000E+00  0.00000000E+00
  0.00000000E+00  0.00000000E+00  0.00000000E+00
  0.00000000E+00  0.00000000E+00  0.00000000E+00
  0.00000000E+00  0.00000000E+00  0.00000000E+00
  0.00000000E+00  0.00000000E+00  0.00000000E+00
  0.00000000E+00  0.00000000E+00  0.00000000E+00
  0.00000000E+00  0.00000000E+00  0.00000000E+00
  0.00000000E+00  0.00000000E+00  0.00000000E+00
  0.00000000E+00  0.00000000E+00  0.00000000E+00
  0.00000000E+00  0.00000000E+00  0.00000000E+00
  0.00000000E+00  0.00000000E+00  0.00000000E+00
  0.00000000E+00  0.00000000E+00  0.00000000E+00
  0.00000000E+00  0.00000000E+00  0.00000000E+00
  0.00000000E+00  0.00000000E+00  0.00000000E+00
  0.00000000E+00  0.00000000E+00  0.00000000E+00
  0.00000000E+00  0.00000000E+00  0.00000000E+00
  0.00000000E+00  0.00000000E+00  0.00000000E+00
  0.00000000E+00  0.00000000E+00  0.00000000E+00
  0.00000000E+00  0.00000000E+00  0.00000000E+00
  0.00000000E+00  0.00000000E+00  0.00000000E+00
