generated by phonopy                    
   1.00000000000000     
     0.0000000000000000    3.2830598208296684    3.2830598208297523
     3.2830598208297017    0.0000000000000000    3.2830598208297523
     3.2830598208297017    3.2830598208296684    0.0000000000000000
   Mg   Hf   Ca   Sc   H 
     1     1     1     1    24
Direct
  0.2500000000000000  0.2500000000000000  0.2500000000000000
  0.7500000000000000  0.7500000000000000  0.7500000000000000
  0.0000000000000000  0.0000000000000000  0.0000000000000000
  0.5000000000000000  0.5000000000000000  0.5000000000000000
  0.1373547060313669  0.8828085768403184  0.6169482381071774
  0.8828085768403184  0.1373547060313669  0.3628884790211373
  0.6169482381071774  0.3628884790211373  0.1373547060313669
  0.3628884790211373  0.6169482381071774  0.8828085768403184
  0.6169482381071774  0.1373547060313669  0.8828085768403184
  0.3628884790211373  0.8828085768403184  0.1373547060313669
  0.1373547060313669  0.6169482381071774  0.3628884790211373
  0.8828085768403184  0.3628884790211373  0.6169482381071774
  0.8828085768403184  0.6169482381071774  0.1373547060313669
  0.1373547060313669  0.3628884790211373  0.8828085768403184
  0.3628884790211373  0.1373547060313669  0.6169482381071774
  0.6169482381071774  0.8828085768403184  0.3628884790211373
  0.1373547060313669  0.3628884790211373  0.6169482381071774
  0.3628884790211373  0.1373547060313669  0.8828085768403184
  0.6169482381071774  0.8828085768403184  0.1373547060313669
  0.8828085768403184  0.6169482381071774  0.3628884790211373
  0.6169482381071774  0.1373547060313669  0.3628884790211373
  0.8828085768403184  0.3628884790211373  0.1373547060313669
  0.1373547060313669  0.6169482381071774  0.8828085768403184
  0.3628884790211373  0.8828085768403184  0.6169482381071774
  0.3628884790211373  0.6169482381071774  0.1373547060313669
  0.1373547060313669  0.8828085768403184  0.3628884790211373
  0.8828085768403184  0.1373547060313669  0.6169482381071774
  0.6169482381071774  0.3628884790211373  0.8828085768403184
 
  0.00000000E+00  0.00000000E+00  0.00000000E+00
  0.00000000E+00  0.00000000E+00  0.00000000E+00
  0.00000000E+00  0.00000000E+00  0.00000000E+00
  0.00000000E+00  0.00000000E+00  0.00000000E+00
  0.00000000E+00  0.00000000E+00  0.00000000E+00
  0.00000000E+00  0.00000000E+00  0.00000000E+00
  0.00000000E+00  0.00000000E+00  0.00000000E+00
  0.00000000E+00  0.00000000E+00  0.00000000E+00
  0.00000000E+00  0.00000000E+00  0.00000000E+00
  0.00000000E+00  0.00000000E+00  0.00000000E+00
  0.00000000E+00  0.00000000E+00  0.00000000E+00
  0.00000000E+00  0.00000000E+00  0.00000000E+00
  0.00000000E+00  0.00000000E+00  0.00000000E+00
  0.00000000E+00  0.00000000E+00  0.00000000E+00
  0.00000000E+00  0.00000000E+00  0.00000000E+00
  0.00000000E+00  0.00000000E+00  0.00000000E+00
  0.00000000E+00  0.00000000E+00  0.00000000E+00
  0.00000000E+00  0.00000000E+00  0.00000000E+00
  0.00000000E+00  0.00000000E+00  0.00000000E+00
  0.00000000E+00  0.00000000E+00  0.00000000E+00
  0.00000000E+00  0.00000000E+00  0.00000000E+00
  0.00000000E+00  0.00000000E+00  0.00000000E+00
  0.00000000E+00  0.00000000E+00  0.00000000E+00
  0.00000000E+00  0.00000000E+00  0.00000000E+00
  0.00000000E+00  0.00000000E+00  0.00000000E+00
  0.00000000E+00  0.00000000E+00  0.00000000E+00
  0.00000000E+00  0.00000000E+00  0.00000000E+00
  0.00000000E+00  0.00000000E+00  0.00000000E+00
