generated by phonopy                    
   1.00000000000000     
     0.0000000000000000    3.2808084483877415    3.2808084483878264
     3.2808084483877784    0.0000000000000000    3.2808084483878264
     3.2808084483877784    3.2808084483877415    0.0000000000000000
   Mg   Zr   Ca   Sc   H 
     1     1     1     1    24
Direct
  0.2500000000000000  0.2500000000000000  0.2500000000000000
  0.7500000000000000  0.7500000000000000  0.7500000000000000
  0.0000000000000000  0.0000000000000000  0.0000000000000000
  0.5000000000000000  0.5000000000000000  0.5000000000000000
  0.1363775435604069  0.8828754264507097  0.6167758228428895
  0.8828754264507097  0.1363775435604069  0.3639712071459940
  0.6167758228428895  0.3639712071459940  0.1363775435604069
  0.3639712071459940  0.6167758228428895  0.8828754264507097
  0.6167758228428895  0.1363775435604069  0.8828754264507097
  0.3639712071459940  0.8828754264507097  0.1363775435604069
  0.1363775435604069  0.6167758228428895  0.3639712071459940
  0.8828754264507097  0.3639712071459940  0.6167758228428895
  0.8828754264507097  0.6167758228428895  0.1363775435604069
  0.1363775435604069  0.3639712071459940  0.8828754264507097
  0.3639712071459940  0.1363775435604069  0.6167758228428895
  0.6167758228428895  0.8828754264507097  0.3639712071459940
  0.1363775435604069  0.3639712071459940  0.6167758228428895
  0.3639712071459940  0.1363775435604069  0.8828754264507097
  0.6167758228428895  0.8828754264507097  0.1363775435604069
  0.8828754264507097  0.6167758228428895  0.3639712071459940
  0.6167758228428895  0.1363775435604069  0.3639712071459940
  0.8828754264507097  0.3639712071459940  0.1363775435604069
  0.1363775435604069  0.6167758228428895  0.8828754264507097
  0.3639712071459940  0.8828754264507097  0.6167758228428895
  0.3639712071459940  0.6167758228428895  0.1363775435604069
  0.1363775435604069  0.8828754264507097  0.3639712071459940
  0.8828754264507097  0.1363775435604069  0.6167758228428895
  0.6167758228428895  0.3639712071459940  0.8828754264507097
 
  0.00000000E+00  0.00000000E+00  0.00000000E+00
  0.00000000E+00  0.00000000E+00  0.00000000E+00
  0.00000000E+00  0.00000000E+00  0.00000000E+00
  0.00000000E+00  0.00000000E+00  0.00000000E+00
  0.00000000E+00  0.00000000E+00  0.00000000E+00
  0.00000000E+00  0.00000000E+00  0.00000000E+00
  0.00000000E+00  0.00000000E+00  0.00000000E+00
  0.00000000E+00  0.00000000E+00  0.00000000E+00
  0.00000000E+00  0.00000000E+00  0.00000000E+00
  0.00000000E+00  0.00000000E+00  0.00000000E+00
  0.00000000E+00  0.00000000E+00  0.00000000E+00
  0.00000000E+00  0.00000000E+00  0.00000000E+00
  0.00000000E+00  0.00000000E+00  0.00000000E+00
  0.00000000E+00  0.00000000E+00  0.00000000E+00
  0.00000000E+00  0.00000000E+00  0.00000000E+00
  0.00000000E+00  0.00000000E+00  0.00000000E+00
  0.00000000E+00  0.00000000E+00  0.00000000E+00
  0.00000000E+00  0.00000000E+00  0.00000000E+00
  0.00000000E+00  0.00000000E+00  0.00000000E+00
  0.00000000E+00  0.00000000E+00  0.00000000E+00
  0.00000000E+00  0.00000000E+00  0.00000000E+00
  0.00000000E+00  0.00000000E+00  0.00000000E+00
  0.00000000E+00  0.00000000E+00  0.00000000E+00
  0.00000000E+00  0.00000000E+00  0.00000000E+00
  0.00000000E+00  0.00000000E+00  0.00000000E+00
  0.00000000E+00  0.00000000E+00  0.00000000E+00
  0.00000000E+00  0.00000000E+00  0.00000000E+00
  0.00000000E+00  0.00000000E+00  0.00000000E+00
