generated by phonopy                    
   1.00000000000000     
     0.0000000000000000    3.3239447297598170    3.3239447297599405
     3.3239447297598677    0.0000000000000000    3.3239447297599405
     3.3239447297598677    3.3239447297598170    0.0000000000000000
   Na   Ba   Sc   La   H 
     1     1     1     1    24
Direct
  0.2500000000000000  0.2500000000000000  0.2500000000000000
  0.7500000000000000  0.7500000000000000  0.7500000000000000
  0.0000000000000000  0.0000000000000000  0.0000000000000000
  0.5000000000000000  0.5000000000000000  0.5000000000000000
  0.1335921491049277  0.9058551542510713  0.6148959748384968
  0.9058551542510713  0.1335921491049277  0.3456567218054971
  0.6148959748384968  0.3456567218054971  0.1335921491049277
  0.3456567218054971  0.6148959748384968  0.9058551542510713
  0.6148959748384968  0.1335921491049277  0.9058551542510713
  0.3456567218054971  0.9058551542510713  0.1335921491049277
  0.1335921491049277  0.6148959748384968  0.3456567218054971
  0.9058551542510713  0.3456567218054971  0.6148959748384968
  0.9058551542510713  0.6148959748384968  0.1335921491049277
  0.1335921491049277  0.3456567218054971  0.9058551542510713
  0.3456567218054971  0.1335921491049277  0.6148959748384968
  0.6148959748384968  0.9058551542510713  0.3456567218054971
  0.1335921491049277  0.3456567218054971  0.6148959748384968
  0.3456567218054971  0.1335921491049277  0.9058551542510713
  0.6148959748384968  0.9058551542510713  0.1335921491049277
  0.9058551542510713  0.6148959748384968  0.3456567218054971
  0.6148959748384968  0.1335921491049277  0.3456567218054971
  0.9058551542510713  0.3456567218054971  0.1335921491049277
  0.1335921491049277  0.6148959748384968  0.9058551542510713
  0.3456567218054971  0.9058551542510713  0.6148959748384968
  0.3456567218054971  0.6148959748384968  0.1335921491049277
  0.1335921491049277  0.9058551542510713  0.3456567218054971
  0.9058551542510713  0.1335921491049277  0.6148959748384968
  0.6148959748384968  0.3456567218054971  0.9058551542510713
 
  0.00000000E+00  0.00000000E+00  0.00000000E+00
  0.00000000E+00  0.00000000E+00  0.00000000E+00
  0.00000000E+00  0.00000000E+00  0.00000000E+00
  0.00000000E+00  0.00000000E+00  0.00000000E+00
  0.00000000E+00  0.00000000E+00  0.00000000E+00
  0.00000000E+00  0.00000000E+00  0.00000000E+00
  0.00000000E+00  0.00000000E+00  0.00000000E+00
  0.00000000E+00  0.00000000E+00  0.00000000E+00
  0.00000000E+00  0.00000000E+00  0.00000000E+00
  0.00000000E+00  0.00000000E+00  0.00000000E+00
  0.00000000E+00  0.00000000E+00  0.00000000E+00
  0.00000000E+00  0.00000000E+00  0.00000000E+00
  0.00000000E+00  0.00000000E+00  0.00000000E+00
  0.00000000E+00  0.00000000E+00  0.00000000E+00
  0.00000000E+00  0.00000000E+00  0.00000000E+00
  0.00000000E+00  0.00000000E+00  0.00000000E+00
  0.00000000E+00  0.00000000E+00  0.00000000E+00
  0.00000000E+00  0.00000000E+00  0.00000000E+00
  0.00000000E+00  0.00000000E+00  0.00000000E+00
  0.00000000E+00  0.00000000E+00  0.00000000E+00
  0.00000000E+00  0.00000000E+00  0.00000000E+00
  0.00000000E+00  0.00000000E+00  0.00000000E+00
  0.00000000E+00  0.00000000E+00  0.00000000E+00
  0.00000000E+00  0.00000000E+00  0.00000000E+00
  0.00000000E+00  0.00000000E+00  0.00000000E+00
  0.00000000E+00  0.00000000E+00  0.00000000E+00
  0.00000000E+00  0.00000000E+00  0.00000000E+00
  0.00000000E+00  0.00000000E+00  0.00000000E+00
