generated by phonopy                    
   1.00000000000000     
     0.0000000000000000    3.2202030733407550    3.2202030733408420
     3.2202030733407896    0.0000000000000000    3.2202030733408420
     3.2202030733407896    3.2202030733407550    0.0000000000000000
   Na   Zr   K    Sc   H 
     1     1     1     1    24
Direct
  0.2500000000000000  0.2500000000000000  0.2500000000000000
  0.7500000000000000  0.7500000000000000  0.7500000000000000
  0.0000000000000000  0.0000000000000000  0.0000000000000000
  0.5000000000000000  0.5000000000000000  0.5000000000000000
  0.1402507346258020  0.8853419709649160  0.6123656204031747
  0.8853419709649160  0.1402507346258020  0.3620416740061074
  0.6123656204031747  0.3620416740061074  0.1402507346258020
  0.3620416740061074  0.6123656204031747  0.8853419709649160
  0.6123656204031747  0.1402507346258020  0.8853419709649160
  0.3620416740061074  0.8853419709649160  0.1402507346258020
  0.1402507346258020  0.6123656204031747  0.3620416740061074
  0.8853419709649160  0.3620416740061074  0.6123656204031747
  0.8853419709649160  0.6123656204031747  0.1402507346258020
  0.1402507346258020  0.3620416740061074  0.8853419709649160
  0.3620416740061074  0.1402507346258020  0.6123656204031747
  0.6123656204031747  0.8853419709649160  0.3620416740061074
  0.1402507346258020  0.3620416740061074  0.6123656204031747
  0.3620416740061074  0.1402507346258020  0.8853419709649160
  0.6123656204031747  0.8853419709649160  0.1402507346258020
  0.8853419709649160  0.6123656204031747  0.3620416740061074
  0.6123656204031747  0.1402507346258020  0.3620416740061074
  0.8853419709649160  0.3620416740061074  0.1402507346258020
  0.1402507346258020  0.6123656204031747  0.8853419709649160
  0.3620416740061074  0.8853419709649160  0.6123656204031747
  0.3620416740061074  0.6123656204031747  0.1402507346258020
  0.1402507346258020  0.8853419709649160  0.3620416740061074
  0.8853419709649160  0.1402507346258020  0.6123656204031747
  0.6123656204031747  0.3620416740061074  0.8853419709649160
 
  0.00000000E+00  0.00000000E+00  0.00000000E+00
  0.00000000E+00  0.00000000E+00  0.00000000E+00
  0.00000000E+00  0.00000000E+00  0.00000000E+00
  0.00000000E+00  0.00000000E+00  0.00000000E+00
  0.00000000E+00  0.00000000E+00  0.00000000E+00
  0.00000000E+00  0.00000000E+00  0.00000000E+00
  0.00000000E+00  0.00000000E+00  0.00000000E+00
  0.00000000E+00  0.00000000E+00  0.00000000E+00
  0.00000000E+00  0.00000000E+00  0.00000000E+00
  0.00000000E+00  0.00000000E+00  0.00000000E+00
  0.00000000E+00  0.00000000E+00  0.00000000E+00
  0.00000000E+00  0.00000000E+00  0.00000000E+00
  0.00000000E+00  0.00000000E+00  0.00000000E+00
  0.00000000E+00  0.00000000E+00  0.00000000E+00
  0.00000000E+00  0.00000000E+00  0.00000000E+00
  0.00000000E+00  0.00000000E+00  0.00000000E+00
  0.00000000E+00  0.00000000E+00  0.00000000E+00
  0.00000000E+00  0.00000000E+00  0.00000000E+00
  0.00000000E+00  0.00000000E+00  0.00000000E+00
  0.00000000E+00  0.00000000E+00  0.00000000E+00
  0.00000000E+00  0.00000000E+00  0.00000000E+00
  0.00000000E+00  0.00000000E+00  0.00000000E+00
  0.00000000E+00  0.00000000E+00  0.00000000E+00
  0.00000000E+00  0.00000000E+00  0.00000000E+00
  0.00000000E+00  0.00000000E+00  0.00000000E+00
  0.00000000E+00  0.00000000E+00  0.00000000E+00
  0.00000000E+00  0.00000000E+00  0.00000000E+00
  0.00000000E+00  0.00000000E+00  0.00000000E+00
