generated by phonopy                    
   1.00000000000000     
     0.0000000000000000    3.3680341999700221    3.3680341999701024
     3.3680341999700545    0.0000000000000000    3.3680341999701024
     3.3680341999700545    3.3680341999700221    0.0000000000000000
   Sc   Th   Y    Zr   H 
     1     1     1     1    24
Direct
  0.2500000000000000  0.2500000000000000  0.2500000000000000
  0.7500000000000000  0.7500000000000000  0.7500000000000000
  0.0000000000000000  0.0000000000000000  0.0000000000000000
  0.5000000000000000  0.5000000000000000  0.5000000000000000
  0.1339933841896865  0.8891960938946966  0.6100323740840210
  0.8891960938946966  0.1339933841896865  0.3667781478316030
  0.6100323740840210  0.3667781478316030  0.1339933841896865
  0.3667781478316030  0.6100323740840210  0.8891960938946966
  0.6100323740840210  0.1339933841896865  0.8891960938946966
  0.3667781478316030  0.8891960938946966  0.1339933841896865
  0.1339933841896865  0.6100323740840210  0.3667781478316030
  0.8891960938946966  0.3667781478316030  0.6100323740840210
  0.8891960938946966  0.6100323740840210  0.1339933841896865
  0.1339933841896865  0.3667781478316030  0.8891960938946966
  0.3667781478316030  0.1339933841896865  0.6100323740840210
  0.6100323740840210  0.8891960938946966  0.3667781478316030
  0.1339933841896865  0.3667781478316030  0.6100323740840210
  0.3667781478316030  0.1339933841896865  0.8891960938946966
  0.6100323740840210  0.8891960938946966  0.1339933841896865
  0.8891960938946966  0.6100323740840210  0.3667781478316030
  0.6100323740840210  0.1339933841896865  0.3667781478316030
  0.8891960938946966  0.3667781478316030  0.1339933841896865
  0.1339933841896865  0.6100323740840210  0.8891960938946966
  0.3667781478316030  0.8891960938946966  0.6100323740840210
  0.3667781478316030  0.6100323740840210  0.1339933841896865
  0.1339933841896865  0.8891960938946966  0.3667781478316030
  0.8891960938946966  0.1339933841896865  0.6100323740840210
  0.6100323740840210  0.3667781478316030  0.8891960938946966
 
  0.00000000E+00  0.00000000E+00  0.00000000E+00
  0.00000000E+00  0.00000000E+00  0.00000000E+00
  0.00000000E+00  0.00000000E+00  0.00000000E+00
  0.00000000E+00  0.00000000E+00  0.00000000E+00
  0.00000000E+00  0.00000000E+00  0.00000000E+00
  0.00000000E+00  0.00000000E+00  0.00000000E+00
  0.00000000E+00  0.00000000E+00  0.00000000E+00
  0.00000000E+00  0.00000000E+00  0.00000000E+00
  0.00000000E+00  0.00000000E+00  0.00000000E+00
  0.00000000E+00  0.00000000E+00  0.00000000E+00
  0.00000000E+00  0.00000000E+00  0.00000000E+00
  0.00000000E+00  0.00000000E+00  0.00000000E+00
  0.00000000E+00  0.00000000E+00  0.00000000E+00
  0.00000000E+00  0.00000000E+00  0.00000000E+00
  0.00000000E+00  0.00000000E+00  0.00000000E+00
  0.00000000E+00  0.00000000E+00  0.00000000E+00
  0.00000000E+00  0.00000000E+00  0.00000000E+00
  0.00000000E+00  0.00000000E+00  0.00000000E+00
  0.00000000E+00  0.00000000E+00  0.00000000E+00
  0.00000000E+00  0.00000000E+00  0.00000000E+00
  0.00000000E+00  0.00000000E+00  0.00000000E+00
  0.00000000E+00  0.00000000E+00  0.00000000E+00
  0.00000000E+00  0.00000000E+00  0.00000000E+00
  0.00000000E+00  0.00000000E+00  0.00000000E+00
  0.00000000E+00  0.00000000E+00  0.00000000E+00
  0.00000000E+00  0.00000000E+00  0.00000000E+00
  0.00000000E+00  0.00000000E+00  0.00000000E+00
  0.00000000E+00  0.00000000E+00  0.00000000E+00
