generated by phonopy                    
   1.00000000000000     
     0.0000000000000000    3.2818230257135164    3.2818230257135865
     3.2818230257135426    0.0000000000000000    3.2818230257135865
     3.2818230257135426    3.2818230257135164    0.0000000000000000
   Na   Y    Sc   Ce   H 
     1     1     1     1    24
Direct
  0.2500000000000000  0.2500000000000000  0.2500000000000000
  0.7500000000000000  0.7500000000000000  0.7500000000000000
  0.0000000000000000  0.0000000000000000  0.0000000000000000
  0.5000000000000000  0.5000000000000000  0.5000000000000000
  0.1289848793505328  0.8940823983986022  0.6210464630335721
  0.8940823983986022  0.1289848793505328  0.3558862592172787
  0.6210464630335721  0.3558862592172787  0.1289848793505328
  0.3558862592172787  0.6210464630335721  0.8940823983986022
  0.6210464630335721  0.1289848793505328  0.8940823983985950
  0.3558862592172787  0.8940823983985950  0.1289848793505328
  0.1289848793505328  0.6210464630335721  0.3558862592172787
  0.8940823983985950  0.3558862592172787  0.6210464630335721
  0.8940823983985950  0.6210464630335721  0.1289848793505328
  0.1289848793505328  0.3558862592172787  0.8940823983985950
  0.3558862592172787  0.1289848793505328  0.6210464630335721
  0.6210464630335721  0.8940823983985950  0.3558862592172787
  0.1289848793505328  0.3558862592172787  0.6210464630335721
  0.3558862592172787  0.1289848793505328  0.8940823983986022
  0.6210464630335721  0.8940823983986022  0.1289848793505328
  0.8940823983986022  0.6210464630335721  0.3558862592172787
  0.6210464630335721  0.1289848793505328  0.3558862592172787
  0.8940823983985950  0.3558862592172787  0.1289848793505328
  0.1289848793505328  0.6210464630335721  0.8940823983985950
  0.3558862592172787  0.8940823983985950  0.6210464630335721
  0.3558862592172787  0.6210464630335721  0.1289848793505328
  0.1289848793505328  0.8940823983985950  0.3558862592172787
  0.8940823983985950  0.1289848793505328  0.6210464630335721
  0.6210464630335721  0.3558862592172787  0.8940823983985950
 
  0.00000000E+00  0.00000000E+00  0.00000000E+00
  0.00000000E+00  0.00000000E+00  0.00000000E+00
  0.00000000E+00  0.00000000E+00  0.00000000E+00
  0.00000000E+00  0.00000000E+00  0.00000000E+00
  0.00000000E+00  0.00000000E+00  0.00000000E+00
  0.00000000E+00  0.00000000E+00  0.00000000E+00
  0.00000000E+00  0.00000000E+00  0.00000000E+00
  0.00000000E+00  0.00000000E+00  0.00000000E+00
  0.00000000E+00  0.00000000E+00  0.00000000E+00
  0.00000000E+00  0.00000000E+00  0.00000000E+00
  0.00000000E+00  0.00000000E+00  0.00000000E+00
  0.00000000E+00  0.00000000E+00  0.00000000E+00
  0.00000000E+00  0.00000000E+00  0.00000000E+00
  0.00000000E+00  0.00000000E+00  0.00000000E+00
  0.00000000E+00  0.00000000E+00  0.00000000E+00
  0.00000000E+00  0.00000000E+00  0.00000000E+00
  0.00000000E+00  0.00000000E+00  0.00000000E+00
  0.00000000E+00  0.00000000E+00  0.00000000E+00
  0.00000000E+00  0.00000000E+00  0.00000000E+00
  0.00000000E+00  0.00000000E+00  0.00000000E+00
  0.00000000E+00  0.00000000E+00  0.00000000E+00
  0.00000000E+00  0.00000000E+00  0.00000000E+00
  0.00000000E+00  0.00000000E+00  0.00000000E+00
  0.00000000E+00  0.00000000E+00  0.00000000E+00
  0.00000000E+00  0.00000000E+00  0.00000000E+00
  0.00000000E+00  0.00000000E+00  0.00000000E+00
  0.00000000E+00  0.00000000E+00  0.00000000E+00
  0.00000000E+00  0.00000000E+00  0.00000000E+00
