POSCAR                                  
   1.00000000000000     
    10.0832310849006728    0.0350187548504548    0.0868793514241429
     0.0351536293421313   10.0584103359874319    0.0330696338724398
     0.0578048810769545    0.0216689580553796    6.7410668410833825
   Y    Ca   La   Zr   H 
     9     9     9     9   216
Direct
  0.1628266367360141  0.1617215425785545  0.2409378088058816
  0.1620722180844751  0.8379588594240630  0.2451199298590723
  0.3398688939747743  0.6702110263290209  0.5016492980454856
  0.8371945119771453  0.1694820249149132  0.7494040004897897
  0.8253855806055626  0.4996505708026717  0.2493756471027169
  0.4991117010537778  0.8312435949680790  0.7630310643544505
  0.3298499349126800  0.0032333058976661  0.9889948058187272
  0.6768759185818283  0.9995597760293293  0.5039926355148054
  0.6728552987665708  0.9961459158886754  0.9996165346897854
  0.1726216361833224  0.1652919717761065  0.7405879439557808
  0.1713482570150902  0.8385469227449320  0.7495182381405314
  0.5019825791775503  0.4991884642472186  0.7631140333670245
  0.3345915456126605  0.6657385295508362  0.9972973278710384
  0.6660939258380623  0.3318412676532745  0.9999257633522021
  0.6602973253683615  0.6609058722431769  0.0148922068831112
  0.9921342616918238  0.3229143499569602  0.9887583725051101
  0.8347057861882377  0.8295666983654044  0.2514561084157023
  0.0019861635937772  0.0012971044898364  0.9941630942798554
  0.1508917513757524  0.4992308708655671  0.2527273476290830
  0.3393463091167845  0.3444836294576561  0.4897252081159351
  0.1605375142894587  0.5058705100668988  0.7567327546310665
  0.4940981037255767  0.4934252041720342  0.2628432640539629
  0.4955717343674735  0.8404632922335580  0.2606671022758889
  0.3395571333986283  0.9964506637459110  0.4863014672396559
  0.0060809536898461  0.3388039109511141  0.4879983933799750
  0.8361037637075626  0.8310942115818278  0.7616764333481498
  0.0034635521410280  0.6624920792787279  0.9958768757594427
  0.5090333311676645  0.1661380093533964  0.2421663587666245
  0.5030794711936935  0.1697022735451554  0.7484599947659731
  0.3350088159732465  0.3294815117540111  0.9913365060069097
  0.8346068808355227  0.1641005787956615  0.2423332373266192
  0.6712914489722337  0.3297353470300379  0.5042413052100727
  0.6652953168201563  0.6671085895975040  0.5100535884930864
  0.8216955470574874  0.4969237500040933  0.7572574773515726
  0.9923223125196259  0.6770996459276404  0.5011421883392586
  0.0011529518204370  0.0024084118614027  0.5005881867696118
  0.1632330718479977  0.0846425747369253  0.9859992349435771
  0.1656576273753743  0.0799825065954636  0.4996071246937248
  0.1656302552045830  0.4068155426060898  0.0014358119316071
  0.4993031179729144  0.0859427493033778  0.9924433978213330
  0.3303241611597443  0.2484399190827489  0.2353732767626724
  0.1707701847521221  0.4266510533090866  0.5093175866228563
  0.5123761753748042  0.0872984017788170  0.5060708055226115
  0.3353784848580617  0.2528509113462647  0.7443962322782625
  0.1767037698811151  0.7556441036237587  0.9939525999764882
  0.5009550555594444  0.4129314275463472  0.9999754395737455
  0.3239994236894788  0.5851679789355657  0.2397203103219780
  0.1680967497246257  0.7591686420121277  0.5045801849108713
  0.8388267664367532  0.0822363427856914  0.9992435617189486
  0.6693290120282072  0.2475563999999437  0.2439444634696883
  0.5159529688312432  0.4187616177964628  0.5270272191302467
  0.3394253557160027  0.5849556052323877  0.7544630652251811
  0.8386115836586043  0.0855327460127171  0.4948751654295336
  0.6676089430898386  0.2521092097707012  0.7558149088465811
  0.4991140389890703  0.7473774008783280  0.0113187166531006
  0.3239120937097439  0.9167381542926378  0.2268630374571217
  0.8283714868032632  0.4096907066533646  0.0049556201577801
  0.6624916569564050  0.5816899286842201  0.2601547463834279
  0.5067251331984934  0.7494922098965517  0.5150475022513064
  0.3332391179789909  0.9161485554137414  0.7481357251751959
  0.9948406273293173  0.2446425383884332  0.2345750353653742
  0.8299555736661759  0.4215643019902728  0.5056391676701395
  0.6600003907268004  0.5800853646446527  0.7672173104815201
  0.0064260913713170  0.2466158184485039  0.7442590446637354
  0.8224485456289727  0.7414474605047445  0.0157871081178342
  0.6752411469848951  0.9129950572783088  0.2541560321097478
  0.9851835345216315  0.5908031391728485  0.2619109845581420
  0.8286752758335041  0.7502670247300642  0.4959184063052291
  0.6610182481887747  0.9138946040595357  0.7512439287484298
  0.9849246020937699  0.5817338231980358  0.7347536170005924
  0.9932899755586604  0.9179804244892864  0.2428125173367235
  0.0112223711232744  0.9206879739863751  0.7507945373151443
  0.0841854330143263  0.1667204735291961  0.9855111150134732
  0.0850837383466541  0.1607290294405672  0.5028783940066788
  0.0739511510308759  0.4774165630748044  0.0022419203582373
  0.4181905521329696  0.1665143126934794  0.9993701977944838
  0.2482010475199843  0.3249781579495377  0.2328578527296870
  0.0729401581219946  0.5200775696254283  0.5114590415629152
  0.4218931273815656  0.1705102756306189  0.4928013517573717
  0.2517301269743299  0.3292460672514466  0.7513167498582760
  0.0888785549596562  0.8408682215451790  0.9924075629559397
  0.4175206503103723  0.5036046201685380  0.9989485943902210
  0.2459966744383522  0.6706327339705425  0.2467043598704279
  0.0866828142589355  0.8352797372381175  0.5058798836493636
  0.7477743036937241  0.1683898800467887  0.0004708848034838
  0.5870495803649760  0.3249368049230625  0.2405637411974411
  0.4255931413415865  0.5109879079909021  0.5311336498245183
  0.2553944551104266  0.6770051492842981  0.7537345844522392
  0.7545564868944084  0.1677953358916042  0.4927700761610154
  0.5848596424862791  0.3368396602668327  0.7582171909489688
  0.4107619753140455  0.8296126163505591  0.0050832261697096
  0.2453643955334215  0.0015364678814151  0.2374876248595825
  0.7418791505795141  0.4951431070927370  0.0054055498213899
  0.5800967586509813  0.6666943946466759  0.2589069000782089
  0.4219740215588459  0.8276414192303605  0.5219499234075755
  0.2493347489564215  0.0015681648232899  0.7412139875632278
  0.9112143912436323  0.3302494152840652  0.2353022495240822
  0.7476327476556861  0.5021137026408624  0.5038184235910350
  0.5810172709029189  0.6592712297005363  0.7663607612926171
  0.9173570678812482  0.3373129958532388  0.7458289025955267
  0.7493670674639574  0.8224452118917398  0.0197863400147398
  0.5928398949111156  0.0059028443441349  0.2485534038888062
  0.9093473407629418  0.6662132080233292  0.2555979174509631
  0.7564334606722696  0.8289760887771322  0.4957515082997190
  0.5840025381801013  0.0045492720458000  0.7534144370117772
  0.9110025875910921  0.6568760584070716  0.7457688542111640
  0.9161440934808383  0.9971150069130346  0.2390387715207112
  0.9241479429505048  0.0042541779087273  0.7522477432497325
  0.1605768838397310  0.0009663239151365  0.1137926269160445
  0.1664600239345688  0.9999377488561052  0.6245097835122806
  0.1629055835553501  0.3259524965149225  0.1077876000646256
  0.5017403808376670  0.0076380651800250  0.1134192007029213
  0.3364504383366125  0.1715133043662931  0.3648449748871485
  0.1710401875441292  0.3305579965796142  0.6339436113587880
  0.5084255087715803  0.0059135370874230  0.6296864259400365
  0.3352666835950302  0.1689597176993090  0.8683218175570175
  0.1752581466401324  0.6720343145258596  0.1317070972265455
  0.5050325519623726  0.3257202930797050  0.1182738583905305
  0.3189565200945736  0.5162514112877616  0.3680941351490787
  0.1650398451811910  0.6782946383248216  0.6196623781472823
  0.8420072363233331  0.9930832634858859  0.1247952808868860
  0.6707769955616385  0.1670231851081780  0.3761186795248577
  0.5070917275796063  0.3348598872146056  0.6322110649218047
  0.3367183228312385  0.4997702572642595  0.8792795096950883
  0.8408520606466325  0.0033212682346573  0.6264430974393989
  0.6663255211663923  0.1689610376528421  0.8761521205805778
  0.4950708131253947  0.6678800742069768  0.1278894000498951
  0.3196374225404739  0.8255408406123905  0.3682683894986027
  0.8280022591328873  0.3314284043038853  0.1189081852165614
  0.6660937940412737  0.4987267064204346  0.3868573010664491
  0.5053162039711481  0.6618760069036469  0.6424865588459454
  0.3287998549189339  0.8314009414617942  0.8784968308730043
  0.9944728666462481  0.1605309843802871  0.3688195422056495
  0.8339477249262472  0.3348414732274350  0.6216318930951772
  0.6599795615010535  0.4992285188712628  0.8809456199732253
  0.0077535023504467  0.1619729777000742  0.8685812752661732
  0.8267589871419858  0.6687737385246848  0.1330943040821992
  0.6734895894270139  0.8307487338652422  0.3759507513241971
  0.9779165493349069  0.5167799711006111  0.3850400236440521
  0.8277396954793232  0.6601508944906911  0.6246137649990402
  0.6614965266919910  0.8208615512005437  0.8861942835679173
  0.9838653764538776  0.4868792944118283  0.8738763632062998
  0.9968661994105119  0.8391241684987065  0.3735696888724149
  0.0129221174997056  0.8415955178883294  0.8744982241296100
  0.0741039513031225  0.0008327819634317  0.2414712124632032
  0.0879995418687827  0.0036560064455244  0.7514575700693698
  0.0787516919769473  0.3238034394167997  0.2148260853264503
  0.4175194662964898  0.0155150518052949  0.2254264471497507
  0.2564249908136205  0.1696902215627603  0.4931840913949728
  0.0870314049816017  0.3246550342365211  0.7573986207450645
  0.4191822474291556  0.0036809234776314  0.7476401615954202
  0.2478061413879900  0.1710664370598707  0.9856218608158542
  0.0813414419386831  0.6764231673114764  0.2643339847592046
  0.4157893770033638  0.3188719813797860  0.2298896022643646
  0.2449765706698841  0.5176927734455106  0.5014761038254321
  0.0880588901547341  0.6820483467133513  0.7303439500064570
  0.7586398516657482  0.9978597105400269  0.2513095633247744
  0.5898149409153319  0.1668000693252978  0.4996254817630899
  0.4218134680384154  0.3363428320916668  0.7484003310329612
  0.2511652128291999  0.4970869163466318  0.0061282598177073
  0.7544590869476835  0.0060571518445300  0.7498160312164472
  0.5856926349120855  0.1679222740596060  0.9949165351335338
  0.4103231071199147  0.6656337027615464  0.2376351907308134
  0.2430970395968828  0.8264627770688904  0.5015080789532149
  0.7470602263993484  0.3281114022054581  0.2466586451178401
  0.5864996317299855  0.5002919432956361  0.5219815628033402
  0.4212209457930882  0.6613064839744851  0.7567291147837523
  0.2503268234412062  0.8277343245124413  0.9935065184788101
  0.9207806204355364  0.1699750732930809  0.4950843936433102
  0.7458783937406039  0.3316755180935473  0.7537853536760721
  0.5792231004583925  0.4946112672601899  0.0024337448593599
  0.9201487761162923  0.1598108101205256  0.9997153075402920
  0.7473337118902137  0.6678000051270772  0.2593467669675462
  0.5892267722161932  0.8320833816075961  0.5150141181967030
  0.9047696437778541  0.5049255904644454  0.5024717038337982
  0.7428350718367369  0.6616232750386359  0.7602340852767000
  0.5807092833759171  0.8280971618009900  0.0048444837260320
  0.9089843021470472  0.4907465475484969  0.0029774063236587
  0.9166201660978999  0.8401368906237607  0.4951170470882715
  0.9233385702679300  0.8383912960529543  0.0145515284359661
  0.9985583179079072  0.1611078717594268  0.1128496266227685
  0.0075543752576834  0.1652347383325505  0.6222148313268363
  0.9828614125902533  0.4859786261072330  0.1126479857572491
  0.3334191001992579  0.1685582032864801  0.1120057874455611
  0.1754164507256277  0.3225664648813122  0.3550353550370602
  0.9836176054252022  0.5098212032389853  0.6287566158567230
  0.3379980845288415  0.1693168790171669  0.6147754372227610
  0.1621546430745937  0.3255286654181617  0.8727804309417095
  0.9948900514599899  0.8402215451175294  0.1271208941218660
  0.3245486429826698  0.5023216038344813  0.1209889927852430
  0.1665214506172106  0.6746747454223296  0.3784871542078321
  0.0095997204740996  0.8371546713337779  0.6270080892948471
  0.6711308788888886  0.1668519150273724  0.1183709167620322
  0.5154216883910578  0.3175835655683414  0.3789153042162923
  0.3385498837779650  0.5090778265342877  0.6430167324058402
  0.1773978850456785  0.6801950636515031  0.8699535921149391
  0.6697123742988467  0.1674516684137046  0.6250808651853532
  0.5039990861082728  0.3330316379185732  0.8764526890599598
  0.3277129055997889  0.8291507904219202  0.1165175466218287
  0.1618384697609159  0.0004686793069411  0.3724768143354069
  0.6635594356262047  0.4947420717123094  0.1293073877929700
  0.5104637662902078  0.6660008000955884  0.3851335215912215
  0.3322890459014403  0.8306409987083967  0.6366861255715293
  0.1622596634149147  0.0037607152098076  0.8656580180464459
  0.8307789343716578  0.3305384715704776  0.3715282965687052
  0.6628390348321389  0.5004097491845840  0.6370414144036900
  0.5014959763298990  0.6620156929151193  0.8807014946850842
  0.8289750438909422  0.3319411831991630  0.8805573984937354
  0.6725314745148552  0.8252058765271002  0.1383162597818526
  0.5160808464121160  0.0149073565749376  0.3815827400998799
  0.8309982700614071  0.6663870268804359  0.3779861581315203
  0.6648916037328547  0.8284616632333268  0.6348785172018907
  0.5027562234481948  0.0048352583685016  0.8737377878746528
  0.8218222788840066  0.6583816533136968  0.8888390231514904
  0.8402333395248363  0.9950574717709628  0.3682888038216134
  0.8431570336589402  0.0074288664035151  0.8788978565452155
  0.9957855311575869  0.0769323584062533  0.2429540813209954
  0.0088630658690860  0.0835981405680712  0.7483128340257679
  0.9826532892288071  0.4065356160892293  0.2217057683842185
  0.3341577416310457  0.0903136696377516  0.2343084030806821
  0.1755048026327302  0.2466579458928209  0.4966111279467498
  0.9869508692373969  0.4129227255991665  0.7554800218421391
  0.3375507832398839  0.0860404060234288  0.7409003538665644
  0.1648880898933882  0.2451534009251191  0.9879540155144966
  0.9977478127971011  0.7566432520287663  0.2511733851987756
  0.3224511676416526  0.4155759790106330  0.2217781208792289
  0.1702791778738302  0.5994385858689455  0.5037073534230174
  0.0129310060322680  0.7587471095333953  0.7428296922489963
  0.6735466766088081  0.0825749553737083  0.2505708632470629
  0.5082150862683079  0.2495870610057835  0.5057914883630019
  0.3397561659851931  0.4228370051726813  0.7559366815093398
  0.1789745701773739  0.5858577064911046  0.0071494319528682
  0.6668502948899260  0.0863174131076718  0.7509695033093422
  0.5031390434448397  0.2492193032497596  0.9975479159091307
  0.3250790008168565  0.7486648578897572  0.2372920630651052
  0.1610891016040981  0.9144751610556909  0.5046016066058314
  0.6665949310393131  0.4095602920142127  0.2515287885484483
  0.5091837664562888  0.5813066802861329  0.5223082949689655
  0.3292645941696506  0.7491012988231844  0.7529548582187715
  0.1620347931961135  0.9194244010812582  0.9921669316116635
  0.8352653794716360  0.2517410416537089  0.4963045175066227
  0.6595557088908492  0.4156092442849513  0.7569252476003854
  0.4941646416528016  0.5776891423492998  0.0038112380767856
  0.8282147340031969  0.2522509555882522  0.9983317052389822
  0.6686607927627435  0.7527534931927846  0.2535165464154190
  0.5152501850814701  0.9176599603030198  0.5213642471159190
  0.8222596677336895  0.5813293181976604  0.5080431295477084
  0.6640054356143708  0.7457145090422728  0.7679507571787525
  0.5013472821268294  0.9228581557837572  0.9998504244555022
  0.8274504992432838  0.5769568385046071  0.9980089637467984
  0.8413891008313428  0.9152733471941943  0.4892317305162379
  0.8403086740889592  0.9170849445862714  0.0213752307895945
 
  0.00000000E+00  0.00000000E+00  0.00000000E+00
  0.00000000E+00  0.00000000E+00  0.00000000E+00
  0.00000000E+00  0.00000000E+00  0.00000000E+00
  0.00000000E+00  0.00000000E+00  0.00000000E+00
  0.00000000E+00  0.00000000E+00  0.00000000E+00
  0.00000000E+00  0.00000000E+00  0.00000000E+00
  0.00000000E+00  0.00000000E+00  0.00000000E+00
  0.00000000E+00  0.00000000E+00  0.00000000E+00
  0.00000000E+00  0.00000000E+00  0.00000000E+00
  0.00000000E+00  0.00000000E+00  0.00000000E+00
  0.00000000E+00  0.00000000E+00  0.00000000E+00
  0.00000000E+00  0.00000000E+00  0.00000000E+00
  0.00000000E+00  0.00000000E+00  0.00000000E+00
  0.00000000E+00  0.00000000E+00  0.00000000E+00
  0.00000000E+00  0.00000000E+00  0.00000000E+00
  0.00000000E+00  0.00000000E+00  0.00000000E+00
  0.00000000E+00  0.00000000E+00  0.00000000E+00
  0.00000000E+00  0.00000000E+00  0.00000000E+00
  0.00000000E+00  0.00000000E+00  0.00000000E+00
  0.00000000E+00  0.00000000E+00  0.00000000E+00
  0.00000000E+00  0.00000000E+00  0.00000000E+00
  0.00000000E+00  0.00000000E+00  0.00000000E+00
  0.00000000E+00  0.00000000E+00  0.00000000E+00
  0.00000000E+00  0.00000000E+00  0.00000000E+00
  0.00000000E+00  0.00000000E+00  0.00000000E+00
  0.00000000E+00  0.00000000E+00  0.00000000E+00
  0.00000000E+00  0.00000000E+00  0.00000000E+00
  0.00000000E+00  0.00000000E+00  0.00000000E+00
  0.00000000E+00  0.00000000E+00  0.00000000E+00
  0.00000000E+00  0.00000000E+00  0.00000000E+00
  0.00000000E+00  0.00000000E+00  0.00000000E+00
  0.00000000E+00  0.00000000E+00  0.00000000E+00
  0.00000000E+00  0.00000000E+00  0.00000000E+00
  0.00000000E+00  0.00000000E+00  0.00000000E+00
  0.00000000E+00  0.00000000E+00  0.00000000E+00
  0.00000000E+00  0.00000000E+00  0.00000000E+00
  0.00000000E+00  0.00000000E+00  0.00000000E+00
  0.00000000E+00  0.00000000E+00  0.00000000E+00
  0.00000000E+00  0.00000000E+00  0.00000000E+00
  0.00000000E+00  0.00000000E+00  0.00000000E+00
  0.00000000E+00  0.00000000E+00  0.00000000E+00
  0.00000000E+00  0.00000000E+00  0.00000000E+00
  0.00000000E+00  0.00000000E+00  0.00000000E+00
  0.00000000E+00  0.00000000E+00  0.00000000E+00
  0.00000000E+00  0.00000000E+00  0.00000000E+00
  0.00000000E+00  0.00000000E+00  0.00000000E+00
  0.00000000E+00  0.00000000E+00  0.00000000E+00
  0.00000000E+00  0.00000000E+00  0.00000000E+00
  0.00000000E+00  0.00000000E+00  0.00000000E+00
  0.00000000E+00  0.00000000E+00  0.00000000E+00
  0.00000000E+00  0.00000000E+00  0.00000000E+00
  0.00000000E+00  0.00000000E+00  0.00000000E+00
  0.00000000E+00  0.00000000E+00  0.00000000E+00
  0.00000000E+00  0.00000000E+00  0.00000000E+00
  0.00000000E+00  0.00000000E+00  0.00000000E+00
  0.00000000E+00  0.00000000E+00  0.00000000E+00
  0.00000000E+00  0.00000000E+00  0.00000000E+00
  0.00000000E+00  0.00000000E+00  0.00000000E+00
  0.00000000E+00  0.00000000E+00  0.00000000E+00
  0.00000000E+00  0.00000000E+00  0.00000000E+00
  0.00000000E+00  0.00000000E+00  0.00000000E+00
  0.00000000E+00  0.00000000E+00  0.00000000E+00
  0.00000000E+00  0.00000000E+00  0.00000000E+00
  0.00000000E+00  0.00000000E+00  0.00000000E+00
  0.00000000E+00  0.00000000E+00  0.00000000E+00
  0.00000000E+00  0.00000000E+00  0.00000000E+00
  0.00000000E+00  0.00000000E+00  0.00000000E+00
  0.00000000E+00  0.00000000E+00  0.00000000E+00
  0.00000000E+00  0.00000000E+00  0.00000000E+00
  0.00000000E+00  0.00000000E+00  0.00000000E+00
  0.00000000E+00  0.00000000E+00  0.00000000E+00
  0.00000000E+00  0.00000000E+00  0.00000000E+00
  0.00000000E+00  0.00000000E+00  0.00000000E+00
  0.00000000E+00  0.00000000E+00  0.00000000E+00
  0.00000000E+00  0.00000000E+00  0.00000000E+00
  0.00000000E+00  0.00000000E+00  0.00000000E+00
  0.00000000E+00  0.00000000E+00  0.00000000E+00
  0.00000000E+00  0.00000000E+00  0.00000000E+00
  0.00000000E+00  0.00000000E+00  0.00000000E+00
  0.00000000E+00  0.00000000E+00  0.00000000E+00
  0.00000000E+00  0.00000000E+00  0.00000000E+00
  0.00000000E+00  0.00000000E+00  0.00000000E+00
  0.00000000E+00  0.00000000E+00  0.00000000E+00
  0.00000000E+00  0.00000000E+00  0.00000000E+00
  0.00000000E+00  0.00000000E+00  0.00000000E+00
  0.00000000E+00  0.00000000E+00  0.00000000E+00
  0.00000000E+00  0.00000000E+00  0.00000000E+00
  0.00000000E+00  0.00000000E+00  0.00000000E+00
  0.00000000E+00  0.00000000E+00  0.00000000E+00
  0.00000000E+00  0.00000000E+00  0.00000000E+00
  0.00000000E+00  0.00000000E+00  0.00000000E+00
  0.00000000E+00  0.00000000E+00  0.00000000E+00
  0.00000000E+00  0.00000000E+00  0.00000000E+00
  0.00000000E+00  0.00000000E+00  0.00000000E+00
  0.00000000E+00  0.00000000E+00  0.00000000E+00
  0.00000000E+00  0.00000000E+00  0.00000000E+00
  0.00000000E+00  0.00000000E+00  0.00000000E+00
  0.00000000E+00  0.00000000E+00  0.00000000E+00
  0.00000000E+00  0.00000000E+00  0.00000000E+00
  0.00000000E+00  0.00000000E+00  0.00000000E+00
  0.00000000E+00  0.00000000E+00  0.00000000E+00
  0.00000000E+00  0.00000000E+00  0.00000000E+00
  0.00000000E+00  0.00000000E+00  0.00000000E+00
  0.00000000E+00  0.00000000E+00  0.00000000E+00
  0.00000000E+00  0.00000000E+00  0.00000000E+00
  0.00000000E+00  0.00000000E+00  0.00000000E+00
  0.00000000E+00  0.00000000E+00  0.00000000E+00
  0.00000000E+00  0.00000000E+00  0.00000000E+00
  0.00000000E+00  0.00000000E+00  0.00000000E+00
  0.00000000E+00  0.00000000E+00  0.00000000E+00
  0.00000000E+00  0.00000000E+00  0.00000000E+00
  0.00000000E+00  0.00000000E+00  0.00000000E+00
  0.00000000E+00  0.00000000E+00  0.00000000E+00
  0.00000000E+00  0.00000000E+00  0.00000000E+00
  0.00000000E+00  0.00000000E+00  0.00000000E+00
  0.00000000E+00  0.00000000E+00  0.00000000E+00
  0.00000000E+00  0.00000000E+00  0.00000000E+00
  0.00000000E+00  0.00000000E+00  0.00000000E+00
  0.00000000E+00  0.00000000E+00  0.00000000E+00
  0.00000000E+00  0.00000000E+00  0.00000000E+00
  0.00000000E+00  0.00000000E+00  0.00000000E+00
  0.00000000E+00  0.00000000E+00  0.00000000E+00
  0.00000000E+00  0.00000000E+00  0.00000000E+00
  0.00000000E+00  0.00000000E+00  0.00000000E+00
  0.00000000E+00  0.00000000E+00  0.00000000E+00
  0.00000000E+00  0.00000000E+00  0.00000000E+00
  0.00000000E+00  0.00000000E+00  0.00000000E+00
  0.00000000E+00  0.00000000E+00  0.00000000E+00
  0.00000000E+00  0.00000000E+00  0.00000000E+00
  0.00000000E+00  0.00000000E+00  0.00000000E+00
  0.00000000E+00  0.00000000E+00  0.00000000E+00
  0.00000000E+00  0.00000000E+00  0.00000000E+00
  0.00000000E+00  0.00000000E+00  0.00000000E+00
  0.00000000E+00  0.00000000E+00  0.00000000E+00
  0.00000000E+00  0.00000000E+00  0.00000000E+00
  0.00000000E+00  0.00000000E+00  0.00000000E+00
  0.00000000E+00  0.00000000E+00  0.00000000E+00
  0.00000000E+00  0.00000000E+00  0.00000000E+00
  0.00000000E+00  0.00000000E+00  0.00000000E+00
  0.00000000E+00  0.00000000E+00  0.00000000E+00
  0.00000000E+00  0.00000000E+00  0.00000000E+00
  0.00000000E+00  0.00000000E+00  0.00000000E+00
  0.00000000E+00  0.00000000E+00  0.00000000E+00
  0.00000000E+00  0.00000000E+00  0.00000000E+00
  0.00000000E+00  0.00000000E+00  0.00000000E+00
  0.00000000E+00  0.00000000E+00  0.00000000E+00
  0.00000000E+00  0.00000000E+00  0.00000000E+00
  0.00000000E+00  0.00000000E+00  0.00000000E+00
  0.00000000E+00  0.00000000E+00  0.00000000E+00
  0.00000000E+00  0.00000000E+00  0.00000000E+00
  0.00000000E+00  0.00000000E+00  0.00000000E+00
  0.00000000E+00  0.00000000E+00  0.00000000E+00
  0.00000000E+00  0.00000000E+00  0.00000000E+00
  0.00000000E+00  0.00000000E+00  0.00000000E+00
  0.00000000E+00  0.00000000E+00  0.00000000E+00
  0.00000000E+00  0.00000000E+00  0.00000000E+00
  0.00000000E+00  0.00000000E+00  0.00000000E+00
  0.00000000E+00  0.00000000E+00  0.00000000E+00
  0.00000000E+00  0.00000000E+00  0.00000000E+00
  0.00000000E+00  0.00000000E+00  0.00000000E+00
  0.00000000E+00  0.00000000E+00  0.00000000E+00
  0.00000000E+00  0.00000000E+00  0.00000000E+00
  0.00000000E+00  0.00000000E+00  0.00000000E+00
  0.00000000E+00  0.00000000E+00  0.00000000E+00
  0.00000000E+00  0.00000000E+00  0.00000000E+00
  0.00000000E+00  0.00000000E+00  0.00000000E+00
  0.00000000E+00  0.00000000E+00  0.00000000E+00
  0.00000000E+00  0.00000000E+00  0.00000000E+00
  0.00000000E+00  0.00000000E+00  0.00000000E+00
  0.00000000E+00  0.00000000E+00  0.00000000E+00
  0.00000000E+00  0.00000000E+00  0.00000000E+00
  0.00000000E+00  0.00000000E+00  0.00000000E+00
  0.00000000E+00  0.00000000E+00  0.00000000E+00
  0.00000000E+00  0.00000000E+00  0.00000000E+00
  0.00000000E+00  0.00000000E+00  0.00000000E+00
  0.00000000E+00  0.00000000E+00  0.00000000E+00
  0.00000000E+00  0.00000000E+00  0.00000000E+00
  0.00000000E+00  0.00000000E+00  0.00000000E+00
  0.00000000E+00  0.00000000E+00  0.00000000E+00
  0.00000000E+00  0.00000000E+00  0.00000000E+00
  0.00000000E+00  0.00000000E+00  0.00000000E+00
  0.00000000E+00  0.00000000E+00  0.00000000E+00
  0.00000000E+00  0.00000000E+00  0.00000000E+00
  0.00000000E+00  0.00000000E+00  0.00000000E+00
  0.00000000E+00  0.00000000E+00  0.00000000E+00
  0.00000000E+00  0.00000000E+00  0.00000000E+00
  0.00000000E+00  0.00000000E+00  0.00000000E+00
  0.00000000E+00  0.00000000E+00  0.00000000E+00
  0.00000000E+00  0.00000000E+00  0.00000000E+00
  0.00000000E+00  0.00000000E+00  0.00000000E+00
  0.00000000E+00  0.00000000E+00  0.00000000E+00
  0.00000000E+00  0.00000000E+00  0.00000000E+00
  0.00000000E+00  0.00000000E+00  0.00000000E+00
  0.00000000E+00  0.00000000E+00  0.00000000E+00
  0.00000000E+00  0.00000000E+00  0.00000000E+00
  0.00000000E+00  0.00000000E+00  0.00000000E+00
  0.00000000E+00  0.00000000E+00  0.00000000E+00
  0.00000000E+00  0.00000000E+00  0.00000000E+00
  0.00000000E+00  0.00000000E+00  0.00000000E+00
  0.00000000E+00  0.00000000E+00  0.00000000E+00
  0.00000000E+00  0.00000000E+00  0.00000000E+00
  0.00000000E+00  0.00000000E+00  0.00000000E+00
  0.00000000E+00  0.00000000E+00  0.00000000E+00
  0.00000000E+00  0.00000000E+00  0.00000000E+00
  0.00000000E+00  0.00000000E+00  0.00000000E+00
  0.00000000E+00  0.00000000E+00  0.00000000E+00
  0.00000000E+00  0.00000000E+00  0.00000000E+00
  0.00000000E+00  0.00000000E+00  0.00000000E+00
  0.00000000E+00  0.00000000E+00  0.00000000E+00
  0.00000000E+00  0.00000000E+00  0.00000000E+00
  0.00000000E+00  0.00000000E+00  0.00000000E+00
  0.00000000E+00  0.00000000E+00  0.00000000E+00
  0.00000000E+00  0.00000000E+00  0.00000000E+00
  0.00000000E+00  0.00000000E+00  0.00000000E+00
  0.00000000E+00  0.00000000E+00  0.00000000E+00
  0.00000000E+00  0.00000000E+00  0.00000000E+00
  0.00000000E+00  0.00000000E+00  0.00000000E+00
  0.00000000E+00  0.00000000E+00  0.00000000E+00
  0.00000000E+00  0.00000000E+00  0.00000000E+00
  0.00000000E+00  0.00000000E+00  0.00000000E+00
  0.00000000E+00  0.00000000E+00  0.00000000E+00
  0.00000000E+00  0.00000000E+00  0.00000000E+00
  0.00000000E+00  0.00000000E+00  0.00000000E+00
  0.00000000E+00  0.00000000E+00  0.00000000E+00
  0.00000000E+00  0.00000000E+00  0.00000000E+00
  0.00000000E+00  0.00000000E+00  0.00000000E+00
  0.00000000E+00  0.00000000E+00  0.00000000E+00
  0.00000000E+00  0.00000000E+00  0.00000000E+00
  0.00000000E+00  0.00000000E+00  0.00000000E+00
  0.00000000E+00  0.00000000E+00  0.00000000E+00
  0.00000000E+00  0.00000000E+00  0.00000000E+00
  0.00000000E+00  0.00000000E+00  0.00000000E+00
  0.00000000E+00  0.00000000E+00  0.00000000E+00
  0.00000000E+00  0.00000000E+00  0.00000000E+00
  0.00000000E+00  0.00000000E+00  0.00000000E+00
  0.00000000E+00  0.00000000E+00  0.00000000E+00
  0.00000000E+00  0.00000000E+00  0.00000000E+00
  0.00000000E+00  0.00000000E+00  0.00000000E+00
  0.00000000E+00  0.00000000E+00  0.00000000E+00
  0.00000000E+00  0.00000000E+00  0.00000000E+00
  0.00000000E+00  0.00000000E+00  0.00000000E+00
  0.00000000E+00  0.00000000E+00  0.00000000E+00
  0.00000000E+00  0.00000000E+00  0.00000000E+00
  0.00000000E+00  0.00000000E+00  0.00000000E+00
  0.00000000E+00  0.00000000E+00  0.00000000E+00
  0.00000000E+00  0.00000000E+00  0.00000000E+00
  0.00000000E+00  0.00000000E+00  0.00000000E+00
  0.00000000E+00  0.00000000E+00  0.00000000E+00
  0.00000000E+00  0.00000000E+00  0.00000000E+00
  0.00000000E+00  0.00000000E+00  0.00000000E+00
  0.00000000E+00  0.00000000E+00  0.00000000E+00
  0.00000000E+00  0.00000000E+00  0.00000000E+00
