generated by phonopy                    
   1.00000000000000     
     0.0000000000000000    3.4631518197441156    3.4631518197441711
     3.4631518197441391    0.0000000000000000    3.4631518197441711
     3.4631518197441391    3.4631518197441156    0.0000000000000000
   Ca   Y    Sc   Ce   H 
     1     1     1     1    24
Direct
  0.2500000000000000  0.2500000000000000  0.2500000000000000
  0.7500000000000000  0.7500000000000000  0.7500000000000000
  0.0000000000000000  0.0000000000000000  0.0000000000000000
  0.5000000000000000  0.5000000000000000  0.5000000000000000
  0.1248195840440474  0.8840720367537500  0.6304888886843898
  0.8840720367537500  0.1248195840440474  0.3606194905178128
  0.6304888886843898  0.3606194905178128  0.1248195840440474
  0.3606194905178128  0.6304888886843898  0.8840720367537500
  0.6304888886843898  0.1248195840440474  0.8840720367537500
  0.3606194905178128  0.8840720367537500  0.1248195840440474
  0.1248195840440474  0.6304888886843898  0.3606194905178128
  0.8840720367537500  0.3606194905178128  0.6304888886843898
  0.8840720367537500  0.6304888886843898  0.1248195840440474
  0.1248195840440474  0.3606194905178128  0.8840720367537500
  0.3606194905178128  0.1248195840440474  0.6304888886843898
  0.6304888886843898  0.8840720367537500  0.3606194905178128
  0.1248195840440474  0.3606194905178128  0.6304888886843898
  0.3606194905178128  0.1248195840440474  0.8840720367537500
  0.6304888886843898  0.8840720367537500  0.1248195840440474
  0.8840720367537500  0.6304888886843898  0.3606194905178128
  0.6304888886843898  0.1248195840440474  0.3606194905178128
  0.8840720367537500  0.3606194905178128  0.1248195840440474
  0.1248195840440474  0.6304888886843898  0.8840720367537500
  0.3606194905178128  0.8840720367537500  0.6304888886843898
  0.3606194905178128  0.6304888886843898  0.1248195840440474
  0.1248195840440474  0.8840720367537500  0.3606194905178128
  0.8840720367537500  0.1248195840440474  0.6304888886843898
  0.6304888886843898  0.3606194905178128  0.8840720367537500
 
  0.00000000E+00  0.00000000E+00  0.00000000E+00
  0.00000000E+00  0.00000000E+00  0.00000000E+00
  0.00000000E+00  0.00000000E+00  0.00000000E+00
  0.00000000E+00  0.00000000E+00  0.00000000E+00
  0.00000000E+00  0.00000000E+00  0.00000000E+00
  0.00000000E+00  0.00000000E+00  0.00000000E+00
  0.00000000E+00  0.00000000E+00  0.00000000E+00
  0.00000000E+00  0.00000000E+00  0.00000000E+00
  0.00000000E+00  0.00000000E+00  0.00000000E+00
  0.00000000E+00  0.00000000E+00  0.00000000E+00
  0.00000000E+00  0.00000000E+00  0.00000000E+00
  0.00000000E+00  0.00000000E+00  0.00000000E+00
  0.00000000E+00  0.00000000E+00  0.00000000E+00
  0.00000000E+00  0.00000000E+00  0.00000000E+00
  0.00000000E+00  0.00000000E+00  0.00000000E+00
  0.00000000E+00  0.00000000E+00  0.00000000E+00
  0.00000000E+00  0.00000000E+00  0.00000000E+00
  0.00000000E+00  0.00000000E+00  0.00000000E+00
  0.00000000E+00  0.00000000E+00  0.00000000E+00
  0.00000000E+00  0.00000000E+00  0.00000000E+00
  0.00000000E+00  0.00000000E+00  0.00000000E+00
  0.00000000E+00  0.00000000E+00  0.00000000E+00
  0.00000000E+00  0.00000000E+00  0.00000000E+00
  0.00000000E+00  0.00000000E+00  0.00000000E+00
  0.00000000E+00  0.00000000E+00  0.00000000E+00
  0.00000000E+00  0.00000000E+00  0.00000000E+00
  0.00000000E+00  0.00000000E+00  0.00000000E+00
  0.00000000E+00  0.00000000E+00  0.00000000E+00
