generated by phonopy                    
   1.00000000000000     
     0.0000000000000000    3.4269087261886653    3.4269087261887106
     3.4269087261886844    0.0000000000000000    3.4269087261887106
     3.4269087261886844    3.4269087261886653    0.0000000000000000
   Ca   Y    Sc   Zr   H 
     1     1     1     1    24
Direct
  0.2500000000000000  0.2500000000000000  0.2500000000000000
  0.7500000000000000  0.7500000000000000  0.7500000000000000
  0.0000000000000000  0.0000000000000000  0.0000000000000000
  0.5000000000000000  0.5000000000000000  0.5000000000000000
  0.1221252183602530  0.8862544600875353  0.6239656669927172
  0.8862544600875353  0.1221252183602530  0.3676546545594874
  0.6239656669927172  0.3676546545594874  0.1221252183602530
  0.3676546545594874  0.6239656669927172  0.8862544600875353
  0.6239656669927172  0.1221252183602530  0.8862544600875353
  0.3676546545594874  0.8862544600875353  0.1221252183602530
  0.1221252183602530  0.6239656669927172  0.3676546545594874
  0.8862544600875353  0.3676546545594874  0.6239656669927172
  0.8862544600875353  0.6239656669927172  0.1221252183602530
  0.1221252183602530  0.3676546545594874  0.8862544600875353
  0.3676546545594874  0.1221252183602530  0.6239656669927172
  0.6239656669927172  0.8862544600875353  0.3676546545594874
  0.1221252183602530  0.3676546545594874  0.6239656669927172
  0.3676546545594874  0.1221252183602530  0.8862544600875353
  0.6239656669927172  0.8862544600875353  0.1221252183602530
  0.8862544600875353  0.6239656669927172  0.3676546545594874
  0.6239656669927172  0.1221252183602530  0.3676546545594874
  0.8862544600875353  0.3676546545594874  0.1221252183602530
  0.1221252183602530  0.6239656669927172  0.8862544600875353
  0.3676546545594874  0.8862544600875353  0.6239656669927172
  0.3676546545594874  0.6239656669927172  0.1221252183602530
  0.1221252183602530  0.8862544600875353  0.3676546545594874
  0.8862544600875353  0.1221252183602530  0.6239656669927172
  0.6239656669927172  0.3676546545594874  0.8862544600875353
 
  0.00000000E+00  0.00000000E+00  0.00000000E+00
  0.00000000E+00  0.00000000E+00  0.00000000E+00
  0.00000000E+00  0.00000000E+00  0.00000000E+00
  0.00000000E+00  0.00000000E+00  0.00000000E+00
  0.00000000E+00  0.00000000E+00  0.00000000E+00
  0.00000000E+00  0.00000000E+00  0.00000000E+00
  0.00000000E+00  0.00000000E+00  0.00000000E+00
  0.00000000E+00  0.00000000E+00  0.00000000E+00
  0.00000000E+00  0.00000000E+00  0.00000000E+00
  0.00000000E+00  0.00000000E+00  0.00000000E+00
  0.00000000E+00  0.00000000E+00  0.00000000E+00
  0.00000000E+00  0.00000000E+00  0.00000000E+00
  0.00000000E+00  0.00000000E+00  0.00000000E+00
  0.00000000E+00  0.00000000E+00  0.00000000E+00
  0.00000000E+00  0.00000000E+00  0.00000000E+00
  0.00000000E+00  0.00000000E+00  0.00000000E+00
  0.00000000E+00  0.00000000E+00  0.00000000E+00
  0.00000000E+00  0.00000000E+00  0.00000000E+00
  0.00000000E+00  0.00000000E+00  0.00000000E+00
  0.00000000E+00  0.00000000E+00  0.00000000E+00
  0.00000000E+00  0.00000000E+00  0.00000000E+00
  0.00000000E+00  0.00000000E+00  0.00000000E+00
  0.00000000E+00  0.00000000E+00  0.00000000E+00
  0.00000000E+00  0.00000000E+00  0.00000000E+00
  0.00000000E+00  0.00000000E+00  0.00000000E+00
  0.00000000E+00  0.00000000E+00  0.00000000E+00
  0.00000000E+00  0.00000000E+00  0.00000000E+00
  0.00000000E+00  0.00000000E+00  0.00000000E+00
