POSCAR                                  
   1.00000000000000     
     9.8371203705747945   -0.0221373324303831   -0.0346563428998430
    -0.0221363254981234    9.8425482550992598    0.0116152797257492
    -0.0231034254714802    0.0077407633011013    6.5567582401341031
   Zr   Hf   Mg   Na   H 
     9     9     9     9   216
Direct
  0.1633067401033799  0.1640966322966904  0.2499904295958686
  0.1629726472793180  0.8331121492461406  0.2470179481737489
  0.3448383326810642  0.6610436804720692  0.5042685351367240
  0.3337940648625235  0.9994767599893848  0.4982694339337925
  0.8192462088742190  0.4962979222648229  0.2572525904141827
  0.9928607347971052  0.3287512300556443  0.5035151654833285
  0.8315605547198004  0.5112771784121080  0.7531120174342476
  0.6726436177823842  0.9956479383319206  0.4884414121048550
  0.9958041046658010  0.6768305524530405  0.5033849649360960
  0.1686218603724043  0.1690624391534001  0.7516225459678836
  0.1717965199087246  0.5009564509602740  0.2544476894225056
  0.5091887491194953  0.1659489573996140  0.7446603928135644
  0.3475734225629381  0.3351669166267186  0.0020627789226779
  0.3295974959732391  0.6664338261359717  0.9904957551685598
  0.8290786723562462  0.1540608357148727  0.7568144250941771
  0.3370699251066469  0.9966506411759752  0.9971338350428525
  0.6702385321634097  0.6748930509428703  0.0030281878611333
  0.9945978437324570  0.3339805909570117  0.0033721059502838
  0.5079049066856243  0.1657417930564620  0.2500448402626745
  0.3384757830266381  0.3340435137513609  0.4980985104755078
  0.1649796667671879  0.5022834400742227  0.7502052571058755
  0.1646882482823600  0.8328384305704759  0.7511898066840743
  0.6623766068141066  0.3356455775657494  0.4972176769375380
  0.5014351002181101  0.5010164006064741  0.7482802380626978
  0.6629329640521533  0.3291234934431060  0.0034944916415043
  0.6622105377854055  0.6674813128141466  0.4985600322608690
  0.8311654273909710  0.8405173604304039  0.2490138153358785
  0.4999365720457263  0.4993922168546874  0.2505443182007454
  0.8306112222064286  0.1659548091718719  0.2480290667634932
  0.5063666456495071  0.8308775507177018  0.2463603941262633
  0.5032008133435752  0.8294388971509434  0.7477727987013765
  0.8323865552702898  0.8347961528492505  0.7449149740042387
  0.6693897833858244  0.9997717539332882  0.0014067866512804
  0.9972186822913542  0.6702190689709653  0.0000995895670286
  0.9984102165076436  0.9991743628601384  0.5019560690829437
  0.9941847628228970  0.9963046394050465  0.0009835120383670
  0.1583526675799689  0.0781128011468368  0.9972750970300481
  0.1593358550216522  0.0783486333690178  0.5044463116827629
  0.1683612643732175  0.4170211286709531  0.9915818773597280
  0.5080195364912470  0.0796599785652532  0.0089001101201944
  0.3380519995067246  0.2485326788217961  0.2575681704945012
  0.1684951750528754  0.4158618322428680  0.5089644106749205
  0.5051327120695177  0.0826813193375031  0.4813504964930644
  0.3389818624718828  0.2531911299290144  0.7365496241023664
  0.1554997809477499  0.7505920444589833  0.9848930412068526
  0.5138083096721573  0.4193615032014790  0.9997244384218575
  0.3425747654788438  0.5826324606047351  0.2466173517453782
  0.1721138462645797  0.7532343539071320  0.5138250147494858
  0.8339031705440618  0.0787590103922469  0.0186934303187272
  0.6672734375724048  0.2491912566307519  0.2559462016362559
  0.5045782528818634  0.4165445901176241  0.4999155417964332
  0.3328740323096184  0.5713670256028394  0.7483654274488600
  0.8393849794955131  0.0816699709308253  0.4793118077936356
  0.6703604801139988  0.2569983123462833  0.7469167498995475
  0.4981976613777093  0.7541438099319464  0.9960850622642567
  0.3464757105226042  0.9083140900737448  0.2456873498926910
  0.8223485788472402  0.4177553475513989  0.9988367126803581
  0.6572559589631908  0.5843060291436259  0.2612359544067573
  0.5075718405878717  0.7525889577636846  0.4991115676996287
  0.3381510685568898  0.9117623661146226  0.7489668318010843
  0.9913618270906710  0.2476759322314948  0.2529110679880020
  0.8183849942882802  0.4143021816750334  0.5105927907743180
  0.6554121643654085  0.5842596927783532  0.7415680637149364
  0.9954547836968786  0.2501235976818705  0.7537092317370124
  0.8372507889451484  0.7536411288433484  0.0041892913338373
  0.6703482835885310  0.9139246507232386  0.2373120904514963
  0.9902160942837455  0.5868286374591065  0.2437609941200023
  0.8214834088159719  0.7552812283941392  0.4949272382059746
  0.6682020156908948  0.9129728663789862  0.7529646560376690
  0.0113017089843765  0.5854247736642222  0.7606897743788608
  0.9872155856626961  0.9219304202868699  0.2510751603714851
  0.0003943253517420  0.9201876329843870  0.7522622723850105
  0.0816391582462188  0.1583909322619803  0.9991685908044374
  0.0796973866933541  0.1598041977867979  0.5015559564473193
  0.0806427475621661  0.5053837902551948  0.9994900420089010
  0.4221786806981314  0.1653781577510216  0.0105594625224725
  0.2527319496545317  0.3290444333531894  0.2606236396394408
  0.0802824569184111  0.5031178635696563  0.5116817907900710
  0.4190918138323738  0.1739469733472845  0.4868958987142733
  0.2518104930822673  0.3452971244096332  0.7433461961985017
  0.0812316592403945  0.8334060281955686  0.9862353748377757
  0.4262569020357461  0.5046172228899337  0.9960644453598277
  0.2507113482331889  0.6706027375681600  0.2586906263642632
  0.0817681090519216  0.8425938101352770  0.5163983873551246
  0.7465329179408329  0.1663979925706016  0.0107211376136007
  0.5822000741107303  0.3352558556729193  0.2552707571139265
  0.4222483444666594  0.4902119374973495  0.5022631983297217
  0.2445719571736475  0.6627832359839232  0.7421828671815689
  0.7501526711676973  0.1691263276513766  0.4900654790018280
  0.5880185503091582  0.3444404984265930  0.7406150827861211
  0.4225168565993442  0.8276300988915466  0.9977747267336383
  0.2505898140074905  0.9986932466497649  0.2461900348032557
  0.7428593653431008  0.4874943449892584  0.9973939718652716
  0.5788638847697172  0.6645176667558061  0.2539323622264575
  0.4209570500624551  0.8330663689438822  0.4973786107181439
  0.2479924392583968  0.9902701764565407  0.7481937626722512
  0.9099178786895337  0.3264345055685922  0.2520393623071584
  0.7412417650345375  0.5040806018722250  0.5084095608594694
  0.5824960485476396  0.6641769418259855  0.7475366369589977
  0.9080299608736624  0.3318002673373144  0.7529858675877179
  0.7550790888075198  0.8441352804353173  0.9932891534249251
  0.5824207564354822  0.9976994837959197  0.2383684098966725
  0.9153159892596747  0.6786009500787387  0.2466836820106764
  0.7514895565131781  0.8269112452819272  0.4961784615177862
  0.5837636051920683  0.9884414442402019  0.7606167552713003
  0.9154695878387002  0.6800968614182423  0.7626177977184483
  0.9200432021786256  0.9965171848204122  0.2517979996404520
  0.9213152127499029  0.9893636820012759  0.7504432793468681
  0.1546559131013296  0.9982851462904350  0.1203064615652565
  0.1628684798955007  0.9927115982963599  0.6258337947721699
  0.1723491722215655  0.3345710031333908  0.1261105878246127
  0.5106008920539793  0.9999747990946304  0.1272916354162632
  0.3433914430239540  0.1713657198262979  0.3722428218798086
  0.1719993220361715  0.3416695387590067  0.6247219837327620
  0.5034836478043871  0.9920733567025479  0.6236741528748766
  0.3407572163335217  0.1686872538014157  0.8743931636805300
  0.1581690667275666  0.6662711605659268  0.1212878995759894
  0.5131257164739012  0.3305132417238923  0.1331374395394462
  0.3419787528797897  0.4923230953599074  0.3776317846614319
  0.1666712076812757  0.6709353261221551  0.6285103150045330
  0.8294921394489521  0.0023583660485755  0.1244721444464574
  0.6682093001584946  0.1785096880056045  0.3702378624747169
  0.5011123116187335  0.3344897620358367  0.6199814429798280
  0.3327822915031007  0.4960009141581381  0.8627579822981986
  0.8395661304829858  0.9910924769747922  0.6221831239740467
  0.6660777554706954  0.1653730599647005  0.8880814849543270
  0.4997593914413656  0.6650915263588644  0.1265997213031369
  0.3414277467755298  0.8291871918886216  0.3722075134677567
  0.8203083476151960  0.3255635936713972  0.1251193317551298
  0.6546909370983158  0.5014902054704820  0.3783895789354688
  0.5111294536127602  0.6639285119145200  0.6292299446872605
  0.3356171578447942  0.8336167182413874  0.8626231363565040
  0.9887114401279788  0.1592685112754282  0.3766080198300870
  0.8153997718341017  0.3364010679706908  0.6301491791779199
  0.6592504070206360  0.4977592298815665  0.8754316854547213
  0.0001100904109705  0.1589144829851392  0.8797127430575813
  0.8373343107176723  0.6811842324444299  0.1276797883973302
  0.6639870227379490  0.8216399750662688  0.3719053973837489
  0.9969210580902796  0.5057923226632042  0.3773165047886309
  0.8203642000834250  0.6764472672523496  0.6227947135392640
  0.6729356827964423  0.8383917788248496  0.8732599189898451
  0.0031157867653064  0.5091390898157258  0.8777018635761067
  0.9959580712337086  0.8418729627836896  0.3736382552233195
  0.9884444671813171  0.8329516069646488  0.8803172508221806
  0.0782652488758515  0.9969423779428510  0.2483751093494817
  0.0799588866344934  0.9910903295105129  0.7536636687264036
  0.0835008280312550  0.3349405305875095  0.2570733541210330
  0.4235306417901370  0.9917094481367670  0.2504121825908641
  0.2545988168433766  0.1732519059784536  0.4959433129651245
  0.0838819341873744  0.3441632038827649  0.7510934787818968
  0.4234984326256139  0.9902257297258927  0.7473325050520856
  0.2547134485543339  0.1676216386038902  0.0084318645188901
  0.0773926505981635  0.6666175957728697  0.2398075149798942
  0.4215908220208817  0.3351290879423274  0.2647960573789589
  0.2495348956021033  0.4933532225514696  0.5194768942633559
  0.0802349108231084  0.6735938126727490  0.7572716385971106
  0.7539633621277204  0.0049710951422668  0.2329047373699211
  0.5862006572559650  0.1701823093139652  0.4834318100477617
  0.4224366078210053  0.3410381847658073  0.7299863530138566
  0.2481331264894777  0.4954102980532653  0.9802639550837924
  0.7475797170221981  0.9877316054841287  0.7616743643196457
  0.5849922739227225  0.1634262341419941  0.0119462805767299
  0.4229184745737413  0.6665200742716522  0.2469768008785920
  0.2492557321394102  0.8284089782049691  0.5054051505263502
  0.7454671992369981  0.3218703404624392  0.2409918977315257
  0.5805925175517856  0.4955477357275697  0.5023803553805735
  0.4261962205480572  0.6611764850574673  0.7514717254389964
  0.2470888615515889  0.8332256123470572  0.9912305410086049
  0.9148330012875192  0.1587476751447809  0.4941616788348639
  0.7445622648138155  0.3364471149528470  0.7680976370948898
  0.5820171690612170  0.5014636644684956  0.0006973921356703
  0.9161118693617212  0.1583182016094611  0.0115713289638251
  0.7501124573180959  0.6771133866564085  0.2606910682024548
  0.5804472760550752  0.8289423303121026  0.4960935090755498
  0.9143239569390218  0.5026561000965089  0.5016747651115239
  0.7462554799229935  0.6756631054578790  0.7401979313979297
  0.5810628475606947  0.8409972668494063  0.9974883164337598
  0.9172548321466749  0.5098867697874709  0.0058980843047394
  0.9156494313142787  0.8432835234133975  0.4966574977659661
  0.9215921518221180  0.8359134686533807  0.9882501017903280
  0.9910631587461580  0.1590048186419324  0.1247272266821682
  0.9982697568294228  0.1578828099399203  0.6256751904294404
  0.9948003963404446  0.5107380569002657  0.1293544875551405
  0.3491149056460685  0.1648363539333815  0.1302025913890787
  0.1755217622621146  0.3333607899882693  0.3789771439839882
  0.0027301674112579  0.5018626520345606  0.6260114837074582
  0.3383441920615269  0.1745521980466194  0.6190033871695633
  0.1703008362371463  0.3423655320676815  0.8756564473990949
  0.9883440656373921  0.8327269047139367  0.1232793973336044
  0.3397926908697357  0.5005863916644131  0.1272175899302894
  0.1671936792288307  0.6676617951647401  0.3824760366091766
  0.9983928698214797  0.8411328070451987  0.6281183236760697
  0.6656008392594046  0.1651892124690946  0.1296988812785784
  0.5012659144078810  0.3331523246758508  0.3746300248078924
  0.3328513451093755  0.4902035747465376  0.6257036560867348
  0.1578209368077452  0.6688854187362026  0.8719432694834666
  0.6689815196514601  0.1769796572990785  0.6138253292523714
  0.5120835918316899  0.3354905112830338  0.8694581944345217
  0.3420349911847822  0.8319596552960604  0.1326734758910320
  0.1575093225482078  0.9971565993014764  0.3796907426035077
  0.6557195738910337  0.4911390315467585  0.1258504663197044
  0.5083823495361699  0.6630722643031461  0.3681081682273444
  0.3370320994618865  0.8325801677830214  0.6242962912595686
  0.1598820680347828  0.9933404913104056  0.8760587700590392
  0.8192547868294113  0.3244387982702150  0.3768585465342369
  0.6600436795998164  0.5089763000953269  0.6259224090108901
  0.5046767462861510  0.6689443059387301  0.8707378443922309
  0.8213754439363115  0.3378295349269465  0.8747277582074773
  0.6744006581163333  0.8417790748859773  0.1257132785574271
  0.5006083447909901  0.9980204144904192  0.3682268907085984
  0.8233998714674300  0.6721999703840282  0.3740661300785604
  0.6654293743545523  0.8223723707628423  0.6258824540330679
  0.5122829635472925  0.9915076756945425  0.8720470903802706
  0.8401542698215110  0.6823233152411206  0.8735118557398636
  0.8401547381876924  0.0058800764969718  0.3728413857227011
  0.8307190614691748  0.9871526520288398  0.8796091753410096
  0.9900469595232124  0.0815567484443989  0.2511689078032902
  0.0027771605034346  0.0785057691926951  0.7539554154532269
  0.9977627385255943  0.4216841038181656  0.2561299388285931
  0.3481211682326801  0.0854266649496083  0.2490007671975007
  0.1752264967035444  0.2544501467502513  0.5021355064531647
  0.0015652838711802  0.4215156484954079  0.7507932623220483
  0.3361141009615807  0.0845684957633850  0.7482668267364971
  0.1708229477284959  0.2542078250075761  0.0003874595036848
  0.9884434319879674  0.7533403923021709  0.2354069838729558
  0.3429275569157753  0.4154313683301254  0.2618031613396781
  0.1660114806002042  0.5852116406277759  0.5176392937364085
  0.9989472271028461  0.7547738599088873  0.7610958021561203
  0.6729933570754838  0.0827036575508515  0.2400576948232143
  0.5027509288780720  0.2515949495387346  0.4869205317205285
  0.3455039462519665  0.4133874307359093  0.7404320706898844
  0.1593337961294381  0.5828015181586181  0.9864623218167239
  0.6658248329973233  0.0737972927789556  0.7544551430975091
  0.5095469711304901  0.2466761204741630  0.0114726761307509
  0.3418630908839333  0.7502626802979577  0.2502738346962090
  0.1580147850540214  0.9159323724341277  0.5123077193625960
  0.6523598719359427  0.4145209605839923  0.2541202331289867
  0.5101290807323835  0.5786007842442658  0.4972300941852765
  0.3332925619941562  0.7554923576608843  0.7463865081117333
  0.1547591729475499  0.9171085207525849  0.9853614663737744
  0.8197969118659714  0.2498095990715612  0.4990663624860971
  0.6577930626213231  0.4177404270003322  0.7436610117311915
  0.5041875862504810  0.5785109027013462  0.9998446948715838
  0.8251873972244610  0.2504966962311315  0.0061468198572925
  0.6679195479523230  0.7527660192672343  0.2702264734142972
  0.5043253031757331  0.9116502639744795  0.4967592995692272
  0.8225312698241538  0.5903211049647155  0.4943652194786523
  0.6666752461825567  0.7557208356884431  0.7302036659796229
  0.5117457244103321  0.9132046369562019  0.9985146605993833
  0.8363309897453277  0.5873298013181696  0.0120184696580452
  0.8397830669074580  0.9155680987155321  0.5009755559409044
  0.8316241355624783  0.9153981997217215  0.9973582871784927
 
  0.00000000E+00  0.00000000E+00  0.00000000E+00
  0.00000000E+00  0.00000000E+00  0.00000000E+00
  0.00000000E+00  0.00000000E+00  0.00000000E+00
  0.00000000E+00  0.00000000E+00  0.00000000E+00
  0.00000000E+00  0.00000000E+00  0.00000000E+00
  0.00000000E+00  0.00000000E+00  0.00000000E+00
  0.00000000E+00  0.00000000E+00  0.00000000E+00
  0.00000000E+00  0.00000000E+00  0.00000000E+00
  0.00000000E+00  0.00000000E+00  0.00000000E+00
  0.00000000E+00  0.00000000E+00  0.00000000E+00
  0.00000000E+00  0.00000000E+00  0.00000000E+00
  0.00000000E+00  0.00000000E+00  0.00000000E+00
  0.00000000E+00  0.00000000E+00  0.00000000E+00
  0.00000000E+00  0.00000000E+00  0.00000000E+00
  0.00000000E+00  0.00000000E+00  0.00000000E+00
  0.00000000E+00  0.00000000E+00  0.00000000E+00
  0.00000000E+00  0.00000000E+00  0.00000000E+00
  0.00000000E+00  0.00000000E+00  0.00000000E+00
  0.00000000E+00  0.00000000E+00  0.00000000E+00
  0.00000000E+00  0.00000000E+00  0.00000000E+00
  0.00000000E+00  0.00000000E+00  0.00000000E+00
  0.00000000E+00  0.00000000E+00  0.00000000E+00
  0.00000000E+00  0.00000000E+00  0.00000000E+00
  0.00000000E+00  0.00000000E+00  0.00000000E+00
  0.00000000E+00  0.00000000E+00  0.00000000E+00
  0.00000000E+00  0.00000000E+00  0.00000000E+00
  0.00000000E+00  0.00000000E+00  0.00000000E+00
  0.00000000E+00  0.00000000E+00  0.00000000E+00
  0.00000000E+00  0.00000000E+00  0.00000000E+00
  0.00000000E+00  0.00000000E+00  0.00000000E+00
  0.00000000E+00  0.00000000E+00  0.00000000E+00
  0.00000000E+00  0.00000000E+00  0.00000000E+00
  0.00000000E+00  0.00000000E+00  0.00000000E+00
  0.00000000E+00  0.00000000E+00  0.00000000E+00
  0.00000000E+00  0.00000000E+00  0.00000000E+00
  0.00000000E+00  0.00000000E+00  0.00000000E+00
  0.00000000E+00  0.00000000E+00  0.00000000E+00
  0.00000000E+00  0.00000000E+00  0.00000000E+00
  0.00000000E+00  0.00000000E+00  0.00000000E+00
  0.00000000E+00  0.00000000E+00  0.00000000E+00
  0.00000000E+00  0.00000000E+00  0.00000000E+00
  0.00000000E+00  0.00000000E+00  0.00000000E+00
  0.00000000E+00  0.00000000E+00  0.00000000E+00
  0.00000000E+00  0.00000000E+00  0.00000000E+00
  0.00000000E+00  0.00000000E+00  0.00000000E+00
  0.00000000E+00  0.00000000E+00  0.00000000E+00
  0.00000000E+00  0.00000000E+00  0.00000000E+00
  0.00000000E+00  0.00000000E+00  0.00000000E+00
  0.00000000E+00  0.00000000E+00  0.00000000E+00
  0.00000000E+00  0.00000000E+00  0.00000000E+00
  0.00000000E+00  0.00000000E+00  0.00000000E+00
  0.00000000E+00  0.00000000E+00  0.00000000E+00
  0.00000000E+00  0.00000000E+00  0.00000000E+00
  0.00000000E+00  0.00000000E+00  0.00000000E+00
  0.00000000E+00  0.00000000E+00  0.00000000E+00
  0.00000000E+00  0.00000000E+00  0.00000000E+00
  0.00000000E+00  0.00000000E+00  0.00000000E+00
  0.00000000E+00  0.00000000E+00  0.00000000E+00
  0.00000000E+00  0.00000000E+00  0.00000000E+00
  0.00000000E+00  0.00000000E+00  0.00000000E+00
  0.00000000E+00  0.00000000E+00  0.00000000E+00
  0.00000000E+00  0.00000000E+00  0.00000000E+00
  0.00000000E+00  0.00000000E+00  0.00000000E+00
  0.00000000E+00  0.00000000E+00  0.00000000E+00
  0.00000000E+00  0.00000000E+00  0.00000000E+00
  0.00000000E+00  0.00000000E+00  0.00000000E+00
  0.00000000E+00  0.00000000E+00  0.00000000E+00
  0.00000000E+00  0.00000000E+00  0.00000000E+00
  0.00000000E+00  0.00000000E+00  0.00000000E+00
  0.00000000E+00  0.00000000E+00  0.00000000E+00
  0.00000000E+00  0.00000000E+00  0.00000000E+00
  0.00000000E+00  0.00000000E+00  0.00000000E+00
  0.00000000E+00  0.00000000E+00  0.00000000E+00
  0.00000000E+00  0.00000000E+00  0.00000000E+00
  0.00000000E+00  0.00000000E+00  0.00000000E+00
  0.00000000E+00  0.00000000E+00  0.00000000E+00
  0.00000000E+00  0.00000000E+00  0.00000000E+00
  0.00000000E+00  0.00000000E+00  0.00000000E+00
  0.00000000E+00  0.00000000E+00  0.00000000E+00
  0.00000000E+00  0.00000000E+00  0.00000000E+00
  0.00000000E+00  0.00000000E+00  0.00000000E+00
  0.00000000E+00  0.00000000E+00  0.00000000E+00
  0.00000000E+00  0.00000000E+00  0.00000000E+00
  0.00000000E+00  0.00000000E+00  0.00000000E+00
  0.00000000E+00  0.00000000E+00  0.00000000E+00
  0.00000000E+00  0.00000000E+00  0.00000000E+00
  0.00000000E+00  0.00000000E+00  0.00000000E+00
  0.00000000E+00  0.00000000E+00  0.00000000E+00
  0.00000000E+00  0.00000000E+00  0.00000000E+00
  0.00000000E+00  0.00000000E+00  0.00000000E+00
  0.00000000E+00  0.00000000E+00  0.00000000E+00
  0.00000000E+00  0.00000000E+00  0.00000000E+00
  0.00000000E+00  0.00000000E+00  0.00000000E+00
  0.00000000E+00  0.00000000E+00  0.00000000E+00
  0.00000000E+00  0.00000000E+00  0.00000000E+00
  0.00000000E+00  0.00000000E+00  0.00000000E+00
  0.00000000E+00  0.00000000E+00  0.00000000E+00
  0.00000000E+00  0.00000000E+00  0.00000000E+00
  0.00000000E+00  0.00000000E+00  0.00000000E+00
  0.00000000E+00  0.00000000E+00  0.00000000E+00
  0.00000000E+00  0.00000000E+00  0.00000000E+00
  0.00000000E+00  0.00000000E+00  0.00000000E+00
  0.00000000E+00  0.00000000E+00  0.00000000E+00
  0.00000000E+00  0.00000000E+00  0.00000000E+00
  0.00000000E+00  0.00000000E+00  0.00000000E+00
  0.00000000E+00  0.00000000E+00  0.00000000E+00
  0.00000000E+00  0.00000000E+00  0.00000000E+00
  0.00000000E+00  0.00000000E+00  0.00000000E+00
  0.00000000E+00  0.00000000E+00  0.00000000E+00
  0.00000000E+00  0.00000000E+00  0.00000000E+00
  0.00000000E+00  0.00000000E+00  0.00000000E+00
  0.00000000E+00  0.00000000E+00  0.00000000E+00
  0.00000000E+00  0.00000000E+00  0.00000000E+00
  0.00000000E+00  0.00000000E+00  0.00000000E+00
  0.00000000E+00  0.00000000E+00  0.00000000E+00
  0.00000000E+00  0.00000000E+00  0.00000000E+00
  0.00000000E+00  0.00000000E+00  0.00000000E+00
  0.00000000E+00  0.00000000E+00  0.00000000E+00
  0.00000000E+00  0.00000000E+00  0.00000000E+00
  0.00000000E+00  0.00000000E+00  0.00000000E+00
  0.00000000E+00  0.00000000E+00  0.00000000E+00
  0.00000000E+00  0.00000000E+00  0.00000000E+00
  0.00000000E+00  0.00000000E+00  0.00000000E+00
  0.00000000E+00  0.00000000E+00  0.00000000E+00
  0.00000000E+00  0.00000000E+00  0.00000000E+00
  0.00000000E+00  0.00000000E+00  0.00000000E+00
  0.00000000E+00  0.00000000E+00  0.00000000E+00
  0.00000000E+00  0.00000000E+00  0.00000000E+00
  0.00000000E+00  0.00000000E+00  0.00000000E+00
  0.00000000E+00  0.00000000E+00  0.00000000E+00
  0.00000000E+00  0.00000000E+00  0.00000000E+00
  0.00000000E+00  0.00000000E+00  0.00000000E+00
  0.00000000E+00  0.00000000E+00  0.00000000E+00
  0.00000000E+00  0.00000000E+00  0.00000000E+00
  0.00000000E+00  0.00000000E+00  0.00000000E+00
  0.00000000E+00  0.00000000E+00  0.00000000E+00
  0.00000000E+00  0.00000000E+00  0.00000000E+00
  0.00000000E+00  0.00000000E+00  0.00000000E+00
  0.00000000E+00  0.00000000E+00  0.00000000E+00
  0.00000000E+00  0.00000000E+00  0.00000000E+00
  0.00000000E+00  0.00000000E+00  0.00000000E+00
  0.00000000E+00  0.00000000E+00  0.00000000E+00
  0.00000000E+00  0.00000000E+00  0.00000000E+00
  0.00000000E+00  0.00000000E+00  0.00000000E+00
  0.00000000E+00  0.00000000E+00  0.00000000E+00
  0.00000000E+00  0.00000000E+00  0.00000000E+00
  0.00000000E+00  0.00000000E+00  0.00000000E+00
  0.00000000E+00  0.00000000E+00  0.00000000E+00
  0.00000000E+00  0.00000000E+00  0.00000000E+00
  0.00000000E+00  0.00000000E+00  0.00000000E+00
  0.00000000E+00  0.00000000E+00  0.00000000E+00
  0.00000000E+00  0.00000000E+00  0.00000000E+00
  0.00000000E+00  0.00000000E+00  0.00000000E+00
  0.00000000E+00  0.00000000E+00  0.00000000E+00
  0.00000000E+00  0.00000000E+00  0.00000000E+00
  0.00000000E+00  0.00000000E+00  0.00000000E+00
  0.00000000E+00  0.00000000E+00  0.00000000E+00
  0.00000000E+00  0.00000000E+00  0.00000000E+00
  0.00000000E+00  0.00000000E+00  0.00000000E+00
  0.00000000E+00  0.00000000E+00  0.00000000E+00
  0.00000000E+00  0.00000000E+00  0.00000000E+00
  0.00000000E+00  0.00000000E+00  0.00000000E+00
  0.00000000E+00  0.00000000E+00  0.00000000E+00
  0.00000000E+00  0.00000000E+00  0.00000000E+00
  0.00000000E+00  0.00000000E+00  0.00000000E+00
  0.00000000E+00  0.00000000E+00  0.00000000E+00
  0.00000000E+00  0.00000000E+00  0.00000000E+00
  0.00000000E+00  0.00000000E+00  0.00000000E+00
  0.00000000E+00  0.00000000E+00  0.00000000E+00
  0.00000000E+00  0.00000000E+00  0.00000000E+00
  0.00000000E+00  0.00000000E+00  0.00000000E+00
  0.00000000E+00  0.00000000E+00  0.00000000E+00
  0.00000000E+00  0.00000000E+00  0.00000000E+00
  0.00000000E+00  0.00000000E+00  0.00000000E+00
  0.00000000E+00  0.00000000E+00  0.00000000E+00
  0.00000000E+00  0.00000000E+00  0.00000000E+00
  0.00000000E+00  0.00000000E+00  0.00000000E+00
  0.00000000E+00  0.00000000E+00  0.00000000E+00
  0.00000000E+00  0.00000000E+00  0.00000000E+00
  0.00000000E+00  0.00000000E+00  0.00000000E+00
  0.00000000E+00  0.00000000E+00  0.00000000E+00
  0.00000000E+00  0.00000000E+00  0.00000000E+00
  0.00000000E+00  0.00000000E+00  0.00000000E+00
  0.00000000E+00  0.00000000E+00  0.00000000E+00
  0.00000000E+00  0.00000000E+00  0.00000000E+00
  0.00000000E+00  0.00000000E+00  0.00000000E+00
  0.00000000E+00  0.00000000E+00  0.00000000E+00
  0.00000000E+00  0.00000000E+00  0.00000000E+00
  0.00000000E+00  0.00000000E+00  0.00000000E+00
  0.00000000E+00  0.00000000E+00  0.00000000E+00
  0.00000000E+00  0.00000000E+00  0.00000000E+00
  0.00000000E+00  0.00000000E+00  0.00000000E+00
  0.00000000E+00  0.00000000E+00  0.00000000E+00
  0.00000000E+00  0.00000000E+00  0.00000000E+00
  0.00000000E+00  0.00000000E+00  0.00000000E+00
  0.00000000E+00  0.00000000E+00  0.00000000E+00
  0.00000000E+00  0.00000000E+00  0.00000000E+00
  0.00000000E+00  0.00000000E+00  0.00000000E+00
  0.00000000E+00  0.00000000E+00  0.00000000E+00
  0.00000000E+00  0.00000000E+00  0.00000000E+00
  0.00000000E+00  0.00000000E+00  0.00000000E+00
  0.00000000E+00  0.00000000E+00  0.00000000E+00
  0.00000000E+00  0.00000000E+00  0.00000000E+00
  0.00000000E+00  0.00000000E+00  0.00000000E+00
  0.00000000E+00  0.00000000E+00  0.00000000E+00
  0.00000000E+00  0.00000000E+00  0.00000000E+00
  0.00000000E+00  0.00000000E+00  0.00000000E+00
  0.00000000E+00  0.00000000E+00  0.00000000E+00
  0.00000000E+00  0.00000000E+00  0.00000000E+00
  0.00000000E+00  0.00000000E+00  0.00000000E+00
  0.00000000E+00  0.00000000E+00  0.00000000E+00
  0.00000000E+00  0.00000000E+00  0.00000000E+00
  0.00000000E+00  0.00000000E+00  0.00000000E+00
  0.00000000E+00  0.00000000E+00  0.00000000E+00
  0.00000000E+00  0.00000000E+00  0.00000000E+00
  0.00000000E+00  0.00000000E+00  0.00000000E+00
  0.00000000E+00  0.00000000E+00  0.00000000E+00
  0.00000000E+00  0.00000000E+00  0.00000000E+00
  0.00000000E+00  0.00000000E+00  0.00000000E+00
  0.00000000E+00  0.00000000E+00  0.00000000E+00
  0.00000000E+00  0.00000000E+00  0.00000000E+00
  0.00000000E+00  0.00000000E+00  0.00000000E+00
  0.00000000E+00  0.00000000E+00  0.00000000E+00
  0.00000000E+00  0.00000000E+00  0.00000000E+00
  0.00000000E+00  0.00000000E+00  0.00000000E+00
  0.00000000E+00  0.00000000E+00  0.00000000E+00
  0.00000000E+00  0.00000000E+00  0.00000000E+00
  0.00000000E+00  0.00000000E+00  0.00000000E+00
  0.00000000E+00  0.00000000E+00  0.00000000E+00
  0.00000000E+00  0.00000000E+00  0.00000000E+00
  0.00000000E+00  0.00000000E+00  0.00000000E+00
  0.00000000E+00  0.00000000E+00  0.00000000E+00
  0.00000000E+00  0.00000000E+00  0.00000000E+00
  0.00000000E+00  0.00000000E+00  0.00000000E+00
  0.00000000E+00  0.00000000E+00  0.00000000E+00
  0.00000000E+00  0.00000000E+00  0.00000000E+00
  0.00000000E+00  0.00000000E+00  0.00000000E+00
  0.00000000E+00  0.00000000E+00  0.00000000E+00
  0.00000000E+00  0.00000000E+00  0.00000000E+00
  0.00000000E+00  0.00000000E+00  0.00000000E+00
  0.00000000E+00  0.00000000E+00  0.00000000E+00
  0.00000000E+00  0.00000000E+00  0.00000000E+00
  0.00000000E+00  0.00000000E+00  0.00000000E+00
  0.00000000E+00  0.00000000E+00  0.00000000E+00
  0.00000000E+00  0.00000000E+00  0.00000000E+00
  0.00000000E+00  0.00000000E+00  0.00000000E+00
  0.00000000E+00  0.00000000E+00  0.00000000E+00
  0.00000000E+00  0.00000000E+00  0.00000000E+00
  0.00000000E+00  0.00000000E+00  0.00000000E+00
  0.00000000E+00  0.00000000E+00  0.00000000E+00
  0.00000000E+00  0.00000000E+00  0.00000000E+00
  0.00000000E+00  0.00000000E+00  0.00000000E+00
