generated by phonopy                    
   1.00000000000000     
     0.0000000000000000    3.3358562224020325    3.3358562224021231
     3.3358562224020702    0.0000000000000000    3.3358562224021231
     3.3358562224020702    3.3358562224020325    0.0000000000000000
   Na   Zr   Sc   Ce   H 
     1     1     1     1    24
Direct
  0.2500000000000000  0.2500000000000000  0.2500000000000000
  0.7500000000000000  0.7500000000000000  0.7500000000000000
  0.0000000000000000  0.0000000000000000  0.0000000000000000
  0.5000000000000000  0.5000000000000000  0.5000000000000000
  0.1301225319758643  0.8915047596890986  0.6226178350319387
  0.8915047596890986  0.1301225319758643  0.3557548733030984
  0.6226178350319387  0.3557548733030984  0.1301225319758643
  0.3557548733030984  0.6226178350319387  0.8915047596890986
  0.6226178350319387  0.1301225319758643  0.8915047596890986
  0.3557548733030984  0.8915047596890986  0.1301225319758643
  0.1301225319758643  0.6226178350319387  0.3557548733030984
  0.8915047596890986  0.3557548733030984  0.6226178350319387
  0.8915047596890986  0.6226178350319387  0.1301225319758643
  0.1301225319758643  0.3557548733030984  0.8915047596890986
  0.3557548733030984  0.1301225319758643  0.6226178350319387
  0.6226178350319387  0.8915047596890986  0.3557548733030984
  0.1301225319758643  0.3557548733030984  0.6226178350319387
  0.3557548733030984  0.1301225319758643  0.8915047596890986
  0.6226178350319387  0.8915047596890986  0.1301225319758643
  0.8915047596890986  0.6226178350319387  0.3557548733030984
  0.6226178350319387  0.1301225319758643  0.3557548733030984
  0.8915047596890986  0.3557548733030984  0.1301225319758643
  0.1301225319758643  0.6226178350319387  0.8915047596890986
  0.3557548733030984  0.8915047596890986  0.6226178350319387
  0.3557548733030984  0.6226178350319387  0.1301225319758643
  0.1301225319758643  0.8915047596890986  0.3557548733030984
  0.8915047596890986  0.1301225319758643  0.6226178350319387
  0.6226178350319387  0.3557548733030984  0.8915047596890986
 
  0.00000000E+00  0.00000000E+00  0.00000000E+00
  0.00000000E+00  0.00000000E+00  0.00000000E+00
  0.00000000E+00  0.00000000E+00  0.00000000E+00
  0.00000000E+00  0.00000000E+00  0.00000000E+00
  0.00000000E+00  0.00000000E+00  0.00000000E+00
  0.00000000E+00  0.00000000E+00  0.00000000E+00
  0.00000000E+00  0.00000000E+00  0.00000000E+00
  0.00000000E+00  0.00000000E+00  0.00000000E+00
  0.00000000E+00  0.00000000E+00  0.00000000E+00
  0.00000000E+00  0.00000000E+00  0.00000000E+00
  0.00000000E+00  0.00000000E+00  0.00000000E+00
  0.00000000E+00  0.00000000E+00  0.00000000E+00
  0.00000000E+00  0.00000000E+00  0.00000000E+00
  0.00000000E+00  0.00000000E+00  0.00000000E+00
  0.00000000E+00  0.00000000E+00  0.00000000E+00
  0.00000000E+00  0.00000000E+00  0.00000000E+00
  0.00000000E+00  0.00000000E+00  0.00000000E+00
  0.00000000E+00  0.00000000E+00  0.00000000E+00
  0.00000000E+00  0.00000000E+00  0.00000000E+00
  0.00000000E+00  0.00000000E+00  0.00000000E+00
  0.00000000E+00  0.00000000E+00  0.00000000E+00
  0.00000000E+00  0.00000000E+00  0.00000000E+00
  0.00000000E+00  0.00000000E+00  0.00000000E+00
  0.00000000E+00  0.00000000E+00  0.00000000E+00
  0.00000000E+00  0.00000000E+00  0.00000000E+00
  0.00000000E+00  0.00000000E+00  0.00000000E+00
  0.00000000E+00  0.00000000E+00  0.00000000E+00
  0.00000000E+00  0.00000000E+00  0.00000000E+00
