generated by phonopy                    
   1.00000000000000     
     0.0000000000000000    3.4762290279267778    3.4762290279268342
     3.4762290279268013    0.0000000000000000    3.4762290279268342
     3.4762290279268013    3.4762290279267778    0.0000000000000000
   Sc   Ce   Y    Zr   H 
     1     1     1     1    24
Direct
  0.2500000000000000  0.2500000000000000  0.2500000000000000
  0.7500000000000000  0.7500000000000000  0.7500000000000000
  0.0000000000000000  0.0000000000000000  0.0000000000000000
  0.5000000000000000  0.5000000000000000  0.5000000000000000
  0.1291652218056356  0.8852810485519669  0.6140477208049404
  0.8852810485519669  0.1291652218056356  0.3715060088374571
  0.6140477208049404  0.3715060088374571  0.1291652218056356
  0.3715060088374571  0.6140477208049404  0.8852810485519669
  0.6140477208049404  0.1291652218056356  0.8852810485519669
  0.3715060088374571  0.8852810485519669  0.1291652218056356
  0.1291652218056356  0.6140477208049404  0.3715060088374571
  0.8852810485519669  0.3715060088374571  0.6140477208049404
  0.8852810485519669  0.6140477208049404  0.1291652218056356
  0.1291652218056356  0.3715060088374571  0.8852810485519669
  0.3715060088374571  0.1291652218056356  0.6140477208049404
  0.6140477208049404  0.8852810485519669  0.3715060088374571
  0.1291652218056356  0.3715060088374571  0.6140477208049404
  0.3715060088374571  0.1291652218056356  0.8852810485519669
  0.6140477208049404  0.8852810485519669  0.1291652218056356
  0.8852810485519669  0.6140477208049404  0.3715060088374571
  0.6140477208049404  0.1291652218056356  0.3715060088374571
  0.8852810485519669  0.3715060088374571  0.1291652218056356
  0.1291652218056356  0.6140477208049404  0.8852810485519669
  0.3715060088374571  0.8852810485519669  0.6140477208049404
  0.3715060088374571  0.6140477208049404  0.1291652218056356
  0.1291652218056356  0.8852810485519669  0.3715060088374571
  0.8852810485519669  0.1291652218056356  0.6140477208049404
  0.6140477208049404  0.3715060088374571  0.8852810485519669
 
  0.00000000E+00  0.00000000E+00  0.00000000E+00
  0.00000000E+00  0.00000000E+00  0.00000000E+00
  0.00000000E+00  0.00000000E+00  0.00000000E+00
  0.00000000E+00  0.00000000E+00  0.00000000E+00
  0.00000000E+00  0.00000000E+00  0.00000000E+00
  0.00000000E+00  0.00000000E+00  0.00000000E+00
  0.00000000E+00  0.00000000E+00  0.00000000E+00
  0.00000000E+00  0.00000000E+00  0.00000000E+00
  0.00000000E+00  0.00000000E+00  0.00000000E+00
  0.00000000E+00  0.00000000E+00  0.00000000E+00
  0.00000000E+00  0.00000000E+00  0.00000000E+00
  0.00000000E+00  0.00000000E+00  0.00000000E+00
  0.00000000E+00  0.00000000E+00  0.00000000E+00
  0.00000000E+00  0.00000000E+00  0.00000000E+00
  0.00000000E+00  0.00000000E+00  0.00000000E+00
  0.00000000E+00  0.00000000E+00  0.00000000E+00
  0.00000000E+00  0.00000000E+00  0.00000000E+00
  0.00000000E+00  0.00000000E+00  0.00000000E+00
  0.00000000E+00  0.00000000E+00  0.00000000E+00
  0.00000000E+00  0.00000000E+00  0.00000000E+00
  0.00000000E+00  0.00000000E+00  0.00000000E+00
  0.00000000E+00  0.00000000E+00  0.00000000E+00
  0.00000000E+00  0.00000000E+00  0.00000000E+00
  0.00000000E+00  0.00000000E+00  0.00000000E+00
  0.00000000E+00  0.00000000E+00  0.00000000E+00
  0.00000000E+00  0.00000000E+00  0.00000000E+00
  0.00000000E+00  0.00000000E+00  0.00000000E+00
  0.00000000E+00  0.00000000E+00  0.00000000E+00
