generated by phonopy                    
   1.00000000000000     
     0.0000000000000000    3.2261343690774980    3.2261343690775619
     3.2261343690775255    0.0000000000000000    3.2261343690775619
     3.2261343690775255    3.2261343690774980    0.0000000000000000
   Na   Y    Mg   Hf   H 
     1     1     1     1    24
Direct
  0.2500000000000000  0.2500000000000000  0.2500000000000000
  0.7500000000000000  0.7500000000000000  0.7500000000000000
  0.0000000000000000  0.0000000000000000  0.0000000000000000
  0.5000000000000000  0.5000000000000000  0.5000000000000000
  0.1219332183461290  0.8987316095031090  0.6223122794117941
  0.8987316095031090  0.1219332183461290  0.3570228927389678
  0.6223122794117941  0.3570228927389678  0.1219332183461290
  0.3570228927389678  0.6223122794117941  0.8987316095031090
  0.6223122794117941  0.1219332183461290  0.8987316095031090
  0.3570228927389678  0.8987316095031090  0.1219332183461290
  0.1219332183461290  0.6223122794117941  0.3570228927389678
  0.8987316095031090  0.3570228927389678  0.6223122794117941
  0.8987316095031090  0.6223122794117941  0.1219332183461290
  0.1219332183461290  0.3570228927389678  0.8987316095031090
  0.3570228927389678  0.1219332183461290  0.6223122794117941
  0.6223122794117941  0.8987316095031090  0.3570228927389678
  0.1219332183461290  0.3570228927389678  0.6223122794117941
  0.3570228927389678  0.1219332183461290  0.8987316095031090
  0.6223122794117941  0.8987316095031090  0.1219332183461290
  0.8987316095031090  0.6223122794117941  0.3570228927389678
  0.6223122794117941  0.1219332183461290  0.3570228927389678
  0.8987316095031090  0.3570228927389678  0.1219332183461290
  0.1219332183461290  0.6223122794117941  0.8987316095031090
  0.3570228927389678  0.8987316095031090  0.6223122794117941
  0.3570228927389678  0.6223122794117941  0.1219332183461290
  0.1219332183461290  0.8987316095031090  0.3570228927389678
  0.8987316095031090  0.1219332183461290  0.6223122794117941
  0.6223122794117941  0.3570228927389678  0.8987316095031090
 
  0.00000000E+00  0.00000000E+00  0.00000000E+00
  0.00000000E+00  0.00000000E+00  0.00000000E+00
  0.00000000E+00  0.00000000E+00  0.00000000E+00
  0.00000000E+00  0.00000000E+00  0.00000000E+00
  0.00000000E+00  0.00000000E+00  0.00000000E+00
  0.00000000E+00  0.00000000E+00  0.00000000E+00
  0.00000000E+00  0.00000000E+00  0.00000000E+00
  0.00000000E+00  0.00000000E+00  0.00000000E+00
  0.00000000E+00  0.00000000E+00  0.00000000E+00
  0.00000000E+00  0.00000000E+00  0.00000000E+00
  0.00000000E+00  0.00000000E+00  0.00000000E+00
  0.00000000E+00  0.00000000E+00  0.00000000E+00
  0.00000000E+00  0.00000000E+00  0.00000000E+00
  0.00000000E+00  0.00000000E+00  0.00000000E+00
  0.00000000E+00  0.00000000E+00  0.00000000E+00
  0.00000000E+00  0.00000000E+00  0.00000000E+00
  0.00000000E+00  0.00000000E+00  0.00000000E+00
  0.00000000E+00  0.00000000E+00  0.00000000E+00
  0.00000000E+00  0.00000000E+00  0.00000000E+00
  0.00000000E+00  0.00000000E+00  0.00000000E+00
  0.00000000E+00  0.00000000E+00  0.00000000E+00
  0.00000000E+00  0.00000000E+00  0.00000000E+00
  0.00000000E+00  0.00000000E+00  0.00000000E+00
  0.00000000E+00  0.00000000E+00  0.00000000E+00
  0.00000000E+00  0.00000000E+00  0.00000000E+00
  0.00000000E+00  0.00000000E+00  0.00000000E+00
  0.00000000E+00  0.00000000E+00  0.00000000E+00
  0.00000000E+00  0.00000000E+00  0.00000000E+00
