generated by phonopy                    
   1.00000000000000     
     0.0000000000000000    3.3568149861145500    3.3568149861146348
     3.3568149861145846    0.0000000000000000    3.3568149861146348
     3.3568149861145846    3.3568149861145500    0.0000000000000000
   Ca   Sr   Hf   Ce   H 
     1     1     1     1    24
Direct
  0.2500000000000000  0.2500000000000000  0.2500000000000000
  0.7500000000000000  0.7500000000000000  0.7500000000000000
  0.0000000000000000  0.0000000000000000  0.0000000000000000
  0.5000000000000000  0.5000000000000000  0.5000000000000000
  0.1260199445521906  0.8863896641376598  0.6194623119451919
  0.8863896641376598  0.1260199445521906  0.3681280793649577
  0.6194623119451919  0.3681280793649577  0.1260199445521906
  0.3681280793649577  0.6194623119451919  0.8863896641376598
  0.6194623119451919  0.1260199445521906  0.8863896641376598
  0.3681280793649577  0.8863896641376598  0.1260199445521906
  0.1260199445521906  0.6194623119451919  0.3681280793649577
  0.8863896641376598  0.3681280793649577  0.6194623119451919
  0.8863896641376598  0.6194623119451919  0.1260199445521906
  0.1260199445521906  0.3681280793649577  0.8863896641376598
  0.3681280793649577  0.1260199445521906  0.6194623119451919
  0.6194623119451919  0.8863896641376598  0.3681280793649577
  0.1260199445521906  0.3681280793649577  0.6194623119451919
  0.3681280793649577  0.1260199445521906  0.8863896641376598
  0.6194623119451919  0.8863896641376598  0.1260199445521906
  0.8863896641376598  0.6194623119451919  0.3681280793649577
  0.6194623119451919  0.1260199445521906  0.3681280793649577
  0.8863896641376598  0.3681280793649577  0.1260199445521906
  0.1260199445521906  0.6194623119451919  0.8863896641376598
  0.3681280793649577  0.8863896641376598  0.6194623119451919
  0.3681280793649577  0.6194623119451919  0.1260199445521906
  0.1260199445521906  0.8863896641376598  0.3681280793649577
  0.8863896641376598  0.1260199445521906  0.6194623119451919
  0.6194623119451919  0.3681280793649577  0.8863896641376598
 
  0.00000000E+00  0.00000000E+00  0.00000000E+00
  0.00000000E+00  0.00000000E+00  0.00000000E+00
  0.00000000E+00  0.00000000E+00  0.00000000E+00
  0.00000000E+00  0.00000000E+00  0.00000000E+00
  0.00000000E+00  0.00000000E+00  0.00000000E+00
  0.00000000E+00  0.00000000E+00  0.00000000E+00
  0.00000000E+00  0.00000000E+00  0.00000000E+00
  0.00000000E+00  0.00000000E+00  0.00000000E+00
  0.00000000E+00  0.00000000E+00  0.00000000E+00
  0.00000000E+00  0.00000000E+00  0.00000000E+00
  0.00000000E+00  0.00000000E+00  0.00000000E+00
  0.00000000E+00  0.00000000E+00  0.00000000E+00
  0.00000000E+00  0.00000000E+00  0.00000000E+00
  0.00000000E+00  0.00000000E+00  0.00000000E+00
  0.00000000E+00  0.00000000E+00  0.00000000E+00
  0.00000000E+00  0.00000000E+00  0.00000000E+00
  0.00000000E+00  0.00000000E+00  0.00000000E+00
  0.00000000E+00  0.00000000E+00  0.00000000E+00
  0.00000000E+00  0.00000000E+00  0.00000000E+00
  0.00000000E+00  0.00000000E+00  0.00000000E+00
  0.00000000E+00  0.00000000E+00  0.00000000E+00
  0.00000000E+00  0.00000000E+00  0.00000000E+00
  0.00000000E+00  0.00000000E+00  0.00000000E+00
  0.00000000E+00  0.00000000E+00  0.00000000E+00
  0.00000000E+00  0.00000000E+00  0.00000000E+00
  0.00000000E+00  0.00000000E+00  0.00000000E+00
  0.00000000E+00  0.00000000E+00  0.00000000E+00
  0.00000000E+00  0.00000000E+00  0.00000000E+00
