generated by phonopy                    
   1.00000000000000     
     0.0000000000000000    3.2037529006915761    3.2037529006917449
     3.2037529006916441    0.0000000000000000    3.2037529006917449
     3.2037529006916441    3.2037529006915761    0.0000000000000000
   Na   K    Mg   Y    H 
     1     1     1     1    24
Direct
  0.2500000000000000  0.2500000000000000  0.2500000000000000
  0.7500000000000000  0.7500000000000000  0.7500000000000000
  0.0000000000000000  0.0000000000000000  0.0000000000000000
  0.5000000000000000  0.5000000000000000  0.5000000000000000
  0.1182906337175353  0.8993021592801753  0.6273812259839104
  0.8993021592801753  0.1182906337175353  0.3550259810183789
  0.6273812259839104  0.3550259810183789  0.1182906337175353
  0.3550259810183789  0.6273812259839104  0.8993021592801753
  0.6273812259839104  0.1182906337175353  0.8993021592801753
  0.3550259810183789  0.8993021592801753  0.1182906337175353
  0.1182906337175353  0.6273812259839104  0.3550259810183789
  0.8993021592801753  0.3550259810183789  0.6273812259839104
  0.8993021592801753  0.6273812259839104  0.1182906337175353
  0.1182906337175353  0.3550259810183789  0.8993021592801753
  0.3550259810183789  0.1182906337175353  0.6273812259839104
  0.6273812259839104  0.8993021592801753  0.3550259810183789
  0.1182906337175353  0.3550259810183789  0.6273812259839104
  0.3550259810183789  0.1182906337175353  0.8993021592801753
  0.6273812259839104  0.8993021592801753  0.1182906337175353
  0.8993021592801753  0.6273812259839104  0.3550259810183789
  0.6273812259839104  0.1182906337175353  0.3550259810183789
  0.8993021592801753  0.3550259810183789  0.1182906337175353
  0.1182906337175353  0.6273812259839104  0.8993021592801753
  0.3550259810183789  0.8993021592801753  0.6273812259839104
  0.3550259810183789  0.6273812259839104  0.1182906337175353
  0.1182906337175353  0.8993021592801753  0.3550259810183789
  0.8993021592801753  0.1182906337175353  0.6273812259839104
  0.6273812259839104  0.3550259810183789  0.8993021592801753
 
  0.00000000E+00  0.00000000E+00  0.00000000E+00
  0.00000000E+00  0.00000000E+00  0.00000000E+00
  0.00000000E+00  0.00000000E+00  0.00000000E+00
  0.00000000E+00  0.00000000E+00  0.00000000E+00
  0.00000000E+00  0.00000000E+00  0.00000000E+00
  0.00000000E+00  0.00000000E+00  0.00000000E+00
  0.00000000E+00  0.00000000E+00  0.00000000E+00
  0.00000000E+00  0.00000000E+00  0.00000000E+00
  0.00000000E+00  0.00000000E+00  0.00000000E+00
  0.00000000E+00  0.00000000E+00  0.00000000E+00
  0.00000000E+00  0.00000000E+00  0.00000000E+00
  0.00000000E+00  0.00000000E+00  0.00000000E+00
  0.00000000E+00  0.00000000E+00  0.00000000E+00
  0.00000000E+00  0.00000000E+00  0.00000000E+00
  0.00000000E+00  0.00000000E+00  0.00000000E+00
  0.00000000E+00  0.00000000E+00  0.00000000E+00
  0.00000000E+00  0.00000000E+00  0.00000000E+00
  0.00000000E+00  0.00000000E+00  0.00000000E+00
  0.00000000E+00  0.00000000E+00  0.00000000E+00
  0.00000000E+00  0.00000000E+00  0.00000000E+00
  0.00000000E+00  0.00000000E+00  0.00000000E+00
  0.00000000E+00  0.00000000E+00  0.00000000E+00
  0.00000000E+00  0.00000000E+00  0.00000000E+00
  0.00000000E+00  0.00000000E+00  0.00000000E+00
  0.00000000E+00  0.00000000E+00  0.00000000E+00
  0.00000000E+00  0.00000000E+00  0.00000000E+00
  0.00000000E+00  0.00000000E+00  0.00000000E+00
  0.00000000E+00  0.00000000E+00  0.00000000E+00
