generated by phonopy                    
   1.00000000000000     
     0.0000000000000000    3.3274108979158785    3.3274108979159838
     3.3274108979159225    0.0000000000000000    3.3274108979159838
     3.3274108979159225    3.3274108979158785    0.0000000000000000
   Y    Hf   Ti   Ce   H 
     1     1     1     1    24
Direct
  0.2500000000000000  0.2500000000000000  0.2500000000000000
  0.7500000000000000  0.7500000000000000  0.7500000000000000
  0.0000000000000000  0.0000000000000000  0.0000000000000000
  0.5000000000000000  0.5000000000000000  0.5000000000000000
  0.1198882416168487  0.8800841302672424  0.6377536763607807
  0.8800841302672424  0.1198882416168487  0.3622739517551210
  0.6377536763607807  0.3622739517551210  0.1198882416168487
  0.3622739517551210  0.6377536763607807  0.8800841302672424
  0.6377536763607807  0.1198882416168487  0.8800841302672424
  0.3622739517551210  0.8800841302672424  0.1198882416168487
  0.1198882416168487  0.6377536763607807  0.3622739517551210
  0.8800841302672424  0.3622739517551210  0.6377536763607807
  0.8800841302672424  0.6377536763607807  0.1198882416168487
  0.1198882416168487  0.3622739517551210  0.8800841302672424
  0.3622739517551210  0.1198882416168487  0.6377536763607807
  0.6377536763607807  0.8800841302672424  0.3622739517551210
  0.1198882416168487  0.3622739517551210  0.6377536763607807
  0.3622739517551210  0.1198882416168487  0.8800841302672424
  0.6377536763607807  0.8800841302672424  0.1198882416168487
  0.8800841302672424  0.6377536763607807  0.3622739517551210
  0.6377536763607807  0.1198882416168487  0.3622739517551210
  0.8800841302672424  0.3622739517551210  0.1198882416168487
  0.1198882416168487  0.6377536763607807  0.8800841302672424
  0.3622739517551210  0.8800841302672424  0.6377536763607807
  0.3622739517551210  0.6377536763607807  0.1198882416168487
  0.1198882416168487  0.8800841302672424  0.3622739517551210
  0.8800841302672424  0.1198882416168487  0.6377536763607807
  0.6377536763607807  0.3622739517551210  0.8800841302672424
 
  0.00000000E+00  0.00000000E+00  0.00000000E+00
  0.00000000E+00  0.00000000E+00  0.00000000E+00
  0.00000000E+00  0.00000000E+00  0.00000000E+00
  0.00000000E+00  0.00000000E+00  0.00000000E+00
  0.00000000E+00  0.00000000E+00  0.00000000E+00
  0.00000000E+00  0.00000000E+00  0.00000000E+00
  0.00000000E+00  0.00000000E+00  0.00000000E+00
  0.00000000E+00  0.00000000E+00  0.00000000E+00
  0.00000000E+00  0.00000000E+00  0.00000000E+00
  0.00000000E+00  0.00000000E+00  0.00000000E+00
  0.00000000E+00  0.00000000E+00  0.00000000E+00
  0.00000000E+00  0.00000000E+00  0.00000000E+00
  0.00000000E+00  0.00000000E+00  0.00000000E+00
  0.00000000E+00  0.00000000E+00  0.00000000E+00
  0.00000000E+00  0.00000000E+00  0.00000000E+00
  0.00000000E+00  0.00000000E+00  0.00000000E+00
  0.00000000E+00  0.00000000E+00  0.00000000E+00
  0.00000000E+00  0.00000000E+00  0.00000000E+00
  0.00000000E+00  0.00000000E+00  0.00000000E+00
  0.00000000E+00  0.00000000E+00  0.00000000E+00
  0.00000000E+00  0.00000000E+00  0.00000000E+00
  0.00000000E+00  0.00000000E+00  0.00000000E+00
  0.00000000E+00  0.00000000E+00  0.00000000E+00
  0.00000000E+00  0.00000000E+00  0.00000000E+00
  0.00000000E+00  0.00000000E+00  0.00000000E+00
  0.00000000E+00  0.00000000E+00  0.00000000E+00
  0.00000000E+00  0.00000000E+00  0.00000000E+00
  0.00000000E+00  0.00000000E+00  0.00000000E+00
