generated by phonopy                    
   1.00000000000000     
     0.0000000000000000    3.4131854116901228    3.4131854116902010
     3.4131854116901548    0.0000000000000000    3.4131854116902010
     3.4131854116901548    3.4131854116901228    0.0000000000000000
   Ca   Y    Zr   Ce   H 
     1     1     1     1    24
Direct
  0.2500000000000000  0.2500000000000000  0.2500000000000000
  0.7500000000000000  0.7500000000000000  0.7500000000000000
  0.0000000000000000  0.0000000000000000  0.0000000000000000
  0.5000000000000000  0.5000000000000000  0.5000000000000000
  0.1265489723944242  0.8827209185950551  0.6227337222378679
  0.8827209185950551  0.1265489723944242  0.3679963867726528
  0.6227337222378679  0.3679963867726528  0.1265489723944242
  0.3679963867726528  0.6227337222378679  0.8827209185950551
  0.6227337222378679  0.1265489723944242  0.8827209185950551
  0.3679963867726528  0.8827209185950551  0.1265489723944242
  0.1265489723944242  0.6227337222378679  0.3679963867726528
  0.8827209185950551  0.3679963867726528  0.6227337222378679
  0.8827209185950551  0.6227337222378679  0.1265489723944242
  0.1265489723944242  0.3679963867726528  0.8827209185950551
  0.3679963867726528  0.1265489723944242  0.6227337222378679
  0.6227337222378679  0.8827209185950551  0.3679963867726528
  0.1265489723944242  0.3679963867726528  0.6227337222378679
  0.3679963867726528  0.1265489723944242  0.8827209185950551
  0.6227337222378679  0.8827209185950551  0.1265489723944242
  0.8827209185950551  0.6227337222378679  0.3679963867726528
  0.6227337222378679  0.1265489723944242  0.3679963867726528
  0.8827209185950551  0.3679963867726528  0.1265489723944242
  0.1265489723944242  0.6227337222378679  0.8827209185950551
  0.3679963867726528  0.8827209185950551  0.6227337222378679
  0.3679963867726528  0.6227337222378679  0.1265489723944242
  0.1265489723944242  0.8827209185950551  0.3679963867726528
  0.8827209185950551  0.1265489723944242  0.6227337222378679
  0.6227337222378679  0.3679963867726528  0.8827209185950551
 
  0.00000000E+00  0.00000000E+00  0.00000000E+00
  0.00000000E+00  0.00000000E+00  0.00000000E+00
  0.00000000E+00  0.00000000E+00  0.00000000E+00
  0.00000000E+00  0.00000000E+00  0.00000000E+00
  0.00000000E+00  0.00000000E+00  0.00000000E+00
  0.00000000E+00  0.00000000E+00  0.00000000E+00
  0.00000000E+00  0.00000000E+00  0.00000000E+00
  0.00000000E+00  0.00000000E+00  0.00000000E+00
  0.00000000E+00  0.00000000E+00  0.00000000E+00
  0.00000000E+00  0.00000000E+00  0.00000000E+00
  0.00000000E+00  0.00000000E+00  0.00000000E+00
  0.00000000E+00  0.00000000E+00  0.00000000E+00
  0.00000000E+00  0.00000000E+00  0.00000000E+00
  0.00000000E+00  0.00000000E+00  0.00000000E+00
  0.00000000E+00  0.00000000E+00  0.00000000E+00
  0.00000000E+00  0.00000000E+00  0.00000000E+00
  0.00000000E+00  0.00000000E+00  0.00000000E+00
  0.00000000E+00  0.00000000E+00  0.00000000E+00
  0.00000000E+00  0.00000000E+00  0.00000000E+00
  0.00000000E+00  0.00000000E+00  0.00000000E+00
  0.00000000E+00  0.00000000E+00  0.00000000E+00
  0.00000000E+00  0.00000000E+00  0.00000000E+00
  0.00000000E+00  0.00000000E+00  0.00000000E+00
  0.00000000E+00  0.00000000E+00  0.00000000E+00
  0.00000000E+00  0.00000000E+00  0.00000000E+00
  0.00000000E+00  0.00000000E+00  0.00000000E+00
  0.00000000E+00  0.00000000E+00  0.00000000E+00
  0.00000000E+00  0.00000000E+00  0.00000000E+00
