generated by phonopy                    
   1.00000000000000     
     0.0000000000000000    3.2042806247713380    3.2042806247713975
     3.2042806247713633    0.0000000000000000    3.2042806247713975
     3.2042806247713633    3.2042806247713380    0.0000000000000000
   Na   Hf   Ca   Ti   H 
     1     1     1     1    24
Direct
  0.2500000000000000  0.2500000000000000  0.2500000000000000
  0.7500000000000000  0.7500000000000000  0.7500000000000000
  0.0000000000000000  0.0000000000000000  0.0000000000000000
  0.5000000000000000  0.5000000000000000  0.5000000000000000
  0.1371728805400636  0.8861011452119669  0.6135996295075259
  0.8861011452119669  0.1371728805400636  0.3631263447404223
  0.6135996295075259  0.3631263447404223  0.1371728805400636
  0.3631263447404223  0.6135996295075259  0.8861011452119669
  0.6135996295075259  0.1371728805400636  0.8861011452119669
  0.3631263447404223  0.8861011452119669  0.1371728805400636
  0.1371728805400636  0.6135996295075259  0.3631263447404223
  0.8861011452119669  0.3631263447404223  0.6135996295075259
  0.8861011452119669  0.6135996295075259  0.1371728805400636
  0.1371728805400636  0.3631263447404223  0.8861011452119669
  0.3631263447404223  0.1371728805400636  0.6135996295075259
  0.6135996295075259  0.8861011452119669  0.3631263447404223
  0.1371728805400636  0.3631263447404223  0.6135996295075259
  0.3631263447404223  0.1371728805400636  0.8861011452119669
  0.6135996295075259  0.8861011452119669  0.1371728805400636
  0.8861011452119669  0.6135996295075259  0.3631263447404223
  0.6135996295075259  0.1371728805400636  0.3631263447404223
  0.8861011452119669  0.3631263447404223  0.1371728805400636
  0.1371728805400636  0.6135996295075259  0.8861011452119669
  0.3631263447404223  0.8861011452119669  0.6135996295075259
  0.3631263447404223  0.6135996295075259  0.1371728805400636
  0.1371728805400636  0.8861011452119669  0.3631263447404223
  0.8861011452119669  0.1371728805400636  0.6135996295075259
  0.6135996295075259  0.3631263447404223  0.8861011452119669
 
  0.00000000E+00  0.00000000E+00  0.00000000E+00
  0.00000000E+00  0.00000000E+00  0.00000000E+00
  0.00000000E+00  0.00000000E+00  0.00000000E+00
  0.00000000E+00  0.00000000E+00  0.00000000E+00
  0.00000000E+00  0.00000000E+00  0.00000000E+00
  0.00000000E+00  0.00000000E+00  0.00000000E+00
  0.00000000E+00  0.00000000E+00  0.00000000E+00
  0.00000000E+00  0.00000000E+00  0.00000000E+00
  0.00000000E+00  0.00000000E+00  0.00000000E+00
  0.00000000E+00  0.00000000E+00  0.00000000E+00
  0.00000000E+00  0.00000000E+00  0.00000000E+00
  0.00000000E+00  0.00000000E+00  0.00000000E+00
  0.00000000E+00  0.00000000E+00  0.00000000E+00
  0.00000000E+00  0.00000000E+00  0.00000000E+00
  0.00000000E+00  0.00000000E+00  0.00000000E+00
  0.00000000E+00  0.00000000E+00  0.00000000E+00
  0.00000000E+00  0.00000000E+00  0.00000000E+00
  0.00000000E+00  0.00000000E+00  0.00000000E+00
  0.00000000E+00  0.00000000E+00  0.00000000E+00
  0.00000000E+00  0.00000000E+00  0.00000000E+00
  0.00000000E+00  0.00000000E+00  0.00000000E+00
  0.00000000E+00  0.00000000E+00  0.00000000E+00
  0.00000000E+00  0.00000000E+00  0.00000000E+00
  0.00000000E+00  0.00000000E+00  0.00000000E+00
  0.00000000E+00  0.00000000E+00  0.00000000E+00
  0.00000000E+00  0.00000000E+00  0.00000000E+00
  0.00000000E+00  0.00000000E+00  0.00000000E+00
  0.00000000E+00  0.00000000E+00  0.00000000E+00
