generated by phonopy                    
   1.00000000000000     
     0.0000000000000000    3.2965694426698233    3.2965694426699281
     3.2965694426698664    0.0000000000000000    3.2965694426699281
     3.2965694426698664    3.2965694426698233    0.0000000000000000
   Na   Y    K    Sc   H 
     1     1     1     1    24
Direct
  0.2500000000000000  0.2500000000000000  0.2500000000000000
  0.7500000000000000  0.7500000000000000  0.7500000000000000
  0.0000000000000000  0.0000000000000000  0.0000000000000000
  0.5000000000000000  0.5000000000000000  0.5000000000000000
  0.1409664779230297  0.8864678625654037  0.6100405408626841
  0.8864678625654037  0.1409664779230297  0.3625251186488825
  0.6100405408626841  0.3625251186488825  0.1409664779230297
  0.3625251186488825  0.6100405408626841  0.8864678625654037
  0.6100405408626841  0.1409664779230297  0.8864678625654037
  0.3625251186488825  0.8864678625654037  0.1409664779230297
  0.1409664779230297  0.6100405408626841  0.3625251186488825
  0.8864678625654037  0.3625251186488825  0.6100405408626841
  0.8864678625654037  0.6100405408626841  0.1409664779230297
  0.1409664779230297  0.3625251186488825  0.8864678625654037
  0.3625251186488825  0.1409664779230297  0.6100405408626841
  0.6100405408626841  0.8864678625654037  0.3625251186488825
  0.1409664779230297  0.3625251186488825  0.6100405408626841
  0.3625251186488825  0.1409664779230297  0.8864678625654037
  0.6100405408626841  0.8864678625654037  0.1409664779230297
  0.8864678625654037  0.6100405408626841  0.3625251186488825
  0.6100405408626841  0.1409664779230297  0.3625251186488825
  0.8864678625654037  0.3625251186488825  0.1409664779230297
  0.1409664779230297  0.6100405408626841  0.8864678625654037
  0.3625251186488825  0.8864678625654037  0.6100405408626841
  0.3625251186488825  0.6100405408626841  0.1409664779230297
  0.1409664779230297  0.8864678625654037  0.3625251186488825
  0.8864678625654037  0.1409664779230297  0.6100405408626841
  0.6100405408626841  0.3625251186488825  0.8864678625654037
 
  0.00000000E+00  0.00000000E+00  0.00000000E+00
  0.00000000E+00  0.00000000E+00  0.00000000E+00
  0.00000000E+00  0.00000000E+00  0.00000000E+00
  0.00000000E+00  0.00000000E+00  0.00000000E+00
  0.00000000E+00  0.00000000E+00  0.00000000E+00
  0.00000000E+00  0.00000000E+00  0.00000000E+00
  0.00000000E+00  0.00000000E+00  0.00000000E+00
  0.00000000E+00  0.00000000E+00  0.00000000E+00
  0.00000000E+00  0.00000000E+00  0.00000000E+00
  0.00000000E+00  0.00000000E+00  0.00000000E+00
  0.00000000E+00  0.00000000E+00  0.00000000E+00
  0.00000000E+00  0.00000000E+00  0.00000000E+00
  0.00000000E+00  0.00000000E+00  0.00000000E+00
  0.00000000E+00  0.00000000E+00  0.00000000E+00
  0.00000000E+00  0.00000000E+00  0.00000000E+00
  0.00000000E+00  0.00000000E+00  0.00000000E+00
  0.00000000E+00  0.00000000E+00  0.00000000E+00
  0.00000000E+00  0.00000000E+00  0.00000000E+00
  0.00000000E+00  0.00000000E+00  0.00000000E+00
  0.00000000E+00  0.00000000E+00  0.00000000E+00
  0.00000000E+00  0.00000000E+00  0.00000000E+00
  0.00000000E+00  0.00000000E+00  0.00000000E+00
  0.00000000E+00  0.00000000E+00  0.00000000E+00
  0.00000000E+00  0.00000000E+00  0.00000000E+00
  0.00000000E+00  0.00000000E+00  0.00000000E+00
  0.00000000E+00  0.00000000E+00  0.00000000E+00
  0.00000000E+00  0.00000000E+00  0.00000000E+00
  0.00000000E+00  0.00000000E+00  0.00000000E+00
