POSCAR                                  
   1.00000000000000     
    10.0240028548325526   -0.0045186957680617    0.0007642698344036
    -0.0044695710127830   10.0130404332386682   -0.0294229755666418
     0.0005112275636445   -0.0196206280884967    6.6691511554054532
   Zr   Sr   Y    Ca   H 
     9     9     9     9   216
Direct
  0.1607995618660425  0.1642526118954564  0.2512399647962553
  0.1659839959634155  0.8335916315834737  0.2464514707864183
  0.3384655141018698  0.6670521221576706  0.4954533079033396
  0.3308772832324820  0.9988219767617679  0.4967437688940350
  0.8334544346406503  0.4985951453338018  0.2499944491375530
  0.0001257591480410  0.3308463584565970  0.4955938532285131
  0.8319356758669159  0.5054120771503676  0.7453647203676894
  0.6747192467599845  0.9999724195604216  0.5070923394864337
  0.9980836689816854  0.6722763364742477  0.4962101286973493
  0.1680403465501570  0.1651633342982421  0.7580445658704278
  0.1698721822597378  0.4970181128086040  0.2407111386679688
  0.4987528619159107  0.1655533894950807  0.7586072130863997
  0.3290642176998446  0.3343106870495589  0.9985724914200986
  0.3275681134831743  0.6677928143984317  0.0009999040018869
  0.8390149328254708  0.1696252630863242  0.7605562375784842
  0.3375195519071994  0.0004046068312675  0.9922642701444744
  0.6664422143287041  0.6715188427703680  0.0024735153954154
  0.9932054374528292  0.3294244170579788  0.9916012075778511
  0.5039391930048680  0.1630644336205833  0.2555439638932455
  0.3342236409528994  0.3351770577538886  0.4962806708283551
  0.1652479250884937  0.5046684821510965  0.7453311622584238
  0.1662786668459972  0.8341654542361709  0.7499757600819379
  0.6636130932439954  0.3307133288086206  0.5004033960719383
  0.5025638077708052  0.5049633678342786  0.7523611008622311
  0.6666556422912393  0.3292858343477931  0.0009267542140989
  0.6659262825941568  0.6685127203296304  0.4990384541007273
  0.8310827901871320  0.8359319014751421  0.2476591341628591
  0.5035746042006082  0.5014461156250363  0.2483628392256279
  0.8330963559529749  0.1622994794412733  0.2579386562985633
  0.5021492997680141  0.8345809723738924  0.2500300915142049
  0.5026097491676325  0.8319244343129384  0.7514077285805243
  0.8336452099136054  0.8327166626849518  0.7519173124059080
  0.6690239282382109  0.9993022584349944  0.0007439869334007
  0.9977446779084431  0.6670228481402773  0.9997213505736084
  0.9994373435657664  0.9971884618141118  0.5007427136969085
  0.9949427321144171  0.9959666020811966  0.9997451832411812
  0.1598828099272396  0.0772801368514990  0.0138095005088914
  0.1588040287884880  0.0829064414089657  0.4958047322000141
  0.1591632868416042  0.4146153835932296  0.9871672618972980
  0.5099207097995304  0.0798659144418252  0.0108807664282509
  0.3354590731535865  0.2455431301893327  0.2502859260415562
  0.1622761419422432  0.4183353594062709  0.4971284305597194
  0.5028473324681570  0.0791846024206109  0.5040424486976463
  0.3330571922212542  0.2535881616888815  0.7406804950176991
  0.1561685049062618  0.7504039976712775  0.9983763317375676
  0.4995425038317336  0.4176589660931640  0.0040973852035933
  0.3412643130677182  0.5844799486132857  0.2551864362459071
  0.1721684597865476  0.7514770640550736  0.4971015762958118
  0.8318598503126111  0.0811737245355602  0.0160173089822138
  0.6740913729577969  0.2460158028465500  0.2517381018894156
  0.4991137778527275  0.4202211649014558  0.4961472347524989
  0.3360674288908072  0.5869881135191903  0.7426315601317270
  0.8423674316962746  0.0864915242001132  0.5010970545345188
  0.6691140802854179  0.2484138564854064  0.7463054487545975
  0.4954839282826029  0.7531729686227351  0.9995717289448436
  0.3357828155729052  0.9162401640537041  0.2491637957835522
  0.8295035668319102  0.4173449023729745  0.0038265778574456
  0.6670091547743340  0.5818540519128490  0.2510576772549626
  0.4993985362760540  0.7566666886221043  0.5003245470466879
  0.3398792822999113  0.9114465929703499  0.7396204372835342
  0.9908776391960075  0.2465594696684832  0.2490249857373215
  0.8341094783115963  0.4166595196363545  0.4964404237088544
  0.6694274027718805  0.5861516135552662  0.7509008750801627
  0.0046770144791566  0.2527784117232059  0.7312452457008689
  0.8388370224564810  0.7483045528346537  0.9936861421114145
  0.6622494900688949  0.9197012780446840  0.2506628360064553
  0.0000519136501680  0.5836821467061952  0.2491006855475959
  0.8326700749089539  0.7517243748775684  0.5039532677134275
  0.6675745813776786  0.9157074483725509  0.7546889818302915
  0.9975235873277910  0.5870392749326925  0.7472503925428953
  0.0026147632178777  0.9180654292230486  0.2489577249071431
  0.9967061125961294  0.9135947627779686  0.7478588540583360
  0.0767670766881139  0.1581457594015845  0.0049337466235784
  0.0846602184646130  0.1576191028379483  0.5022867005963931
  0.0751601165712472  0.5028002811387964  0.9925555970292237
  0.4164032387894352  0.1695248088364920  0.0150140634549558
  0.2478014962066410  0.3238094561400686  0.2543261762541178
  0.0820070237781678  0.5042183267021585  0.4949361557043019
  0.4156862798707124  0.1629127022805790  0.5012596985857627
  0.2479782029013577  0.3371717751460821  0.7392733374438265
  0.0786769712940796  0.8333801218910821  0.0019623148173338
  0.4210579537485160  0.5010315405945107  0.0092277697204182
  0.2486866520644213  0.6711981117370129  0.2618434692306408
  0.0846715380470542  0.8368821533552975  0.4954858175106196
  0.7517855955795625  0.1596055320791052  0.0147723899387486
  0.5831969074453269  0.3388446273072248  0.2500378535149963
  0.4204034642515992  0.5017105903016343  0.4928007857421974
  0.2504602372442619  0.6700134162119085  0.7361079325168731
  0.7561542503330685  0.1678245539599033  0.5024170348716623
  0.5824443845408922  0.3385227779840605  0.7508655836253268
  0.4202919983193851  0.8319195807523911  0.0045318985169089
  0.2513076405294115  0.9981861081312928  0.2478182336647805
  0.7492038828437018  0.4996594670297227  0.0001447094945988
  0.5792806977598488  0.6671123363219920  0.2541837077996547
  0.4222180446953061  0.8374412840931811  0.4995928572944095
  0.2514293559544427  0.9964597521567882  0.7385183169594427
  0.9147233691607184  0.3242130358136635  0.2510287339232278
  0.7507676026807957  0.4986374613011222  0.4972841806966812
  0.5826066928936982  0.6714869701249526  0.7467372145878457
  0.9153077411384558  0.3444050705326305  0.7355016449594345
  0.7499235654781344  0.8410532714253947  0.9935236917033237
  0.5852071607141909  0.9936684043029587  0.2554490390730848
  0.9187596284833148  0.6700961393424265  0.2451612826642346
  0.7526097230915241  0.8340948533391028  0.5055865783121618
  0.5844996504616731  0.9938470024026813  0.7499208138202960
  0.9165674258396663  0.6694077599026116  0.7523357995761728
  0.9188008445177758  0.0023476819247108  0.2526153857828390
  0.9176516254247957  0.9952482975006518  0.7453759033946099
  0.1633976168215057  0.9987185901805873  0.1231608430736770
  0.1636764820148926  0.9978645254069534  0.6210603960048005
  0.1584626970522010  0.3236223925412673  0.1206297888499819
  0.5073070061029270  0.9958926608189884  0.1266817321359994
  0.3322907389224028  0.1638358428166100  0.3740950755250410
  0.1646634721255467  0.3330417099736138  0.6204997818161360
  0.5060344227029248  0.9941255536573692  0.6266174409050649
  0.3328214197174830  0.1676979028565171  0.8836907287868954
  0.1554776451145514  0.6705228053353025  0.1234055481061560
  0.4994966061486323  0.3346326680226994  0.1257685180531070
  0.3422390663994221  0.5021552747864106  0.3720427259393659
  0.1638116675868986  0.6707360431192484  0.6197692194863080
  0.8313856265358268  0.0019927778641815  0.1221225603481244
  0.6710241867924793  0.1620024069510038  0.3760838583598840
  0.4979162184476849  0.3363083309794987  0.6301082723426177
  0.3338959157952530  0.5012432079147615  0.8682087814500292
  0.8386758898794966  0.9963807822344961  0.6345981395227440
  0.6686777190332833  0.1587162544641387  0.8827324053108825
  0.4965413338798541  0.6679306099990114  0.1291739748436811
  0.3364913094544235  0.8353982522681136  0.3756722060790949
  0.8302424372409547  0.3316434217073763  0.1294212275544311
  0.6677234218434691  0.4985447953100532  0.3735039311444908
  0.4998765128845619  0.6717440963051047  0.6267681117315718
  0.3381944039550220  0.8331438668914757  0.8648697216106598
  0.9983319134139492  0.1633390007865856  0.3742134982690573
  0.8333482679108357  0.3393307613228842  0.6208970345766716
  0.6716404826464526  0.4981691193707007  0.8802271173931757
  0.0057933953114642  0.1533123927124578  0.8887055113435665
  0.8394990567870551  0.6630772832098444  0.1233092854875082
  0.6632844270226244  0.8382361531030185  0.3768365135124370
  0.9968007447807281  0.5008398250462847  0.3751758589318257
  0.8351438095921253  0.6690951436283896  0.6256250419666003
  0.6688324022562355  0.8413474996533310  0.8721573071496849
  0.9950919094881669  0.5049193940285264  0.8721344041521988
  0.0019564735737774  0.8347044635673484  0.3716250148123308
  0.9969263990288866  0.8315378047056257  0.8762582935711833
  0.0804165581364344  0.9972289611608574  0.2504324403212763
  0.0788534451050538  0.9983858374068717  0.7482571351429783
  0.0778929794655596  0.3313490583572261  0.2473032297822968
  0.4195692775757891  0.9949193930618705  0.2553295695076585
  0.2481320554033815  0.1696487603115031  0.4979991577386258
  0.0832474344958598  0.3370344016890527  0.7424201966768962
  0.4216911459819741  0.9906754540150189  0.7320978615045206
  0.2493921303300510  0.1641905634135128  0.0150668141903125
  0.0815612721867041  0.6659689992134901  0.2495290296208523
  0.4189656469152254  0.3329114915927605  0.2488806992322594
  0.2489306027907219  0.5038465955830134  0.4981967368041182
  0.0796575468857483  0.6687480435711564  0.7469229352315594
  0.7496209507097760  0.0031996567301320  0.2501851096026044
  0.5834671391218791  0.1581543158260033  0.5063703258050936
  0.4166058875392551  0.3392641499413500  0.7449704543699198
  0.2471875021107763  0.5007786055807486  0.9869285751550692
  0.7538507026694106  0.9967814905923973  0.7579469082802675
  0.5871190201774681  0.1594028060850334  0.0083430337138495
  0.4179164199807133  0.6722332802958562  0.2495127674231625
  0.2503573330798332  0.8297410656701203  0.4946034552275265
  0.7507151416235232  0.3287889666255097  0.2520987787464364
  0.5836061396211321  0.5004952274136159  0.4939050128433990
  0.4155756239873725  0.6718693880333930  0.7462316743372668
  0.2481491707548642  0.8368983619185002  0.0040138901656093
  0.9169621016317251  0.1580919125252933  0.4984121369480263
  0.7494933814310585  0.3386285502653621  0.7468892348411984
  0.5877929440911700  0.4976943008880710  0.0062009371692469
  0.9145892654422667  0.1556309924025143  0.0221965242475406
  0.7519966198821564  0.6643531259708695  0.2540753829500701
  0.5812211634210485  0.8389064524068885  0.5011232514774235
  0.9163326746375162  0.5015113563284856  0.4974689282570992
  0.7528323243461017  0.6704312020221224  0.7471947056259012
  0.5822427101199708  0.8421572784682638  0.0031266356348709
  0.9146690381026161  0.5029128832208585  0.9979631134192601
  0.9157009415103659  0.8386294765651385  0.5029368167914683
  0.9185779603917581  0.8325115661895950  0.9973351483067248
  0.9942514984243545  0.1599558035733395  0.1326267066896492
  0.0036157225987239  0.1650478111104974  0.6204878555114206
  0.9947518167410792  0.5032166555178037  0.1189967957502560
  0.3331621133206539  0.1662688627126485  0.1346999289192965
  0.1637082087832198  0.3286385851456686  0.3759224498036389
  0.9965253759120145  0.5047486943131076  0.6188729272764419
  0.3325623773545843  0.1646073236271022  0.6197027980755578
  0.1596630664103600  0.3420240655289248  0.8652395084429116
  0.9993403365721747  0.8318771682057644  0.1192979345814749
  0.3459294620858984  0.5013959865648658  0.1236273929717484
  0.1646274133081320  0.6685581734346684  0.3731282811120806
  0.9976948801048238  0.8350565234633933  0.6278468480532808
  0.6715822590747109  0.1583219192614180  0.1317625277582337
  0.4992959966614592  0.3363696110596095  0.3677127657146357
  0.3357677192435276  0.5035676864326391  0.6232858730986877
  0.1560284858603893  0.6708276538559517  0.8749589949020518
  0.6688102379525702  0.1642849831746105  0.6329892256671741
  0.5010305165215314  0.3400996865039261  0.8808367738385670
  0.3373011875495209  0.8359536961992475  0.1277122661728640
  0.1642221144881759  0.9995295460252223  0.3719917774650057
  0.6677100837352228  0.4987963944006708  0.1234321769201259
  0.5006394774279102  0.6678046735341212  0.3704472781630201
  0.3370722341227435  0.8328137193975067  0.6192251662669079
  0.1576414870874245  0.9947819417031099  0.8832800529939107
  0.8332406449707150  0.3338431930284855  0.3760281270510433
  0.6695976197207258  0.4989992029078252  0.6223530183800108
  0.4966905468059792  0.6735566433913078  0.8798751912867431
  0.8263177590562734  0.3471665359916898  0.8731853542882178
  0.6628007798559636  0.8427187621272978  0.1245104485051769
  0.5019682675379826  0.9951883647527069  0.3785975558912895
  0.8352962560235682  0.6639881095022133  0.3749357965630438
  0.6672000647131000  0.8362572926520642  0.6303020920989866
  0.5115438749581003  0.9903623964161952  0.8743249631113201
  0.8385002455370625  0.6694318866033768  0.8780500093523074
  0.8364121024797626  0.0010001505515618  0.3771515204902087
  0.8306796556973666  0.9939583423312541  0.8769517861519134
  0.9973330004163046  0.0790291434597847  0.2516971116040523
  0.0020837664718840  0.0755098210502325  0.7484485991319545
  0.9987224008193820  0.4148547980748347  0.2513302092572332
  0.3294862446427160  0.0824979237491945  0.2512140753292655
  0.1682656646425968  0.2456306132620796  0.4990582174837428
  0.9961103807188465  0.4229993044151144  0.7384294451054032
  0.3337975189459499  0.0815647522150513  0.7351972927313852
  0.1596224524384198  0.2451615687615032  0.0158805455680806
  0.9965249431553573  0.7487275918569338  0.2453621704149143
  0.3430536581951600  0.4183242747934344  0.2523209258642467
  0.1622024255387302  0.5863972958110040  0.4928027140816411
  0.9957448283368393  0.7502593935595527  0.7530218743410515
  0.6725654917766661  0.0817289309551015  0.2485009933070330
  0.4976891465256372  0.2466119945435423  0.5029087115261319
  0.3367692563671412  0.4222673752411410  0.7443193091148075
  0.1563715249277138  0.5862874798767237  0.9951018094092063
  0.6698996819179328  0.0814487325606450  0.7555315194285441
  0.4993230991809199  0.2514686317901962  0.0134346119311104
  0.3405965365832486  0.7520588827510579  0.2554159697045222
  0.1635004881416506  0.9159360982444227  0.4969867112004138
  0.6653205072150357  0.4147051156305892  0.2510848932996410
  0.4998720502348704  0.5831568333835904  0.4951094531328195
  0.3378406256249917  0.7516067608680217  0.7421345957390031
  0.1599997253700494  0.9202398934829148  0.0006638350462538
  0.8312012644139912  0.2484646731221645  0.4979907533453556
  0.6681017644103591  0.4171446210824143  0.7498496818790628
  0.4973006489146101  0.5844079725793492  0.0067772793163599
  0.8272942642657526  0.2449853484107010  0.0239033313796639
  0.6643262018060554  0.7538474821057619  0.2570458064232284
  0.5009925458459676  0.9139756632234821  0.5023740864597457
  0.8365935406225731  0.5849824324969788  0.4973844676543067
  0.6684767588877705  0.7552832722092546  0.7466019818363137
  0.5090275151468902  0.9142681622751994  0.9994759711638608
  0.8355842705468532  0.5857664000321492  0.9994222847335621
  0.8391649497321652  0.9143850681965375  0.5062827147793882
  0.8318107558712668  0.9168204432769187  0.9949129963343353
 
  0.00000000E+00  0.00000000E+00  0.00000000E+00
  0.00000000E+00  0.00000000E+00  0.00000000E+00
  0.00000000E+00  0.00000000E+00  0.00000000E+00
  0.00000000E+00  0.00000000E+00  0.00000000E+00
  0.00000000E+00  0.00000000E+00  0.00000000E+00
  0.00000000E+00  0.00000000E+00  0.00000000E+00
  0.00000000E+00  0.00000000E+00  0.00000000E+00
  0.00000000E+00  0.00000000E+00  0.00000000E+00
  0.00000000E+00  0.00000000E+00  0.00000000E+00
  0.00000000E+00  0.00000000E+00  0.00000000E+00
  0.00000000E+00  0.00000000E+00  0.00000000E+00
  0.00000000E+00  0.00000000E+00  0.00000000E+00
  0.00000000E+00  0.00000000E+00  0.00000000E+00
  0.00000000E+00  0.00000000E+00  0.00000000E+00
  0.00000000E+00  0.00000000E+00  0.00000000E+00
  0.00000000E+00  0.00000000E+00  0.00000000E+00
  0.00000000E+00  0.00000000E+00  0.00000000E+00
  0.00000000E+00  0.00000000E+00  0.00000000E+00
  0.00000000E+00  0.00000000E+00  0.00000000E+00
  0.00000000E+00  0.00000000E+00  0.00000000E+00
  0.00000000E+00  0.00000000E+00  0.00000000E+00
  0.00000000E+00  0.00000000E+00  0.00000000E+00
  0.00000000E+00  0.00000000E+00  0.00000000E+00
  0.00000000E+00  0.00000000E+00  0.00000000E+00
  0.00000000E+00  0.00000000E+00  0.00000000E+00
  0.00000000E+00  0.00000000E+00  0.00000000E+00
  0.00000000E+00  0.00000000E+00  0.00000000E+00
  0.00000000E+00  0.00000000E+00  0.00000000E+00
  0.00000000E+00  0.00000000E+00  0.00000000E+00
  0.00000000E+00  0.00000000E+00  0.00000000E+00
  0.00000000E+00  0.00000000E+00  0.00000000E+00
  0.00000000E+00  0.00000000E+00  0.00000000E+00
  0.00000000E+00  0.00000000E+00  0.00000000E+00
  0.00000000E+00  0.00000000E+00  0.00000000E+00
  0.00000000E+00  0.00000000E+00  0.00000000E+00
  0.00000000E+00  0.00000000E+00  0.00000000E+00
  0.00000000E+00  0.00000000E+00  0.00000000E+00
  0.00000000E+00  0.00000000E+00  0.00000000E+00
  0.00000000E+00  0.00000000E+00  0.00000000E+00
  0.00000000E+00  0.00000000E+00  0.00000000E+00
  0.00000000E+00  0.00000000E+00  0.00000000E+00
  0.00000000E+00  0.00000000E+00  0.00000000E+00
  0.00000000E+00  0.00000000E+00  0.00000000E+00
  0.00000000E+00  0.00000000E+00  0.00000000E+00
  0.00000000E+00  0.00000000E+00  0.00000000E+00
  0.00000000E+00  0.00000000E+00  0.00000000E+00
  0.00000000E+00  0.00000000E+00  0.00000000E+00
  0.00000000E+00  0.00000000E+00  0.00000000E+00
  0.00000000E+00  0.00000000E+00  0.00000000E+00
  0.00000000E+00  0.00000000E+00  0.00000000E+00
  0.00000000E+00  0.00000000E+00  0.00000000E+00
  0.00000000E+00  0.00000000E+00  0.00000000E+00
  0.00000000E+00  0.00000000E+00  0.00000000E+00
  0.00000000E+00  0.00000000E+00  0.00000000E+00
  0.00000000E+00  0.00000000E+00  0.00000000E+00
  0.00000000E+00  0.00000000E+00  0.00000000E+00
  0.00000000E+00  0.00000000E+00  0.00000000E+00
  0.00000000E+00  0.00000000E+00  0.00000000E+00
  0.00000000E+00  0.00000000E+00  0.00000000E+00
  0.00000000E+00  0.00000000E+00  0.00000000E+00
  0.00000000E+00  0.00000000E+00  0.00000000E+00
  0.00000000E+00  0.00000000E+00  0.00000000E+00
  0.00000000E+00  0.00000000E+00  0.00000000E+00
  0.00000000E+00  0.00000000E+00  0.00000000E+00
  0.00000000E+00  0.00000000E+00  0.00000000E+00
  0.00000000E+00  0.00000000E+00  0.00000000E+00
  0.00000000E+00  0.00000000E+00  0.00000000E+00
  0.00000000E+00  0.00000000E+00  0.00000000E+00
  0.00000000E+00  0.00000000E+00  0.00000000E+00
  0.00000000E+00  0.00000000E+00  0.00000000E+00
  0.00000000E+00  0.00000000E+00  0.00000000E+00
  0.00000000E+00  0.00000000E+00  0.00000000E+00
  0.00000000E+00  0.00000000E+00  0.00000000E+00
  0.00000000E+00  0.00000000E+00  0.00000000E+00
  0.00000000E+00  0.00000000E+00  0.00000000E+00
  0.00000000E+00  0.00000000E+00  0.00000000E+00
  0.00000000E+00  0.00000000E+00  0.00000000E+00
  0.00000000E+00  0.00000000E+00  0.00000000E+00
  0.00000000E+00  0.00000000E+00  0.00000000E+00
  0.00000000E+00  0.00000000E+00  0.00000000E+00
  0.00000000E+00  0.00000000E+00  0.00000000E+00
  0.00000000E+00  0.00000000E+00  0.00000000E+00
  0.00000000E+00  0.00000000E+00  0.00000000E+00
  0.00000000E+00  0.00000000E+00  0.00000000E+00
  0.00000000E+00  0.00000000E+00  0.00000000E+00
  0.00000000E+00  0.00000000E+00  0.00000000E+00
  0.00000000E+00  0.00000000E+00  0.00000000E+00
  0.00000000E+00  0.00000000E+00  0.00000000E+00
  0.00000000E+00  0.00000000E+00  0.00000000E+00
  0.00000000E+00  0.00000000E+00  0.00000000E+00
  0.00000000E+00  0.00000000E+00  0.00000000E+00
  0.00000000E+00  0.00000000E+00  0.00000000E+00
  0.00000000E+00  0.00000000E+00  0.00000000E+00
  0.00000000E+00  0.00000000E+00  0.00000000E+00
  0.00000000E+00  0.00000000E+00  0.00000000E+00
  0.00000000E+00  0.00000000E+00  0.00000000E+00
  0.00000000E+00  0.00000000E+00  0.00000000E+00
  0.00000000E+00  0.00000000E+00  0.00000000E+00
  0.00000000E+00  0.00000000E+00  0.00000000E+00
  0.00000000E+00  0.00000000E+00  0.00000000E+00
  0.00000000E+00  0.00000000E+00  0.00000000E+00
  0.00000000E+00  0.00000000E+00  0.00000000E+00
  0.00000000E+00  0.00000000E+00  0.00000000E+00
  0.00000000E+00  0.00000000E+00  0.00000000E+00
  0.00000000E+00  0.00000000E+00  0.00000000E+00
  0.00000000E+00  0.00000000E+00  0.00000000E+00
  0.00000000E+00  0.00000000E+00  0.00000000E+00
  0.00000000E+00  0.00000000E+00  0.00000000E+00
  0.00000000E+00  0.00000000E+00  0.00000000E+00
  0.00000000E+00  0.00000000E+00  0.00000000E+00
  0.00000000E+00  0.00000000E+00  0.00000000E+00
  0.00000000E+00  0.00000000E+00  0.00000000E+00
  0.00000000E+00  0.00000000E+00  0.00000000E+00
  0.00000000E+00  0.00000000E+00  0.00000000E+00
  0.00000000E+00  0.00000000E+00  0.00000000E+00
  0.00000000E+00  0.00000000E+00  0.00000000E+00
  0.00000000E+00  0.00000000E+00  0.00000000E+00
  0.00000000E+00  0.00000000E+00  0.00000000E+00
  0.00000000E+00  0.00000000E+00  0.00000000E+00
  0.00000000E+00  0.00000000E+00  0.00000000E+00
  0.00000000E+00  0.00000000E+00  0.00000000E+00
  0.00000000E+00  0.00000000E+00  0.00000000E+00
  0.00000000E+00  0.00000000E+00  0.00000000E+00
  0.00000000E+00  0.00000000E+00  0.00000000E+00
  0.00000000E+00  0.00000000E+00  0.00000000E+00
  0.00000000E+00  0.00000000E+00  0.00000000E+00
  0.00000000E+00  0.00000000E+00  0.00000000E+00
  0.00000000E+00  0.00000000E+00  0.00000000E+00
  0.00000000E+00  0.00000000E+00  0.00000000E+00
  0.00000000E+00  0.00000000E+00  0.00000000E+00
  0.00000000E+00  0.00000000E+00  0.00000000E+00
  0.00000000E+00  0.00000000E+00  0.00000000E+00
  0.00000000E+00  0.00000000E+00  0.00000000E+00
  0.00000000E+00  0.00000000E+00  0.00000000E+00
  0.00000000E+00  0.00000000E+00  0.00000000E+00
  0.00000000E+00  0.00000000E+00  0.00000000E+00
  0.00000000E+00  0.00000000E+00  0.00000000E+00
  0.00000000E+00  0.00000000E+00  0.00000000E+00
  0.00000000E+00  0.00000000E+00  0.00000000E+00
  0.00000000E+00  0.00000000E+00  0.00000000E+00
  0.00000000E+00  0.00000000E+00  0.00000000E+00
  0.00000000E+00  0.00000000E+00  0.00000000E+00
  0.00000000E+00  0.00000000E+00  0.00000000E+00
  0.00000000E+00  0.00000000E+00  0.00000000E+00
  0.00000000E+00  0.00000000E+00  0.00000000E+00
  0.00000000E+00  0.00000000E+00  0.00000000E+00
  0.00000000E+00  0.00000000E+00  0.00000000E+00
  0.00000000E+00  0.00000000E+00  0.00000000E+00
  0.00000000E+00  0.00000000E+00  0.00000000E+00
  0.00000000E+00  0.00000000E+00  0.00000000E+00
  0.00000000E+00  0.00000000E+00  0.00000000E+00
  0.00000000E+00  0.00000000E+00  0.00000000E+00
  0.00000000E+00  0.00000000E+00  0.00000000E+00
  0.00000000E+00  0.00000000E+00  0.00000000E+00
  0.00000000E+00  0.00000000E+00  0.00000000E+00
  0.00000000E+00  0.00000000E+00  0.00000000E+00
  0.00000000E+00  0.00000000E+00  0.00000000E+00
  0.00000000E+00  0.00000000E+00  0.00000000E+00
  0.00000000E+00  0.00000000E+00  0.00000000E+00
  0.00000000E+00  0.00000000E+00  0.00000000E+00
  0.00000000E+00  0.00000000E+00  0.00000000E+00
  0.00000000E+00  0.00000000E+00  0.00000000E+00
  0.00000000E+00  0.00000000E+00  0.00000000E+00
  0.00000000E+00  0.00000000E+00  0.00000000E+00
  0.00000000E+00  0.00000000E+00  0.00000000E+00
  0.00000000E+00  0.00000000E+00  0.00000000E+00
  0.00000000E+00  0.00000000E+00  0.00000000E+00
  0.00000000E+00  0.00000000E+00  0.00000000E+00
  0.00000000E+00  0.00000000E+00  0.00000000E+00
  0.00000000E+00  0.00000000E+00  0.00000000E+00
  0.00000000E+00  0.00000000E+00  0.00000000E+00
  0.00000000E+00  0.00000000E+00  0.00000000E+00
  0.00000000E+00  0.00000000E+00  0.00000000E+00
  0.00000000E+00  0.00000000E+00  0.00000000E+00
  0.00000000E+00  0.00000000E+00  0.00000000E+00
  0.00000000E+00  0.00000000E+00  0.00000000E+00
  0.00000000E+00  0.00000000E+00  0.00000000E+00
  0.00000000E+00  0.00000000E+00  0.00000000E+00
  0.00000000E+00  0.00000000E+00  0.00000000E+00
  0.00000000E+00  0.00000000E+00  0.00000000E+00
  0.00000000E+00  0.00000000E+00  0.00000000E+00
  0.00000000E+00  0.00000000E+00  0.00000000E+00
  0.00000000E+00  0.00000000E+00  0.00000000E+00
  0.00000000E+00  0.00000000E+00  0.00000000E+00
  0.00000000E+00  0.00000000E+00  0.00000000E+00
  0.00000000E+00  0.00000000E+00  0.00000000E+00
  0.00000000E+00  0.00000000E+00  0.00000000E+00
  0.00000000E+00  0.00000000E+00  0.00000000E+00
  0.00000000E+00  0.00000000E+00  0.00000000E+00
  0.00000000E+00  0.00000000E+00  0.00000000E+00
  0.00000000E+00  0.00000000E+00  0.00000000E+00
  0.00000000E+00  0.00000000E+00  0.00000000E+00
  0.00000000E+00  0.00000000E+00  0.00000000E+00
  0.00000000E+00  0.00000000E+00  0.00000000E+00
  0.00000000E+00  0.00000000E+00  0.00000000E+00
  0.00000000E+00  0.00000000E+00  0.00000000E+00
  0.00000000E+00  0.00000000E+00  0.00000000E+00
  0.00000000E+00  0.00000000E+00  0.00000000E+00
  0.00000000E+00  0.00000000E+00  0.00000000E+00
  0.00000000E+00  0.00000000E+00  0.00000000E+00
  0.00000000E+00  0.00000000E+00  0.00000000E+00
  0.00000000E+00  0.00000000E+00  0.00000000E+00
  0.00000000E+00  0.00000000E+00  0.00000000E+00
  0.00000000E+00  0.00000000E+00  0.00000000E+00
  0.00000000E+00  0.00000000E+00  0.00000000E+00
  0.00000000E+00  0.00000000E+00  0.00000000E+00
  0.00000000E+00  0.00000000E+00  0.00000000E+00
  0.00000000E+00  0.00000000E+00  0.00000000E+00
  0.00000000E+00  0.00000000E+00  0.00000000E+00
  0.00000000E+00  0.00000000E+00  0.00000000E+00
  0.00000000E+00  0.00000000E+00  0.00000000E+00
  0.00000000E+00  0.00000000E+00  0.00000000E+00
  0.00000000E+00  0.00000000E+00  0.00000000E+00
  0.00000000E+00  0.00000000E+00  0.00000000E+00
  0.00000000E+00  0.00000000E+00  0.00000000E+00
  0.00000000E+00  0.00000000E+00  0.00000000E+00
  0.00000000E+00  0.00000000E+00  0.00000000E+00
  0.00000000E+00  0.00000000E+00  0.00000000E+00
  0.00000000E+00  0.00000000E+00  0.00000000E+00
  0.00000000E+00  0.00000000E+00  0.00000000E+00
  0.00000000E+00  0.00000000E+00  0.00000000E+00
  0.00000000E+00  0.00000000E+00  0.00000000E+00
  0.00000000E+00  0.00000000E+00  0.00000000E+00
  0.00000000E+00  0.00000000E+00  0.00000000E+00
  0.00000000E+00  0.00000000E+00  0.00000000E+00
  0.00000000E+00  0.00000000E+00  0.00000000E+00
  0.00000000E+00  0.00000000E+00  0.00000000E+00
  0.00000000E+00  0.00000000E+00  0.00000000E+00
  0.00000000E+00  0.00000000E+00  0.00000000E+00
  0.00000000E+00  0.00000000E+00  0.00000000E+00
  0.00000000E+00  0.00000000E+00  0.00000000E+00
  0.00000000E+00  0.00000000E+00  0.00000000E+00
  0.00000000E+00  0.00000000E+00  0.00000000E+00
  0.00000000E+00  0.00000000E+00  0.00000000E+00
  0.00000000E+00  0.00000000E+00  0.00000000E+00
  0.00000000E+00  0.00000000E+00  0.00000000E+00
  0.00000000E+00  0.00000000E+00  0.00000000E+00
  0.00000000E+00  0.00000000E+00  0.00000000E+00
  0.00000000E+00  0.00000000E+00  0.00000000E+00
  0.00000000E+00  0.00000000E+00  0.00000000E+00
  0.00000000E+00  0.00000000E+00  0.00000000E+00
  0.00000000E+00  0.00000000E+00  0.00000000E+00
  0.00000000E+00  0.00000000E+00  0.00000000E+00
  0.00000000E+00  0.00000000E+00  0.00000000E+00
  0.00000000E+00  0.00000000E+00  0.00000000E+00
  0.00000000E+00  0.00000000E+00  0.00000000E+00
  0.00000000E+00  0.00000000E+00  0.00000000E+00
  0.00000000E+00  0.00000000E+00  0.00000000E+00
  0.00000000E+00  0.00000000E+00  0.00000000E+00
  0.00000000E+00  0.00000000E+00  0.00000000E+00
  0.00000000E+00  0.00000000E+00  0.00000000E+00
  0.00000000E+00  0.00000000E+00  0.00000000E+00
