POSCAR                                  
   1.00000000000000     
    10.0227108994786338   -0.0076285938535437   -0.0009903150886167
    -0.0075959892741807   10.0370223298515135   -0.0015534118125558
    -0.0006406525681057   -0.0010071906378431    6.6437520436616548
   Mg   Na   Ca   Zr   H 
     9     9     9     9   216
Direct
  0.1666434260369042  0.1739531433823210  0.2503085339294893
  0.5015155636083373  0.4964156577763369  0.2486866349221648
  0.8344959922780464  0.1738982043219215  0.2532520243098751
  0.6618379205282392  0.3287444354516745  0.5025201306324570
  0.6636442718228508  0.3352819715549714  0.9965277865134330
  0.0001538855804806  0.3345465689821528  0.5004305651912708
  0.0011067548269398  0.6586021460407656  0.5003333599535766
  0.6610464658103871  0.9948540731293273  0.9980516782749633
  0.9965263253525486  0.0036374065212707  0.4985381167940860
  0.1676754460023563  0.1652393701528773  0.7446949028989114
  0.5021909462457348  0.1656397067494891  0.7518400259350428
  0.3374084417038645  0.3310488057470118  0.0002558398196435
  0.8344811537733604  0.4961791353158541  0.2537441181499564
  0.5015892523492999  0.8327967118937474  0.7498591406621296
  0.8297998831763553  0.4952661732623333  0.7480749999688607
  0.6704649147096386  0.6707292385307243  0.9977869522986273
  0.6745483165326811  0.0100875568976208  0.4996098709008259
  0.9929217528782652  0.6645997645348660  0.9961089314860629
  0.1618104080064932  0.4929905370932495  0.2462984443798095
  0.3338425309516313  0.3325422767206563  0.5027637006950342
  0.3298297800751300  0.6653130349264631  0.5003107175118048
  0.1695414895568654  0.8402093506242895  0.7475354507173795
  0.5064321861812187  0.4968939702026575  0.7543735741917398
  0.8320666677774541  0.1721852607472344  0.7528577310939839
  0.3335656751105661  0.0032508347806989  0.5052832868759811
  0.3384490449757351  0.0082397483774430  0.9974594887720124
  0.9886148266998945  0.3340131194192892 -0.0000060251066494
  0.5020565163117232  0.1731297512513900  0.2503917716502181
  0.1609258443713663  0.4946537314353090  0.7502439439515154
  0.1629656846739660  0.8347173383264577  0.2501073043068583
  0.3357695110561479  0.6620568970662574  0.9965158621881528
  0.5050103348440832  0.8331759321060078  0.2500083331553092
  0.6688629580193068  0.6557668091663681  0.5006006818635254
  0.8333718603296407  0.8287252211896635  0.2523557096791363
  0.8297858859934634  0.8348652007616808  0.7487510816655603
  0.0017291699531251  0.0052129471831762  0.0030141340218810
  0.1693868349014785  0.0848513799287173  0.0004329721184412
  0.1564091554286224  0.0854392208798593  0.4933890051597238
  0.1741656319977041  0.4090458462799976  0.0005895186650857
  0.5130176629345687  0.0828515416559968  0.9882319206142945
  0.3300769384120816  0.2517422137825588  0.2438051441360087
  0.1619748411324574  0.4121243152764166  0.4937389109529614
  0.5086203189569724  0.0802909497673047  0.5112010000200625
  0.3242136166678619  0.2535767288708478  0.7583948484296674
  0.1609640154660231  0.7511191038849728  0.9928789399333489
  0.5049714831594428  0.4178117964212489  0.0141365943588681
  0.3362507917503065  0.5812220788112591  0.2493144146014167
  0.1579178176190865  0.7467303739072023  0.5090308777724720
  0.8153505845346736  0.0823283698718725  0.0107487311970547
  0.6755690314213081  0.2513191423602488  0.2211713855527660
  0.5047522812016704  0.4185006365681715  0.4933064930469809
  0.3344747207107709  0.5807630037434859  0.7468196720592145
  0.8401583676691478  0.0842635550966399  0.4931605224372484
  0.6629475824560489  0.2444978031356215  0.7754331489875395
  0.5065433065558568  0.7478845524802333  0.9928499577885458
  0.3348609711296550  0.9210269184130320  0.2483805667045424
  0.8178474200506648  0.4125201545040807  0.0189553902851904
  0.6740895477752412  0.5844626042542335  0.2352015703177103
  0.5016086493458474  0.7492136635866197  0.5087752330538649
  0.3500580099578138  0.9193102344199142  0.7531051635197827
  0.0032101507304081  0.2486999116371083  0.2538398973148107
  0.8376302167203522  0.4194059870694508  0.4958471250577577
  0.6794397820771704  0.5856353518024290  0.7625290075623437
  0.0112758954881423  0.2503453086957258  0.7385008776246359
  0.8333502852426015  0.7454820744023050  0.9946265420623303
  0.6708853290986508  0.9206669217009754  0.2590901048013911
  0.9935125152164516  0.5817495488284404  0.2535861115389156
  0.8350614808755462  0.7414182775073834  0.5081060028092573
  0.6568909877346598  0.9161858972886319  0.7332191247759834
  0.9895297111151140  0.5824252036980612  0.7427280443424232
  0.9948218113937209  0.9182496188762410  0.2762826086332115
  0.0008728704031550  0.9182217364708679  0.7241437505968297
  0.0893875260363846  0.1785392492147685  0.9972567368967646
  0.0859213530877561  0.1803866206764032  0.4919901721978020
  0.0785630326243828  0.5014534675108694  0.9983890901721897
  0.4161580383697431  0.1741299214395213  0.9859791970604289
  0.2512736282888656  0.3270702340084891  0.2419177708253889
  0.0818724128897520  0.4955383765639881  0.5000806579434530
  0.4158345261460598  0.1682637583974785  0.5177682320024747
  0.2554227340063969  0.3132239686940028  0.7606517712327749
  0.0805238668977099  0.8248036367242343  0.9938307012189862
  0.4155809979684142  0.4953530024149099  0.0031277162509073
  0.2499352374762342  0.6637873010597114  0.2461925242430855
  0.0808987554888944  0.8292418266317296  0.4993128471879850
  0.7460565539129795  0.1468077227218335  0.0060414524633819
  0.5875253913322928  0.3342667873901379  0.2638942373823110
  0.4137020984607808  0.4999893595687057  0.5047079237100315
  0.2501125692262681  0.6709877179042467  0.7518877344204176
  0.7483898862151918  0.1767428061634082  0.4853734643174008
  0.5853393216457683  0.3307373953171765  0.7395524412280980
  0.4208508344171189  0.8385284284158719  0.9920306849554530
  0.2498457871798142  0.0092419500562981  0.2504552079623601
  0.7568131571457034  0.5147339827799283  0.0025140534874419
  0.5832231070839915  0.6556224087228345  0.2323203898349111
  0.4197756519056448  0.8334331976460813  0.5043679215833103
  0.2503323961907529  0.0134052127105939  0.7547138110938272
  0.9138915639543347  0.3289066107440754  0.2667247772491131
  0.7537337914127776  0.4805118396720738  0.4939387835523315
  0.5824140044528641  0.6713191284045463  0.7631291989119782
  0.9134297931894414  0.3416519565823660  0.7299748211237010
  0.7485286625565708  0.8380107207457709  0.0046313898713123
  0.5881227011608605  0.0056308953708404  0.2559585541790099
  0.9189913350124427  0.6569933387825492  0.2534493440049186
  0.7450196076996590  0.8357458128958587  0.4969521010108336
  0.5858996699781706  0.0047948590197814  0.7485072737403008
  0.9176634961840974  0.6540246140127053  0.7456119565038980
  0.9166558196478407  0.0175835876487193  0.2537589091707221
  0.9167206902692812  0.0048166748439154  0.7537957385372888
  0.1682081807941047  0.0173468918397694  0.1292667261252150
  0.1548704558714007  0.0085547876396220  0.6197410482358320
  0.1687948132688052  0.3289092586379167  0.1200419447119331
  0.5047678842424685  0.0031281599608799  0.1256550770658414
  0.3229670868021322  0.1698209936391587  0.3770947393332525
  0.1639778667511699  0.3283024007348482  0.6263186397030426
  0.5083304403820254  0.0037018631655471  0.6231402082133641
  0.3415518952922210  0.1701972295957653  0.8769673766293289
  0.1537764005432136  0.6570485655558091  0.1180534198612955
  0.5047176685948728  0.3419339513025958  0.1216719476975867
  0.3376997986591062  0.4987460694044669  0.3725738041189388
  0.1619956661349794  0.6711077374545749  0.6243703317295926
  0.8346399384078528  0.0033984491844613  0.1297241129732360
  0.6787195488775288  0.1737949337927578  0.3763482453941209
  0.5100492369187639  0.3232009816024526  0.6323925646490999
  0.3369890880617989  0.4872253929223997  0.8746821624834655
  0.8374454861033003  0.0061468100563943  0.6229451155678737
  0.6619851956308431  0.1813228528970723  0.8750560166085163
  0.5098867045771531  0.6592977642629710  0.1256709362839350
  0.3349956655413724  0.8323283570874622  0.3769007386978468
  0.8200039321557729  0.3441389753770306  0.1238401789854366
  0.6634676807805082  0.4870351435339891  0.3727027499731836
  0.4967437724845478  0.6709576319526598  0.6255810223909507
  0.3396177679333858  0.8373343538652932  0.8752483515966961
  0.9993302539011064  0.1653781714159971  0.3783261846625210
  0.8129998075364634  0.3345122789741956  0.6253061673391934
  0.6738890873061927  0.4866708453431845  0.8768756921368892
  0.0077131174741070  0.1636920033700190  0.8734963256464759
  0.8345352115087096  0.6578876754360058  0.1263758334951241
  0.6707671885394484  0.8433373564304081  0.3868532237823765
  0.9964934518694250  0.4926722061350979  0.3719554316055194
  0.8393152554278789  0.6607561063987980  0.6249149770780177
  0.6623920215468017  0.8361590800431622  0.8721856114756136
  0.9761276529357357  0.5038668355264040  0.8832176118680609
  0.9974536667105307  0.8232280037460171  0.3890111418602450
  0.0012371841667416  0.8327278514799511  0.8730828782059343
  0.0851251060094670  0.0124584127106881  0.2628781381911590
  0.0843488502879201  0.0036304634094483  0.7443754502644190
  0.0809232129251583  0.3241723490071302  0.2533742634189749
  0.4150132760313048  0.0030006230324132  0.2527441791295890
  0.2505909828670430  0.1695513068052603  0.4871294925825608
  0.0795094084888924  0.3187094486961888  0.7483126814150044
  0.4196018791055611 -0.0057348801241413  0.7500532584891264
  0.2514966070701652  0.1731411705446735  0.0046804468266402
  0.0823263539036957  0.6652092850537438  0.2352242266460347
  0.4184944288301875  0.3377019945641511  0.2461606562211086
  0.2492856323166710  0.4960152884488476  0.4943850265712411
  0.0804805864556906  0.6716653231238310  0.7609545321561191
  0.7501986425162488  0.0123974437243450  0.2446106496466401
  0.5860462424935268  0.1656298849256956  0.5123583329747636
  0.4202522807845798  0.3301251581191066  0.7589832172015532
  0.2493967690081974  0.4889998082544912  0.0018622214400052
  0.7488103517946731  0.0081552188443937  0.7594496400417683
  0.5864431807768746  0.1565687508750633  0.9950960585881850
  0.4180319944171739  0.6616471791766974  0.2529201554291204
  0.2515762547798437  0.8351511239785336  0.4952945608117688
  0.7496359446433966  0.3345070799101926  0.2817447151779470
  0.5814625046144957  0.4863296842099231  0.4918972618213013
  0.4202331313019989  0.6670511944675792  0.7443886386582852
  0.2525276287180210  0.8387291559794806  0.0020035798926761
  0.9146124463447457  0.1838203537183541  0.4951488099714354
  0.7511743438797277  0.3353993938097842  0.7251184209295951
  0.5845260825090777  0.5138392535976238  0.0068718919913597
  0.9122629834641595  0.1653620385045616  0.0178569392320141
  0.7482048973522166  0.6460775686012901  0.2342843036214310
  0.5825138537611307  0.8422515105901981  0.5084379118816053
  0.9153773217139641  0.4903643558053130  0.5087397648639675
  0.7479614067922942  0.6486105607075916  0.7641648051860273
  0.5833058624414067  0.8299499174380848  0.9911698833075639
  0.9165583267439020  0.5041169387479904  0.9856897335691505
  0.9203807555674768  0.8149336576646378  0.4977374194934661
  0.9174269100257079  0.8300582847999581  0.0040537363653223
  0.0084986353040939  0.1714662855941980  0.1300066325263266
  0.0005869887971038  0.1533331243425843  0.6252328917431673
  0.9924947751257125  0.5038149653721168  0.1255443446927297
  0.3216671494219569  0.1759843586222143  0.1219843913816642
  0.1622953136725089  0.3327806835002687  0.3752173278785036
  0.9924520831887301  0.4967855968346152  0.6255279760478374
  0.3434435320909940  0.1658649486084459  0.6256463569961817
  0.1665666529202643  0.3268827567822929  0.8734409387137801
  0.9971329813706530  0.8269743934532957  0.1171163391911890
  0.3353157640377907  0.4887254514570177  0.1266740869931326
  0.1592931803679558  0.6586202179799369  0.3749686281782209
  0.0022124181368249  0.8506715030926754  0.6259392972621294
  0.6754792424791904  0.1861064546883515  0.1257490771763551
  0.5032346269769346  0.3405224081283358  0.3764759483187216
  0.3432447680663097  0.5012863867365194  0.6218463866959056
  0.1503660923208104  0.6683488098337278  0.8688621195230666
  0.6620098793904542  0.1699665544966474  0.6233619524807450
  0.5019878432491287  0.3237053449462143  0.8754557766864934
  0.3325656260481695  0.8353838272078081  0.1211601855373357
  0.1567796581340844  0.0172657778785685  0.3763387214442620
  0.6735960781235285  0.4839313667209272  0.1264691622369723
  0.4969499279732341  0.6575064469221582  0.3737173661734380
  0.3393561044874261  0.8338955411894757  0.6279108469003515
  0.1721077208338362  0.0112854347348850  0.8717604365361109
  0.8194132501973014  0.3338458264851489  0.3751529553196776
  0.6704023504323937  0.4853571432364954  0.6224812129203209
  0.5129736953262387  0.6708764446191312  0.8717686330718654
  0.8152141972220618  0.3402406781584724  0.8751915951392644
  0.6707144815846448  0.8332835683833283  0.1196747116958776
  0.5109002160872661  0.0034575933930182  0.3783529365861033
  0.8405664696875125  0.6577882522950772  0.3771347076425371
  0.6592739478365249  0.8500476606999917  0.6273640599038324
  0.5061611350442059  0.0014484598144951  0.8713705383688649
  0.8341188322224024  0.6640527551133840  0.8689946665526811
  0.8342968388871362  0.0076645527819571  0.3744597253150053
  0.8224058454115162  0.0004496666082517  0.8767905827472617
  0.9928847481542781  0.0863340100583275  0.2710826981461467
  0.0015565530226341  0.0892756635545421  0.7272730582755295
  0.9905409571747757  0.4180704956157094  0.2674752763015088
  0.3342181015919705  0.0841405229029914  0.2540403247196284
  0.1525526375644768  0.2466709254264012  0.5100264458532053
  0.9897046626174748  0.4145240521518703  0.7385950809854377
  0.3310638941799710  0.0898842370972423  0.7510059171953735
  0.1614105912795623  0.2478260306249906  0.9900608310018387
  0.9996318235291612  0.7441273265819123  0.2506696420441308
  0.3365627195469066  0.4171770179633516  0.2385844532451054
  0.1573656133238568  0.5840259613766247  0.4904729552593647
  0.0019609090199544  0.7471306345176121  0.7331869533576181
  0.6753746723290983  0.0800132387134884  0.2358382001798031
  0.5019460534566017  0.2508369677262892  0.5086761870917457
  0.3352195299513347  0.4147859926492410  0.7632091730343342
  0.1578757749075630  0.5864113052947599  0.0042726857277459
  0.6623406501110590  0.0759741405523496  0.7556591911122340
  0.5058014864876774  0.2536394145383216  0.9898825674435798
  0.3378740810622227  0.7491808522020164  0.2504461890334062
  0.1594007757520444  0.9217229830699278  0.4951363156857404
  0.6689958723133578  0.4233226501022722  0.2237459758164282
  0.4993380750549532  0.5809671788121354  0.4898992940877367
  0.3350565980451132  0.7517660854027490  0.7483047224341285
  0.1730216593534872  0.9183902699465033  0.0023178298612359
  0.8496846141160047  0.2505287856534658  0.4991392664590656
  0.6698847386158782  0.4223421345684279  0.7700475912147401
  0.5189001624673372  0.5788253626510386  0.0108408184580882
  0.8215630603632518  0.2468626380997071  0.0164503762689785
  0.6671002043978721  0.7467347693218354  0.2480205770196844
  0.5101822376366379  0.9180710986971771  0.5118709897973744
  0.8423833418320363  0.5801273936732427  0.5022986765611152
  0.6643120107175772  0.7509266752018011  0.7484181057755301
  0.4996353549118985  0.9146930109300299  0.9900172614844571
  0.8198430273463342  0.5787249664948314  0.0042246652014076
  0.8374807426880473  0.9210683794147203  0.4942009106538740
  0.8268795432010196  0.9226888872536113  0.0058921638264226
 
  0.00000000E+00  0.00000000E+00  0.00000000E+00
  0.00000000E+00  0.00000000E+00  0.00000000E+00
  0.00000000E+00  0.00000000E+00  0.00000000E+00
  0.00000000E+00  0.00000000E+00  0.00000000E+00
  0.00000000E+00  0.00000000E+00  0.00000000E+00
  0.00000000E+00  0.00000000E+00  0.00000000E+00
  0.00000000E+00  0.00000000E+00  0.00000000E+00
  0.00000000E+00  0.00000000E+00  0.00000000E+00
  0.00000000E+00  0.00000000E+00  0.00000000E+00
  0.00000000E+00  0.00000000E+00  0.00000000E+00
  0.00000000E+00  0.00000000E+00  0.00000000E+00
  0.00000000E+00  0.00000000E+00  0.00000000E+00
  0.00000000E+00  0.00000000E+00  0.00000000E+00
  0.00000000E+00  0.00000000E+00  0.00000000E+00
  0.00000000E+00  0.00000000E+00  0.00000000E+00
  0.00000000E+00  0.00000000E+00  0.00000000E+00
  0.00000000E+00  0.00000000E+00  0.00000000E+00
  0.00000000E+00  0.00000000E+00  0.00000000E+00
  0.00000000E+00  0.00000000E+00  0.00000000E+00
  0.00000000E+00  0.00000000E+00  0.00000000E+00
  0.00000000E+00  0.00000000E+00  0.00000000E+00
  0.00000000E+00  0.00000000E+00  0.00000000E+00
  0.00000000E+00  0.00000000E+00  0.00000000E+00
  0.00000000E+00  0.00000000E+00  0.00000000E+00
  0.00000000E+00  0.00000000E+00  0.00000000E+00
  0.00000000E+00  0.00000000E+00  0.00000000E+00
  0.00000000E+00  0.00000000E+00  0.00000000E+00
  0.00000000E+00  0.00000000E+00  0.00000000E+00
  0.00000000E+00  0.00000000E+00  0.00000000E+00
  0.00000000E+00  0.00000000E+00  0.00000000E+00
  0.00000000E+00  0.00000000E+00  0.00000000E+00
  0.00000000E+00  0.00000000E+00  0.00000000E+00
  0.00000000E+00  0.00000000E+00  0.00000000E+00
  0.00000000E+00  0.00000000E+00  0.00000000E+00
  0.00000000E+00  0.00000000E+00  0.00000000E+00
  0.00000000E+00  0.00000000E+00  0.00000000E+00
  0.00000000E+00  0.00000000E+00  0.00000000E+00
  0.00000000E+00  0.00000000E+00  0.00000000E+00
  0.00000000E+00  0.00000000E+00  0.00000000E+00
  0.00000000E+00  0.00000000E+00  0.00000000E+00
  0.00000000E+00  0.00000000E+00  0.00000000E+00
  0.00000000E+00  0.00000000E+00  0.00000000E+00
  0.00000000E+00  0.00000000E+00  0.00000000E+00
  0.00000000E+00  0.00000000E+00  0.00000000E+00
  0.00000000E+00  0.00000000E+00  0.00000000E+00
  0.00000000E+00  0.00000000E+00  0.00000000E+00
  0.00000000E+00  0.00000000E+00  0.00000000E+00
  0.00000000E+00  0.00000000E+00  0.00000000E+00
  0.00000000E+00  0.00000000E+00  0.00000000E+00
  0.00000000E+00  0.00000000E+00  0.00000000E+00
  0.00000000E+00  0.00000000E+00  0.00000000E+00
  0.00000000E+00  0.00000000E+00  0.00000000E+00
  0.00000000E+00  0.00000000E+00  0.00000000E+00
  0.00000000E+00  0.00000000E+00  0.00000000E+00
  0.00000000E+00  0.00000000E+00  0.00000000E+00
  0.00000000E+00  0.00000000E+00  0.00000000E+00
  0.00000000E+00  0.00000000E+00  0.00000000E+00
  0.00000000E+00  0.00000000E+00  0.00000000E+00
  0.00000000E+00  0.00000000E+00  0.00000000E+00
  0.00000000E+00  0.00000000E+00  0.00000000E+00
  0.00000000E+00  0.00000000E+00  0.00000000E+00
  0.00000000E+00  0.00000000E+00  0.00000000E+00
  0.00000000E+00  0.00000000E+00  0.00000000E+00
  0.00000000E+00  0.00000000E+00  0.00000000E+00
  0.00000000E+00  0.00000000E+00  0.00000000E+00
  0.00000000E+00  0.00000000E+00  0.00000000E+00
  0.00000000E+00  0.00000000E+00  0.00000000E+00
  0.00000000E+00  0.00000000E+00  0.00000000E+00
  0.00000000E+00  0.00000000E+00  0.00000000E+00
  0.00000000E+00  0.00000000E+00  0.00000000E+00
  0.00000000E+00  0.00000000E+00  0.00000000E+00
  0.00000000E+00  0.00000000E+00  0.00000000E+00
  0.00000000E+00  0.00000000E+00  0.00000000E+00
  0.00000000E+00  0.00000000E+00  0.00000000E+00
  0.00000000E+00  0.00000000E+00  0.00000000E+00
  0.00000000E+00  0.00000000E+00  0.00000000E+00
  0.00000000E+00  0.00000000E+00  0.00000000E+00
  0.00000000E+00  0.00000000E+00  0.00000000E+00
  0.00000000E+00  0.00000000E+00  0.00000000E+00
  0.00000000E+00  0.00000000E+00  0.00000000E+00
  0.00000000E+00  0.00000000E+00  0.00000000E+00
  0.00000000E+00  0.00000000E+00  0.00000000E+00
  0.00000000E+00  0.00000000E+00  0.00000000E+00
  0.00000000E+00  0.00000000E+00  0.00000000E+00
  0.00000000E+00  0.00000000E+00  0.00000000E+00
  0.00000000E+00  0.00000000E+00  0.00000000E+00
  0.00000000E+00  0.00000000E+00  0.00000000E+00
  0.00000000E+00  0.00000000E+00  0.00000000E+00
  0.00000000E+00  0.00000000E+00  0.00000000E+00
  0.00000000E+00  0.00000000E+00  0.00000000E+00
  0.00000000E+00  0.00000000E+00  0.00000000E+00
  0.00000000E+00  0.00000000E+00  0.00000000E+00
  0.00000000E+00  0.00000000E+00  0.00000000E+00
  0.00000000E+00  0.00000000E+00  0.00000000E+00
  0.00000000E+00  0.00000000E+00  0.00000000E+00
  0.00000000E+00  0.00000000E+00  0.00000000E+00
  0.00000000E+00  0.00000000E+00  0.00000000E+00
  0.00000000E+00  0.00000000E+00  0.00000000E+00
  0.00000000E+00  0.00000000E+00  0.00000000E+00
  0.00000000E+00  0.00000000E+00  0.00000000E+00
  0.00000000E+00  0.00000000E+00  0.00000000E+00
  0.00000000E+00  0.00000000E+00  0.00000000E+00
  0.00000000E+00  0.00000000E+00  0.00000000E+00
  0.00000000E+00  0.00000000E+00  0.00000000E+00
  0.00000000E+00  0.00000000E+00  0.00000000E+00
  0.00000000E+00  0.00000000E+00  0.00000000E+00
  0.00000000E+00  0.00000000E+00  0.00000000E+00
  0.00000000E+00  0.00000000E+00  0.00000000E+00
  0.00000000E+00  0.00000000E+00  0.00000000E+00
  0.00000000E+00  0.00000000E+00  0.00000000E+00
  0.00000000E+00  0.00000000E+00  0.00000000E+00
  0.00000000E+00  0.00000000E+00  0.00000000E+00
  0.00000000E+00  0.00000000E+00  0.00000000E+00
  0.00000000E+00  0.00000000E+00  0.00000000E+00
  0.00000000E+00  0.00000000E+00  0.00000000E+00
  0.00000000E+00  0.00000000E+00  0.00000000E+00
  0.00000000E+00  0.00000000E+00  0.00000000E+00
  0.00000000E+00  0.00000000E+00  0.00000000E+00
  0.00000000E+00  0.00000000E+00  0.00000000E+00
  0.00000000E+00  0.00000000E+00  0.00000000E+00
  0.00000000E+00  0.00000000E+00  0.00000000E+00
  0.00000000E+00  0.00000000E+00  0.00000000E+00
  0.00000000E+00  0.00000000E+00  0.00000000E+00
  0.00000000E+00  0.00000000E+00  0.00000000E+00
  0.00000000E+00  0.00000000E+00  0.00000000E+00
  0.00000000E+00  0.00000000E+00  0.00000000E+00
  0.00000000E+00  0.00000000E+00  0.00000000E+00
  0.00000000E+00  0.00000000E+00  0.00000000E+00
  0.00000000E+00  0.00000000E+00  0.00000000E+00
  0.00000000E+00  0.00000000E+00  0.00000000E+00
  0.00000000E+00  0.00000000E+00  0.00000000E+00
  0.00000000E+00  0.00000000E+00  0.00000000E+00
  0.00000000E+00  0.00000000E+00  0.00000000E+00
  0.00000000E+00  0.00000000E+00  0.00000000E+00
  0.00000000E+00  0.00000000E+00  0.00000000E+00
  0.00000000E+00  0.00000000E+00  0.00000000E+00
  0.00000000E+00  0.00000000E+00  0.00000000E+00
  0.00000000E+00  0.00000000E+00  0.00000000E+00
  0.00000000E+00  0.00000000E+00  0.00000000E+00
  0.00000000E+00  0.00000000E+00  0.00000000E+00
  0.00000000E+00  0.00000000E+00  0.00000000E+00
  0.00000000E+00  0.00000000E+00  0.00000000E+00
  0.00000000E+00  0.00000000E+00  0.00000000E+00
  0.00000000E+00  0.00000000E+00  0.00000000E+00
  0.00000000E+00  0.00000000E+00  0.00000000E+00
  0.00000000E+00  0.00000000E+00  0.00000000E+00
  0.00000000E+00  0.00000000E+00  0.00000000E+00
  0.00000000E+00  0.00000000E+00  0.00000000E+00
  0.00000000E+00  0.00000000E+00  0.00000000E+00
  0.00000000E+00  0.00000000E+00  0.00000000E+00
  0.00000000E+00  0.00000000E+00  0.00000000E+00
  0.00000000E+00  0.00000000E+00  0.00000000E+00
  0.00000000E+00  0.00000000E+00  0.00000000E+00
  0.00000000E+00  0.00000000E+00  0.00000000E+00
  0.00000000E+00  0.00000000E+00  0.00000000E+00
  0.00000000E+00  0.00000000E+00  0.00000000E+00
  0.00000000E+00  0.00000000E+00  0.00000000E+00
  0.00000000E+00  0.00000000E+00  0.00000000E+00
  0.00000000E+00  0.00000000E+00  0.00000000E+00
  0.00000000E+00  0.00000000E+00  0.00000000E+00
  0.00000000E+00  0.00000000E+00  0.00000000E+00
  0.00000000E+00  0.00000000E+00  0.00000000E+00
  0.00000000E+00  0.00000000E+00  0.00000000E+00
  0.00000000E+00  0.00000000E+00  0.00000000E+00
  0.00000000E+00  0.00000000E+00  0.00000000E+00
  0.00000000E+00  0.00000000E+00  0.00000000E+00
  0.00000000E+00  0.00000000E+00  0.00000000E+00
  0.00000000E+00  0.00000000E+00  0.00000000E+00
  0.00000000E+00  0.00000000E+00  0.00000000E+00
  0.00000000E+00  0.00000000E+00  0.00000000E+00
  0.00000000E+00  0.00000000E+00  0.00000000E+00
  0.00000000E+00  0.00000000E+00  0.00000000E+00
  0.00000000E+00  0.00000000E+00  0.00000000E+00
  0.00000000E+00  0.00000000E+00  0.00000000E+00
  0.00000000E+00  0.00000000E+00  0.00000000E+00
  0.00000000E+00  0.00000000E+00  0.00000000E+00
  0.00000000E+00  0.00000000E+00  0.00000000E+00
  0.00000000E+00  0.00000000E+00  0.00000000E+00
  0.00000000E+00  0.00000000E+00  0.00000000E+00
  0.00000000E+00  0.00000000E+00  0.00000000E+00
  0.00000000E+00  0.00000000E+00  0.00000000E+00
  0.00000000E+00  0.00000000E+00  0.00000000E+00
  0.00000000E+00  0.00000000E+00  0.00000000E+00
  0.00000000E+00  0.00000000E+00  0.00000000E+00
  0.00000000E+00  0.00000000E+00  0.00000000E+00
  0.00000000E+00  0.00000000E+00  0.00000000E+00
  0.00000000E+00  0.00000000E+00  0.00000000E+00
  0.00000000E+00  0.00000000E+00  0.00000000E+00
  0.00000000E+00  0.00000000E+00  0.00000000E+00
  0.00000000E+00  0.00000000E+00  0.00000000E+00
  0.00000000E+00  0.00000000E+00  0.00000000E+00
  0.00000000E+00  0.00000000E+00  0.00000000E+00
  0.00000000E+00  0.00000000E+00  0.00000000E+00
  0.00000000E+00  0.00000000E+00  0.00000000E+00
  0.00000000E+00  0.00000000E+00  0.00000000E+00
  0.00000000E+00  0.00000000E+00  0.00000000E+00
  0.00000000E+00  0.00000000E+00  0.00000000E+00
  0.00000000E+00  0.00000000E+00  0.00000000E+00
  0.00000000E+00  0.00000000E+00  0.00000000E+00
  0.00000000E+00  0.00000000E+00  0.00000000E+00
  0.00000000E+00  0.00000000E+00  0.00000000E+00
  0.00000000E+00  0.00000000E+00  0.00000000E+00
  0.00000000E+00  0.00000000E+00  0.00000000E+00
  0.00000000E+00  0.00000000E+00  0.00000000E+00
  0.00000000E+00  0.00000000E+00  0.00000000E+00
  0.00000000E+00  0.00000000E+00  0.00000000E+00
  0.00000000E+00  0.00000000E+00  0.00000000E+00
  0.00000000E+00  0.00000000E+00  0.00000000E+00
  0.00000000E+00  0.00000000E+00  0.00000000E+00
  0.00000000E+00  0.00000000E+00  0.00000000E+00
  0.00000000E+00  0.00000000E+00  0.00000000E+00
  0.00000000E+00  0.00000000E+00  0.00000000E+00
  0.00000000E+00  0.00000000E+00  0.00000000E+00
  0.00000000E+00  0.00000000E+00  0.00000000E+00
  0.00000000E+00  0.00000000E+00  0.00000000E+00
  0.00000000E+00  0.00000000E+00  0.00000000E+00
  0.00000000E+00  0.00000000E+00  0.00000000E+00
  0.00000000E+00  0.00000000E+00  0.00000000E+00
  0.00000000E+00  0.00000000E+00  0.00000000E+00
  0.00000000E+00  0.00000000E+00  0.00000000E+00
  0.00000000E+00  0.00000000E+00  0.00000000E+00
  0.00000000E+00  0.00000000E+00  0.00000000E+00
  0.00000000E+00  0.00000000E+00  0.00000000E+00
  0.00000000E+00  0.00000000E+00  0.00000000E+00
  0.00000000E+00  0.00000000E+00  0.00000000E+00
  0.00000000E+00  0.00000000E+00  0.00000000E+00
  0.00000000E+00  0.00000000E+00  0.00000000E+00
  0.00000000E+00  0.00000000E+00  0.00000000E+00
  0.00000000E+00  0.00000000E+00  0.00000000E+00
  0.00000000E+00  0.00000000E+00  0.00000000E+00
  0.00000000E+00  0.00000000E+00  0.00000000E+00
  0.00000000E+00  0.00000000E+00  0.00000000E+00
  0.00000000E+00  0.00000000E+00  0.00000000E+00
  0.00000000E+00  0.00000000E+00  0.00000000E+00
  0.00000000E+00  0.00000000E+00  0.00000000E+00
  0.00000000E+00  0.00000000E+00  0.00000000E+00
  0.00000000E+00  0.00000000E+00  0.00000000E+00
  0.00000000E+00  0.00000000E+00  0.00000000E+00
  0.00000000E+00  0.00000000E+00  0.00000000E+00
  0.00000000E+00  0.00000000E+00  0.00000000E+00
  0.00000000E+00  0.00000000E+00  0.00000000E+00
  0.00000000E+00  0.00000000E+00  0.00000000E+00
  0.00000000E+00  0.00000000E+00  0.00000000E+00
  0.00000000E+00  0.00000000E+00  0.00000000E+00
  0.00000000E+00  0.00000000E+00  0.00000000E+00
  0.00000000E+00  0.00000000E+00  0.00000000E+00
  0.00000000E+00  0.00000000E+00  0.00000000E+00
  0.00000000E+00  0.00000000E+00  0.00000000E+00
  0.00000000E+00  0.00000000E+00  0.00000000E+00
  0.00000000E+00  0.00000000E+00  0.00000000E+00
  0.00000000E+00  0.00000000E+00  0.00000000E+00
  0.00000000E+00  0.00000000E+00  0.00000000E+00
