POSCAR                                  
   1.00000000000000     
    10.0027930949674104   -0.0027177202433209    0.0032304620331060
    -0.0026626816745458   10.0384431576197599    0.0078586106140218
     0.0021593946061457    0.0052208718950078    6.6500386018811417
   Mg   Na   Ca   Zr   H 
     9     9     9     9   216
Direct
  0.1671522329546397  0.1733031095606097  0.2504713048949944
  0.5013926731450938  0.4962426340956193  0.2477307336620764
  0.8352283096986909  0.1750123785296791  0.2530957815036042
  0.6611283008143354  0.3280654074738967  0.5058064330067478
  0.6638447877732503  0.3346173199392541 -0.0034616185171385
  0.0000038827683010  0.3348659814523628  0.5010397701046500
  0.0006886437728219  0.6579588924571724  0.5000911938026211
  0.6625336148850670 -0.0038163127712200 -0.0013689858144963
 -0.0030439082494288  0.0029684586915774  0.4984519559271342
  0.1685393610423120  0.1645047452957779  0.7446107062827454
  0.5026075270216780  0.1664221123121169  0.7533147334115586
  0.3374393096366237  0.3313694055560188  0.0015166144979019
  0.8338228985774317  0.4951975504096943  0.2523134627304235
  0.5011937144466032  0.8340065981546286  0.7492475867580471
  0.8297066221427098  0.4959521261236476  0.7480334025690877
  0.6694923514045918  0.6699414914042443 -0.0025348794844011
  0.6745666624573409  0.0099339385255298  0.4994237770449784
 -0.0066353878163226  0.6646830564397997 -0.0045499629779006
  0.1618500213710694  0.4923031197254866  0.2464640828560699
  0.3326097636520237  0.3325480156598780  0.5040015941890279
  0.3301152851381667  0.6652015565385860  0.5000800603147476
  0.1701051567027089  0.8397012063007034  0.7468963672201189
  0.5054516820145626  0.4972691699345712  0.7534421407976379
  0.8324276259260818  0.1723612378778277  0.7515885038980499
  0.3333434466695724  0.0042739423755431  0.5063643535297320
  0.3387052659871074  0.0086733444981713 -0.0016942876215714
 -0.0108460821014598  0.3341800573795866  0.0010483650471801
  0.5029841863159241  0.1744708280599596  0.2516643031908573
  0.1601766695343841  0.4939327794231494  0.7509033482158188
  0.1634147862767807  0.8342430764431481  0.2506034524581438
  0.3351266200555829  0.6611416228865807 -0.0043181153791695
  0.5043625958116209  0.8347199167275215  0.2502089881241938
  0.6681762400918264  0.6531283785700279  0.5000723985574832
  0.8330027642740192  0.8279510907860711  0.2522344918620096
  0.8291715280816072  0.8341270740694570  0.7474751020410522
  0.0025629283452945  0.0063081668595330  0.0002990365737611
  0.1699708140668207  0.0860292141932662  0.0026036696596232
  0.1553648439723081  0.0852168913854287  0.4913511858716491
  0.1736169164944974  0.4088886267862150  0.0010878054426751
  0.5128446970077192  0.0835523315118813 -0.0062835864354590
  0.3296557000381290  0.2521741594774968  0.2445464989506512
  0.1614759787136449  0.4134488359663809  0.4950399698157645
  0.5084283436536434  0.0799598646341043  0.5090005770076609
  0.3254544214767648  0.2534849040913175  0.7609220815378518
  0.1589788670761297  0.7502236993560286 -0.0084984629437804
  0.5049334434053069  0.4176661008714388  0.0126842100404358
  0.3383421323556527  0.5804883833629781  0.2503319510013842
  0.1582511428124241  0.7449223407840809  0.5097942109444108
  0.8190933047408970  0.0814593132456048  0.0100056898441873
  0.6756875485345136  0.2501208270119349  0.2205249815525245
  0.5032164073286118  0.4191225046016429  0.4939497602927010
  0.3341901292706735  0.5820617551285512  0.7457032097762006
  0.8404466863649055  0.0838407077703246  0.4909208321176025
  0.6638625935952532  0.2454992480524772  0.7745771474580239
  0.5079101359428406  0.7498159590319641 -0.0066148858658308
  0.3355133684241420  0.9215544900002131  0.2493216763006519
  0.8175129839714059  0.4142306466392512  0.0134546372220880
  0.6732717099172340  0.5837092304059390  0.2341717146150148
  0.5031559783054409  0.7499429568046165  0.5073879414761795
  0.3464336632528416  0.9167181847427108  0.7556473493715696
  0.0038741462993059  0.2481360368842611  0.2551376559889066
  0.8388095948684398  0.4203674038309361  0.4970813662668894
  0.6779954819936602  0.5861983513734963  0.7623571697981726
  0.0106221297793458  0.2489559390986314  0.7401843351744121
  0.8330117818583366  0.7457905411773711 -0.0059883992416085
  0.6707891182900321  0.9219512997932160  0.2587869456214702
 -0.0069983740755909  0.5817231493260689  0.2504313679814964
  0.8332149465466461  0.7413038673321400  0.5078903568554802
  0.6573321820270120  0.9164295734685610  0.7346547751728624
 -0.0099922731075791  0.5830878003350639  0.7444479386856129
 -0.0047799885454819  0.9176450828877237  0.2760598639685925
  0.0009563856057514  0.9177367800783350  0.7245088261232833
  0.0883052951678302  0.1754635702724205 -0.0018112150544040
  0.0854976145293923  0.1801810563943821  0.4934664308986629
  0.0794039139459960  0.5026123355919312 -0.0014015154333581
  0.4163660037454071  0.1750467163645656 -0.0119421024140560
  0.2515251080084398  0.3259960823815010  0.2437449248457237
  0.0813845412676004  0.4959999445873153  0.4994902047296382
  0.4158277306252161  0.1689511568858061  0.5186523577481347
  0.2550662450949261  0.3148803309129123  0.7617771737212968
  0.0828983676927711  0.8237399982959911 -0.0053661084696778
  0.4154360929907266  0.4950680907883386  0.0027141436021156
  0.2500022732799439  0.6636556122478727  0.2479694917715425
  0.0814291440647863  0.8268271971160343  0.4987316076606302
  0.7481371900391449  0.1502587522447798  0.0058603615184190
  0.5880096807891685  0.3356978611899422  0.2670312658789582
  0.4131659262066183  0.4992552397180163  0.5015097994272025
  0.2498445203062984  0.6693350920273189  0.7493337671690075
  0.7488238527069896  0.1774658687380583  0.4862916157628802
  0.5838458487732024  0.3313227504339222  0.7412375861612752
  0.4191065897632322  0.8377432471763268 -0.0090002978594796
  0.2501168758151922  0.0109279531548369  0.2503999596280748
  0.7573044775220816  0.5126140304322956  0.0023814047758709
  0.5816649945645652  0.6575960299446317  0.2332536991558102
  0.4186301610517801  0.8337956530635509  0.5050442641058642
  0.2493391362223626  0.0110125640568590  0.7572956265936380
  0.9136946842182123  0.3301018669581315  0.2678445846300286
  0.7542630123829198  0.4785353097076278  0.4938386528198956
  0.5822312529349466  0.6718147749676682  0.7620482552719463
  0.9136826282460949  0.3418065001129765  0.7322459860122990
  0.7473148382104928  0.8361774789506277  0.0039244472192593
  0.5894217754428046  0.0054892074235594  0.2539958957141685
  0.9185767668762131  0.6565656936129125  0.2546281382883769
  0.7443624377700599  0.8356272311298247  0.4949172873525501
  0.5845488447822773  0.0043693149437118  0.7485475129427446
  0.9170794323731125  0.6548885293180116  0.7438045081858486
  0.9158827877564379  0.0163384386348882  0.2502323657088488
  0.9167630432694631  0.0046541645600216  0.7534928593153879
  0.1679118584984027  0.0139378670567567  0.1299124349975004
  0.1556778862459979  0.0074455945026748  0.6191785659864558
  0.1680703535610769  0.3284261273240928  0.1192137538166192
  0.5047295893588076  0.0053360750534698  0.1247574859148622
  0.3263755072924961  0.1704876763208154  0.3783208271856298
  0.1627610690293365  0.3276833123087740  0.6278721913863027
  0.5085811726550470  0.0037072765515269  0.6281096447153903
  0.3396570251912697  0.1711044724177564  0.8765556976287002
  0.1561816903764850  0.6565405679964537  0.1176762163405997
  0.5053714956531214  0.3423223451570606  0.1225223836788455
  0.3377239520900898  0.4990525243624475  0.3732674722722630
  0.1630939885947376  0.6712715060209296  0.6243860384121229
  0.8349877615538016  0.0040830903552530  0.1295256905895717
  0.6783230254249416  0.1745295504210809  0.3768515716710489
  0.5079078860261927  0.3249369448791677  0.6341926478759181
  0.3364003299059413  0.4870472957154593  0.8741455830122531
  0.8363942194696257  0.0050548378479398  0.6227723275189336
  0.6627108668578415  0.1799794807626137  0.8746494321063480
  0.5085206520399037  0.6592182630016955  0.1230089640041050
  0.3339806875680231  0.8334239510354113  0.3784602633350334
  0.8199814460506886  0.3404209419531404  0.1243292186753779
  0.6636594759063150  0.4852498724206156  0.3722623401334944
  0.4961492684457826  0.6715647030464579  0.6268772890162145
  0.3417243845061221  0.8405885117815804  0.8714655580878630
 -0.0009849375905007  0.1621242594997085  0.3772823853190126
  0.8139350759410895  0.3351768397369589  0.6258776423540308
  0.6733022167543220  0.4879592004421258  0.8771369367477407
  0.0082739665827041  0.1661400340013223  0.8721639363116369
  0.8335451595634491  0.6578813406477056  0.1236802851302812
  0.6703895715358431  0.8403703044998880  0.3873709800043738
 -0.0035165444814782  0.4938411267413024  0.3731565946933073
  0.8397530790355201  0.6604594610372275  0.6255885080014544
  0.6626783076671989  0.8353640654185330  0.8720560174431718
 -0.0228000223932382  0.5038933932842922  0.8827608970071097
 -0.0024322855216716  0.8242042761005062  0.3889818032860816
  0.0002857204147676  0.8317664849489024  0.8710037544777639
  0.0855739388356213  0.0108671372970900  0.2588463138982718
  0.0846318098417974  0.0035234270205341  0.7456726347123045
  0.0816408249835712  0.3238907478155325  0.2545709134368460
  0.4140750604606112  0.0028145843090847  0.2537017496174917
  0.2505995106679655  0.1696291591576845  0.4881250945460581
  0.0806164170701317  0.3194057873094744  0.7487347257419636
  0.4197990544153910  0.0016902779561874  0.7506255479388728
  0.2510861019631837  0.1734001681074977  0.0037812323804671
  0.0816681508800066  0.6645694159016292  0.2387871544530834
  0.4183533783134522  0.3388064187628727  0.2486203086537312
  0.2498639358979770  0.4965571222440759  0.4949802398362452
  0.0799267568913763  0.6700461064212053  0.7560629851994457
  0.7522096530752356  0.0114941875985535  0.2471252223841993
  0.5862030035703997  0.1654025644005529  0.5147909255239482
  0.4197732913664075  0.3293293231183194  0.7587671236222042
  0.2510493044910618  0.4902145034646712  0.0021834492227923
  0.7485481068885576  0.0089809956346996  0.7595928986007514
  0.5869879776114763  0.1572308666904760 -0.0047341836832849
  0.4178809595882790  0.6628193871827894  0.2534747545684218
  0.2517442401472430  0.8355215337676540  0.4951134861457994
  0.7485462525332872  0.3347918624637119  0.2849948349223727
  0.5805320531463701  0.4846966306379799  0.4894853736134877
  0.4213533834432092  0.6682830931075600  0.7423316290265547
  0.2514328084936113  0.8377728947571097  0.0025218835384773
  0.9155979395762927  0.1842891768852182  0.4936044522918032
  0.7512880183985663  0.3359108023812543  0.7261136743977225
  0.5831006262510342  0.5126519393744298  0.0048802167626813
  0.9128133697814484  0.1661658955589002  0.0164943944866799
  0.7475709103830941  0.6456123232425750  0.2334351203892427
  0.5809328106854001  0.8448953226252570  0.5082927568408551
  0.9156583963482322  0.4901619155477134  0.5079272984361269
  0.7483339925747973  0.6503808769707664  0.7631547942869041
  0.5820993467386281  0.8297484629619604 -0.0090853633897808
  0.9164667227563260  0.5036983352698263 -0.0137101788851579
  0.9202979117161694  0.8134605239741982  0.4960131525156959
  0.9187465137737710  0.8309012917678432  0.0039969700192223
  0.0082159858658699  0.1719741614390086  0.1309122721212464
  0.0015028663078146  0.1527930263688636  0.6245781391246494
 -0.0083395049067623  0.5035315613853122  0.1265939149420445
  0.3243833413673294  0.1752943736366170  0.1230897824862402
  0.1619373861622507  0.3318909381936999  0.3751654945175597
 -0.0077611711795755  0.4964460508125569  0.6256994869116146
  0.3418950445131383  0.1665568824904702  0.6273441897877675
  0.1657666370218250  0.3247924734703730  0.8752855102710856
 -0.0036166268518191  0.8267269027238550  0.1175375728188318
  0.3348357612463902  0.4883680576247739  0.1275425081134672
  0.1598011847775599  0.6589247200340608  0.3743297187388367
  0.0017782795977918  0.8496078593711236  0.6260138861135908
  0.6775252215636195  0.1832201740058371  0.1250045570887269
  0.5038322076121784  0.3392583218244472  0.3779633528009454
  0.3403933240615687  0.5014805302679362  0.6219768817667670
  0.1548408536089177  0.6680240702662319  0.8689718985713565
  0.6612695630173492  0.1686326986321903  0.6243033051917571
  0.5028691076976828  0.3253398151731229  0.8762570057980701
  0.3331353474248001  0.8353287461963178  0.1201716535251287
  0.1569728412366424  0.0158514835542057  0.3770644384575247
  0.6728911608893869  0.4848652471624246  0.1242028070309551
  0.4969109006543629  0.6581705298635764  0.3725189853881778
  0.3407318669120105  0.8343802822337103  0.6274925656435966
  0.1740554764418264  0.0090973692347420  0.8690190019930782
  0.8159361797945829  0.3334217300739506  0.3752576688126740
  0.6706220488445039  0.4848616012128685  0.6224411590355132
  0.5104234432380561  0.6713869574019512  0.8718511668935195
  0.8167832670285480  0.3402228322527733  0.8757037201464145
  0.6704657669545877  0.8338235001166233  0.1186433377603377
  0.5093254776763205  0.0058140587652438  0.3810161897757620
  0.8398530547086096  0.6573917066185149  0.3743525957902057
  0.6596361699028599  0.8489060157688328  0.6284445805050348
  0.5070069101951451 -0.0003795612726152  0.8720578074649254
  0.8329106010943171  0.6629927522832603  0.8714772794179335
  0.8357431725026774  0.0121587639582768  0.3751688245524172
  0.8226009472375385  0.0007050363902509  0.8760986286744755
 -0.0049971216846339  0.0858970777425191  0.2714957002260648
  0.0016667884099255  0.0878835259131309  0.7251042598002272
 -0.0094207552144828  0.4181097730170388  0.2654651789892581
  0.3319862523207728  0.0846697698740287  0.2529347443730233
  0.1514667342039906  0.2467811030390344  0.5086675973744594
 -0.0114036382614458  0.4139720542300965  0.7402517373210447
  0.3366933951199109  0.0888628984588593  0.7528101307664370
  0.1647882908550862  0.2484441279211712 -0.0096963408814434
 -0.0001329009324597  0.7436609297019867  0.2476856972591903
  0.3367705402500777  0.4174499597731621  0.2391200756157028
  0.1572243068886482  0.5840490200708286  0.4910377990499688
  0.0030760521411238  0.7472931293297327  0.7358709119140261
  0.6767810237290742  0.0806557774955385  0.2358013279848179
  0.5006830302289543  0.2506417089758265  0.5084146668466148
  0.3345217271494554  0.4154680913797395  0.7646123480867441
  0.1555632338030033  0.5858693725902170  0.0048601740302300
  0.6636093060310873  0.0771724107742984  0.7571952473836338
  0.5049735536862002  0.2528964425221231 -0.0092689949236774
  0.3363617969733543  0.7488937851173074  0.2494711579447011
  0.1588639120350069  0.9214854279200091  0.4959780484258302
  0.6679301198397866  0.4236632647994227  0.2214903567376249
  0.4985554894682012  0.5815243874289523  0.4875904017724844
  0.3351839930874770  0.7510699602790147  0.7487421386591898
  0.1723147508648102  0.9180454511615513 -0.0004629188430081
  0.8495267250457217  0.2502541289978366  0.4997577836388984
  0.6698839617672863  0.4230973220419857  0.7741945776509126
  0.5175115976052047  0.5796651274871835  0.0101952169433003
  0.8222365276792968  0.2477490777861988  0.0145343961790312
  0.6664837806374767  0.7460931875640930  0.2478991414006984
  0.5116342727222878  0.9191168591916533  0.5110561116429582
  0.8417914041112122  0.5804773337807136  0.5007062918526292
  0.6621922526490904  0.7508823203781000  0.7469623525062989
  0.5019907445420541  0.9169078161697263 -0.0120021588951871
  0.8208715939041945  0.5809161496599503  0.0018727508609922
  0.8384097169992789  0.9215710673531686  0.4932460072623381
  0.8271639024330291  0.9217037306524442  0.0042737677095841
 
  0.00000000E+00  0.00000000E+00  0.00000000E+00
  0.00000000E+00  0.00000000E+00  0.00000000E+00
  0.00000000E+00  0.00000000E+00  0.00000000E+00
  0.00000000E+00  0.00000000E+00  0.00000000E+00
  0.00000000E+00  0.00000000E+00  0.00000000E+00
  0.00000000E+00  0.00000000E+00  0.00000000E+00
  0.00000000E+00  0.00000000E+00  0.00000000E+00
  0.00000000E+00  0.00000000E+00  0.00000000E+00
  0.00000000E+00  0.00000000E+00  0.00000000E+00
  0.00000000E+00  0.00000000E+00  0.00000000E+00
  0.00000000E+00  0.00000000E+00  0.00000000E+00
  0.00000000E+00  0.00000000E+00  0.00000000E+00
  0.00000000E+00  0.00000000E+00  0.00000000E+00
  0.00000000E+00  0.00000000E+00  0.00000000E+00
  0.00000000E+00  0.00000000E+00  0.00000000E+00
  0.00000000E+00  0.00000000E+00  0.00000000E+00
  0.00000000E+00  0.00000000E+00  0.00000000E+00
  0.00000000E+00  0.00000000E+00  0.00000000E+00
  0.00000000E+00  0.00000000E+00  0.00000000E+00
  0.00000000E+00  0.00000000E+00  0.00000000E+00
  0.00000000E+00  0.00000000E+00  0.00000000E+00
  0.00000000E+00  0.00000000E+00  0.00000000E+00
  0.00000000E+00  0.00000000E+00  0.00000000E+00
  0.00000000E+00  0.00000000E+00  0.00000000E+00
  0.00000000E+00  0.00000000E+00  0.00000000E+00
  0.00000000E+00  0.00000000E+00  0.00000000E+00
  0.00000000E+00  0.00000000E+00  0.00000000E+00
  0.00000000E+00  0.00000000E+00  0.00000000E+00
  0.00000000E+00  0.00000000E+00  0.00000000E+00
  0.00000000E+00  0.00000000E+00  0.00000000E+00
  0.00000000E+00  0.00000000E+00  0.00000000E+00
  0.00000000E+00  0.00000000E+00  0.00000000E+00
  0.00000000E+00  0.00000000E+00  0.00000000E+00
  0.00000000E+00  0.00000000E+00  0.00000000E+00
  0.00000000E+00  0.00000000E+00  0.00000000E+00
  0.00000000E+00  0.00000000E+00  0.00000000E+00
  0.00000000E+00  0.00000000E+00  0.00000000E+00
  0.00000000E+00  0.00000000E+00  0.00000000E+00
  0.00000000E+00  0.00000000E+00  0.00000000E+00
  0.00000000E+00  0.00000000E+00  0.00000000E+00
  0.00000000E+00  0.00000000E+00  0.00000000E+00
  0.00000000E+00  0.00000000E+00  0.00000000E+00
  0.00000000E+00  0.00000000E+00  0.00000000E+00
  0.00000000E+00  0.00000000E+00  0.00000000E+00
  0.00000000E+00  0.00000000E+00  0.00000000E+00
  0.00000000E+00  0.00000000E+00  0.00000000E+00
  0.00000000E+00  0.00000000E+00  0.00000000E+00
  0.00000000E+00  0.00000000E+00  0.00000000E+00
  0.00000000E+00  0.00000000E+00  0.00000000E+00
  0.00000000E+00  0.00000000E+00  0.00000000E+00
  0.00000000E+00  0.00000000E+00  0.00000000E+00
  0.00000000E+00  0.00000000E+00  0.00000000E+00
  0.00000000E+00  0.00000000E+00  0.00000000E+00
  0.00000000E+00  0.00000000E+00  0.00000000E+00
  0.00000000E+00  0.00000000E+00  0.00000000E+00
  0.00000000E+00  0.00000000E+00  0.00000000E+00
  0.00000000E+00  0.00000000E+00  0.00000000E+00
  0.00000000E+00  0.00000000E+00  0.00000000E+00
  0.00000000E+00  0.00000000E+00  0.00000000E+00
  0.00000000E+00  0.00000000E+00  0.00000000E+00
  0.00000000E+00  0.00000000E+00  0.00000000E+00
  0.00000000E+00  0.00000000E+00  0.00000000E+00
  0.00000000E+00  0.00000000E+00  0.00000000E+00
  0.00000000E+00  0.00000000E+00  0.00000000E+00
  0.00000000E+00  0.00000000E+00  0.00000000E+00
  0.00000000E+00  0.00000000E+00  0.00000000E+00
  0.00000000E+00  0.00000000E+00  0.00000000E+00
  0.00000000E+00  0.00000000E+00  0.00000000E+00
  0.00000000E+00  0.00000000E+00  0.00000000E+00
  0.00000000E+00  0.00000000E+00  0.00000000E+00
  0.00000000E+00  0.00000000E+00  0.00000000E+00
  0.00000000E+00  0.00000000E+00  0.00000000E+00
  0.00000000E+00  0.00000000E+00  0.00000000E+00
  0.00000000E+00  0.00000000E+00  0.00000000E+00
  0.00000000E+00  0.00000000E+00  0.00000000E+00
  0.00000000E+00  0.00000000E+00  0.00000000E+00
  0.00000000E+00  0.00000000E+00  0.00000000E+00
  0.00000000E+00  0.00000000E+00  0.00000000E+00
  0.00000000E+00  0.00000000E+00  0.00000000E+00
  0.00000000E+00  0.00000000E+00  0.00000000E+00
  0.00000000E+00  0.00000000E+00  0.00000000E+00
  0.00000000E+00  0.00000000E+00  0.00000000E+00
  0.00000000E+00  0.00000000E+00  0.00000000E+00
  0.00000000E+00  0.00000000E+00  0.00000000E+00
  0.00000000E+00  0.00000000E+00  0.00000000E+00
  0.00000000E+00  0.00000000E+00  0.00000000E+00
  0.00000000E+00  0.00000000E+00  0.00000000E+00
  0.00000000E+00  0.00000000E+00  0.00000000E+00
  0.00000000E+00  0.00000000E+00  0.00000000E+00
  0.00000000E+00  0.00000000E+00  0.00000000E+00
  0.00000000E+00  0.00000000E+00  0.00000000E+00
  0.00000000E+00  0.00000000E+00  0.00000000E+00
  0.00000000E+00  0.00000000E+00  0.00000000E+00
  0.00000000E+00  0.00000000E+00  0.00000000E+00
  0.00000000E+00  0.00000000E+00  0.00000000E+00
  0.00000000E+00  0.00000000E+00  0.00000000E+00
  0.00000000E+00  0.00000000E+00  0.00000000E+00
  0.00000000E+00  0.00000000E+00  0.00000000E+00
  0.00000000E+00  0.00000000E+00  0.00000000E+00
  0.00000000E+00  0.00000000E+00  0.00000000E+00
  0.00000000E+00  0.00000000E+00  0.00000000E+00
  0.00000000E+00  0.00000000E+00  0.00000000E+00
  0.00000000E+00  0.00000000E+00  0.00000000E+00
  0.00000000E+00  0.00000000E+00  0.00000000E+00
  0.00000000E+00  0.00000000E+00  0.00000000E+00
  0.00000000E+00  0.00000000E+00  0.00000000E+00
  0.00000000E+00  0.00000000E+00  0.00000000E+00
  0.00000000E+00  0.00000000E+00  0.00000000E+00
  0.00000000E+00  0.00000000E+00  0.00000000E+00
  0.00000000E+00  0.00000000E+00  0.00000000E+00
  0.00000000E+00  0.00000000E+00  0.00000000E+00
  0.00000000E+00  0.00000000E+00  0.00000000E+00
  0.00000000E+00  0.00000000E+00  0.00000000E+00
  0.00000000E+00  0.00000000E+00  0.00000000E+00
  0.00000000E+00  0.00000000E+00  0.00000000E+00
  0.00000000E+00  0.00000000E+00  0.00000000E+00
  0.00000000E+00  0.00000000E+00  0.00000000E+00
  0.00000000E+00  0.00000000E+00  0.00000000E+00
  0.00000000E+00  0.00000000E+00  0.00000000E+00
  0.00000000E+00  0.00000000E+00  0.00000000E+00
  0.00000000E+00  0.00000000E+00  0.00000000E+00
  0.00000000E+00  0.00000000E+00  0.00000000E+00
  0.00000000E+00  0.00000000E+00  0.00000000E+00
  0.00000000E+00  0.00000000E+00  0.00000000E+00
  0.00000000E+00  0.00000000E+00  0.00000000E+00
  0.00000000E+00  0.00000000E+00  0.00000000E+00
  0.00000000E+00  0.00000000E+00  0.00000000E+00
  0.00000000E+00  0.00000000E+00  0.00000000E+00
  0.00000000E+00  0.00000000E+00  0.00000000E+00
  0.00000000E+00  0.00000000E+00  0.00000000E+00
  0.00000000E+00  0.00000000E+00  0.00000000E+00
  0.00000000E+00  0.00000000E+00  0.00000000E+00
  0.00000000E+00  0.00000000E+00  0.00000000E+00
  0.00000000E+00  0.00000000E+00  0.00000000E+00
  0.00000000E+00  0.00000000E+00  0.00000000E+00
  0.00000000E+00  0.00000000E+00  0.00000000E+00
  0.00000000E+00  0.00000000E+00  0.00000000E+00
  0.00000000E+00  0.00000000E+00  0.00000000E+00
  0.00000000E+00  0.00000000E+00  0.00000000E+00
  0.00000000E+00  0.00000000E+00  0.00000000E+00
  0.00000000E+00  0.00000000E+00  0.00000000E+00
  0.00000000E+00  0.00000000E+00  0.00000000E+00
  0.00000000E+00  0.00000000E+00  0.00000000E+00
  0.00000000E+00  0.00000000E+00  0.00000000E+00
  0.00000000E+00  0.00000000E+00  0.00000000E+00
  0.00000000E+00  0.00000000E+00  0.00000000E+00
  0.00000000E+00  0.00000000E+00  0.00000000E+00
  0.00000000E+00  0.00000000E+00  0.00000000E+00
  0.00000000E+00  0.00000000E+00  0.00000000E+00
  0.00000000E+00  0.00000000E+00  0.00000000E+00
  0.00000000E+00  0.00000000E+00  0.00000000E+00
  0.00000000E+00  0.00000000E+00  0.00000000E+00
  0.00000000E+00  0.00000000E+00  0.00000000E+00
  0.00000000E+00  0.00000000E+00  0.00000000E+00
  0.00000000E+00  0.00000000E+00  0.00000000E+00
  0.00000000E+00  0.00000000E+00  0.00000000E+00
  0.00000000E+00  0.00000000E+00  0.00000000E+00
  0.00000000E+00  0.00000000E+00  0.00000000E+00
  0.00000000E+00  0.00000000E+00  0.00000000E+00
  0.00000000E+00  0.00000000E+00  0.00000000E+00
  0.00000000E+00  0.00000000E+00  0.00000000E+00
  0.00000000E+00  0.00000000E+00  0.00000000E+00
  0.00000000E+00  0.00000000E+00  0.00000000E+00
  0.00000000E+00  0.00000000E+00  0.00000000E+00
  0.00000000E+00  0.00000000E+00  0.00000000E+00
  0.00000000E+00  0.00000000E+00  0.00000000E+00
  0.00000000E+00  0.00000000E+00  0.00000000E+00
  0.00000000E+00  0.00000000E+00  0.00000000E+00
  0.00000000E+00  0.00000000E+00  0.00000000E+00
  0.00000000E+00  0.00000000E+00  0.00000000E+00
  0.00000000E+00  0.00000000E+00  0.00000000E+00
  0.00000000E+00  0.00000000E+00  0.00000000E+00
  0.00000000E+00  0.00000000E+00  0.00000000E+00
  0.00000000E+00  0.00000000E+00  0.00000000E+00
  0.00000000E+00  0.00000000E+00  0.00000000E+00
  0.00000000E+00  0.00000000E+00  0.00000000E+00
  0.00000000E+00  0.00000000E+00  0.00000000E+00
  0.00000000E+00  0.00000000E+00  0.00000000E+00
  0.00000000E+00  0.00000000E+00  0.00000000E+00
  0.00000000E+00  0.00000000E+00  0.00000000E+00
  0.00000000E+00  0.00000000E+00  0.00000000E+00
  0.00000000E+00  0.00000000E+00  0.00000000E+00
  0.00000000E+00  0.00000000E+00  0.00000000E+00
  0.00000000E+00  0.00000000E+00  0.00000000E+00
  0.00000000E+00  0.00000000E+00  0.00000000E+00
  0.00000000E+00  0.00000000E+00  0.00000000E+00
  0.00000000E+00  0.00000000E+00  0.00000000E+00
  0.00000000E+00  0.00000000E+00  0.00000000E+00
  0.00000000E+00  0.00000000E+00  0.00000000E+00
  0.00000000E+00  0.00000000E+00  0.00000000E+00
  0.00000000E+00  0.00000000E+00  0.00000000E+00
  0.00000000E+00  0.00000000E+00  0.00000000E+00
  0.00000000E+00  0.00000000E+00  0.00000000E+00
  0.00000000E+00  0.00000000E+00  0.00000000E+00
  0.00000000E+00  0.00000000E+00  0.00000000E+00
  0.00000000E+00  0.00000000E+00  0.00000000E+00
  0.00000000E+00  0.00000000E+00  0.00000000E+00
  0.00000000E+00  0.00000000E+00  0.00000000E+00
  0.00000000E+00  0.00000000E+00  0.00000000E+00
  0.00000000E+00  0.00000000E+00  0.00000000E+00
  0.00000000E+00  0.00000000E+00  0.00000000E+00
  0.00000000E+00  0.00000000E+00  0.00000000E+00
  0.00000000E+00  0.00000000E+00  0.00000000E+00
  0.00000000E+00  0.00000000E+00  0.00000000E+00
  0.00000000E+00  0.00000000E+00  0.00000000E+00
  0.00000000E+00  0.00000000E+00  0.00000000E+00
  0.00000000E+00  0.00000000E+00  0.00000000E+00
  0.00000000E+00  0.00000000E+00  0.00000000E+00
  0.00000000E+00  0.00000000E+00  0.00000000E+00
  0.00000000E+00  0.00000000E+00  0.00000000E+00
  0.00000000E+00  0.00000000E+00  0.00000000E+00
  0.00000000E+00  0.00000000E+00  0.00000000E+00
  0.00000000E+00  0.00000000E+00  0.00000000E+00
  0.00000000E+00  0.00000000E+00  0.00000000E+00
  0.00000000E+00  0.00000000E+00  0.00000000E+00
  0.00000000E+00  0.00000000E+00  0.00000000E+00
  0.00000000E+00  0.00000000E+00  0.00000000E+00
  0.00000000E+00  0.00000000E+00  0.00000000E+00
  0.00000000E+00  0.00000000E+00  0.00000000E+00
  0.00000000E+00  0.00000000E+00  0.00000000E+00
  0.00000000E+00  0.00000000E+00  0.00000000E+00
  0.00000000E+00  0.00000000E+00  0.00000000E+00
  0.00000000E+00  0.00000000E+00  0.00000000E+00
  0.00000000E+00  0.00000000E+00  0.00000000E+00
  0.00000000E+00  0.00000000E+00  0.00000000E+00
  0.00000000E+00  0.00000000E+00  0.00000000E+00
  0.00000000E+00  0.00000000E+00  0.00000000E+00
  0.00000000E+00  0.00000000E+00  0.00000000E+00
  0.00000000E+00  0.00000000E+00  0.00000000E+00
  0.00000000E+00  0.00000000E+00  0.00000000E+00
  0.00000000E+00  0.00000000E+00  0.00000000E+00
  0.00000000E+00  0.00000000E+00  0.00000000E+00
  0.00000000E+00  0.00000000E+00  0.00000000E+00
  0.00000000E+00  0.00000000E+00  0.00000000E+00
  0.00000000E+00  0.00000000E+00  0.00000000E+00
  0.00000000E+00  0.00000000E+00  0.00000000E+00
  0.00000000E+00  0.00000000E+00  0.00000000E+00
  0.00000000E+00  0.00000000E+00  0.00000000E+00
  0.00000000E+00  0.00000000E+00  0.00000000E+00
  0.00000000E+00  0.00000000E+00  0.00000000E+00
  0.00000000E+00  0.00000000E+00  0.00000000E+00
  0.00000000E+00  0.00000000E+00  0.00000000E+00
  0.00000000E+00  0.00000000E+00  0.00000000E+00
  0.00000000E+00  0.00000000E+00  0.00000000E+00
  0.00000000E+00  0.00000000E+00  0.00000000E+00
  0.00000000E+00  0.00000000E+00  0.00000000E+00
  0.00000000E+00  0.00000000E+00  0.00000000E+00
  0.00000000E+00  0.00000000E+00  0.00000000E+00
  0.00000000E+00  0.00000000E+00  0.00000000E+00
  0.00000000E+00  0.00000000E+00  0.00000000E+00
  0.00000000E+00  0.00000000E+00  0.00000000E+00
  0.00000000E+00  0.00000000E+00  0.00000000E+00
