POSCAR                                  
   1.00000000000000     
    10.0227803471696042   -0.0076050765373895   -0.0009595599412767
    -0.0075724456425021   10.0370907178888995   -0.0015709569920553
    -0.0006202827322914   -0.0010187990040654    6.6437400696570483
   Mg   Na   Ca   Zr   H 
     9     9     9     9   216
Direct
  0.1666407983862186  0.1739619593047834  0.2503056345708785
  0.5015151664174766  0.4964046343126682  0.2486928271660318
  0.8344985100948890  0.1739048271127217  0.2532643889563460
  0.6618486032510944  0.3287432869272067  0.5025204764077102
  0.6636436083869413  0.3352809072553669  0.9965337576599325
  0.0001421460494413  0.3345401587344199  0.5004350052557243
  0.0011087201816764  0.6585929873420753  0.5003357943386320
  0.6610463187463935  0.9948517902004355  0.9980723091618131
  0.9965323921109288  0.0036479971664960  0.4985250903343541
  0.1676754404460894  0.1652306775226293  0.7446965094011873
  0.5021882357034642  0.1656403055742715  0.7518329160043109
  0.3374047288356650  0.3310502489732485  0.0002537455086795
  0.8344876676606603  0.4961773058027958  0.2537437441745922
  0.5015915906129180  0.8327936868912573  0.7498502059807350
  0.8298059270492217  0.4952619183056584  0.7480760351974638
  0.6704602691910253  0.6707220061924488  0.9977880619565838
  0.6745515684794512  0.0100891832251264  0.4996022311932080
  0.9929186823373328  0.6645975653543275  0.9961138428010869
  0.1618140495953071  0.4929910283643935  0.2462925567182808
  0.3338363461910916  0.3325434457460403  0.5027526632954675
  0.3298232853477572  0.6653241184941763  0.5002940975549990
  0.1695335376040532  0.8401980568639544  0.7475272838748737
  0.5064185003380217  0.4968966110966022  0.7543873338451306
  0.8320628673629997  0.1721949690803086  0.7528646785412860
  0.3335727312091166  0.0032407796694969  0.5052870682732689
  0.3384417414396808  0.0082270590238736  0.9974705175490399
  0.9886035996154234  0.3340132796450845  0.9999860596753081
  0.5020452193688385  0.1731209894549934  0.2503941386888471
  0.1609225810710910  0.4946394110744237  0.7502447737709090
  0.1629748652411394  0.8347123415171964  0.2501108533535898
  0.3357729141633286  0.6620623057314461  0.9965248448232344
  0.5050066610970916  0.8331570456877913  0.2500056161863853
  0.6688573123748043  0.6557659834549767  0.5005968751091601
  0.8333713540869851  0.8287213198221366  0.2523610802911236
  0.8297856222599478  0.8348608477565236  0.7487570860689772
  0.0017292658917185  0.0052033041636008  0.0030144240779890
  0.1693873820464944  0.0848550306781561  0.0004285801150985
  0.1564047875828791  0.0854445380573523  0.4933945451065043
  0.1741704494866099  0.4090486914328650  0.0005818707613940
  0.5130266959388905  0.0828523789565807  0.9882356020355871
  0.3300766586605519  0.2517419426427381  0.2438069287315585
  0.1619723985518746  0.4121219359600872  0.4937413089847240
  0.5086227413610303  0.0802981655089212  0.5111997485257405
  0.3242102925065993  0.2535795317230267  0.7583871686004642
  0.1609644962131611  0.7511200213581830  0.9928818839170788
  0.5049704916458992  0.4178142285977131  0.0141333956034160
  0.3362540168399306  0.5812252944312846  0.2493138286448016
  0.1579196447677447  0.7467349905726763  0.5090297898070517
  0.8153504173466288  0.0823347381207142  0.0107535816873252
  0.6755701174758784  0.2513128990493172  0.2211677458996704
  0.5047580565916761  0.4185063719598006  0.4932981512368144
  0.3344745006372349  0.5807648440222835  0.7468135935664222
  0.8401580782248956  0.0842759075050168  0.4931599366837602
  0.6629511317211012  0.2444972775603631  0.7754376980836284
  0.5065382070904505  0.7478876559495689  0.9928481606736810
  0.3348566361453109  0.9210359459049897  0.2483735012186727
  0.8178481941922513  0.4125235067707465  0.0189504497849526
  0.6740892196083621  0.5844646691541300  0.2352087392227560
  0.5016099027079477  0.7492162935636912  0.5087729344173937
  0.3500579875352514  0.9193095602932928  0.7531107245785975
  0.0032130658951246  0.2487031145267196  0.2538433680348078
  0.8376196782323433  0.4194121898468879  0.4958442284846072
  0.6794438511679886  0.5856393532158179  0.7625343393172272
  0.0112759773200324  0.2503519368373475  0.7384973948229998
  0.8333534909421445  0.7454771893299679  0.9946359419025370
  0.6708906652904361  0.9206712425197381  0.2591075491320325
  0.9935130772294727  0.5817568027748052  0.2535932551099762
  0.8350625991376504  0.7414234484479962  0.5081050522621311
  0.6569011222642303  0.9161889079147230  0.7332219142294747
  0.9895228192704764  0.5824268041635605  0.7427345052723950
  0.9948235481331054  0.9182559006850681  0.2762794556711796
  0.0008741256556846  0.9182291535663012  0.7241606268442879
  0.0893886484635189  0.1785348926375860  0.9972591132418458
  0.0859230796748633  0.1803825056662944  0.4919897620927003
  0.0785638320595083  0.5014542228946013  0.9983941241910586
  0.4161583324059421  0.1741338684785205  0.9859822004431038
  0.2512656692816932  0.3270737540127726  0.2419171196988472
  0.0818702723537541  0.4955440797617001  0.5000815397150475
  0.4158356432269557  0.1682671849367949  0.5177643218732371
  0.2554226308730350  0.3132282860541622  0.7606588858830250
  0.0805243939809941  0.8248051645934353  0.9938309406212156
  0.4155832183830839  0.4953493404015532  0.0031170133524299
  0.2499411927426465  0.6637844407392137  0.2461902318794671
  0.0809028093775410  0.8292478924224795  0.4993185217108689
  0.7460592273106528  0.1468009202791691  0.0060406640056598
  0.5875299624512635  0.3342678781248054  0.2638951784371599
  0.4137011092036786  0.4999890602898418  0.5046960939310097
  0.2501109652197755  0.6709862406991363  0.7518937464200732
  0.7483913080796896  0.1767415915150607  0.4853731181917382
  0.5853360744425657  0.3307390208310821  0.7395477910602537
  0.4208546689003043  0.8385272798914514  0.9920339829865412
  0.2498531229451757  0.0092457296085868  0.2504526427709592
  0.7568090649227983  0.5147430667121426  0.0025170261592322
  0.5832219492456474  0.6556304268745734  0.2323261753858716
  0.4197778332595803  0.8334339319027819  0.5043687524239573
  0.2503322508845613  0.0134029393735347  0.7547149786073248
  0.9138890802194339  0.3289088303427405  0.2667199593536935
  0.7537378748882375  0.4805130021655799  0.4939395964767428
  0.5824205181388891  0.6713222922311957  0.7631305956233589
  0.9134261973002538  0.3416526127760591  0.7299723322627401
  0.7485323678692666  0.8380003407293941  0.0046267297594582
  0.5881372441038835  0.0056335347515812  0.2559539073065267
  0.9189959462309290  0.6569873012767218  0.2534532282750703
  0.7450302670957640  0.8357449171979141  0.4969567323549526
  0.5859043550979308  0.0047986681476928  0.7485088204781079
  0.9176625401844589  0.6540236468098186  0.7456121713935815
  0.9166584185165263  0.0175937842074418  0.2537537650644879
  0.9167237632261376  0.0048213600366793  0.7537978586931402
  0.1682106152200973  0.0173429800723071  0.1292646855400506
  0.1548678528489020  0.0085514230664714  0.6197343229389105
  0.1688024510729065  0.3289110289309889  0.1200492215271112
  0.5047680735014453  0.0031299244352994  0.1256518193116705
  0.3229635551050691  0.1698248977625454  0.3771007886282121
  0.1639719863308784  0.3283066565539414  0.6263265108187355
  0.5083357285166699  0.0036969862743206  0.6231487189873164
  0.3415485706185422  0.1702000444656164  0.8769635649461236
  0.1537787806607582  0.6570487455739098  0.1180579565826605
  0.5047180842169254  0.3419371133019879  0.1216709698573197
  0.3376952207411534  0.4987451672782228  0.3725703941171474
  0.1619907952362922  0.6711110724623595  0.6243684105947978
  0.8346382682841025  0.0033979803557642  0.1297280238258480
  0.6787169967815316  0.1737922562029155  0.3763570861342700
  0.5100489111867503  0.3231953022072389  0.6323958731104398
  0.3369953550856408  0.4872211238756918  0.8746863580618793
  0.8374452089372824  0.0061516019680923  0.6229436870115777
  0.6619838145816317  0.1813280949987970  0.8750397061944071
  0.5098890784271575  0.6592949670647599  0.1256732611741498
  0.3349973749398814  0.8323254519609833  0.3769013114602231
  0.8200048783362774  0.3441432873763262  0.1238398752979180
  0.6634678923636415  0.4870364293494802  0.3727029111592799
  0.4967434261736443  0.6709585105753391  0.6255782886476879
  0.3396169092002879  0.8373367705440984  0.8752463592577087
  0.9993306100258650  0.1653829838873548  0.3783337496259236
  0.8129986030616152  0.3345161667901095  0.6253068473823760
  0.6738855585390695  0.4866626385697046  0.8768832979784591
  0.0077160290495684  0.1636885045784808  0.8734921833854870
  0.8345357646002967  0.6578912036370639  0.1263837978490585
  0.6707699874682902  0.8433358339663286  0.3868553509700519
  0.9964895712249984  0.4926678488306351  0.3719579651659828
  0.8393140941911952  0.6607553725545401  0.6249188101039920
  0.6623904339377233  0.8361618329480649  0.8721837501166192
  0.9761215627494906  0.5038705766995548  0.8832181380210358
  0.9974551722705129  0.8232339916208034  0.3890216692220321
  0.0012383947218808  0.8327262040520580  0.8730878633199453
  0.0851193904414984  0.0124623442663108  0.2628805368419478
  0.0843415966926457  0.0036315746337650  0.7443723280390202
  0.0809183187500935  0.3241705392403915  0.2533695392960595
  0.4150107590988981  0.0030080764042921  0.2527387045747176
  0.2505892066217683  0.1695522529546878  0.4871276688682258
  0.0795091100561436  0.3187119500261062  0.7483091211303048
  0.4195991783841393  0.9942760329051055  0.7500497604008345
  0.2514961031414344  0.1731409707824056  0.0046803974890395
  0.0823248521900197  0.6652055569860877  0.2352271297504416
  0.4184934189530338  0.3377043254030809  0.2461656132243775
  0.2492814559049563  0.4960163078218045  0.4943807041084511
  0.0804804865995195  0.6716682867650903  0.7609496618271550
  0.7501942179250420  0.0123964203709548  0.2446125137916084
  0.5860452541146373  0.1656288955134571  0.5123671959695599
  0.4202485945215955  0.3301217878018505  0.7589776199186531
  0.2493965890477128  0.4889951177761347  0.0018576304669367
  0.7488029798616012  0.0081555781813805  0.7594597012923785
  0.5864425516017491  0.1565541136405386  0.9950944087922764
  0.4180344687908146  0.6616523033807127  0.2529285069350635
  0.2515721709993457  0.8351548391734624  0.4952958582816507
  0.7496364190247888  0.3345046180973767  0.2817447696806070
  0.5814605693561106  0.4863189336806499  0.4918912423509028
  0.4202281576565809  0.6670526621374222  0.7443838812453407
  0.2525282434143321  0.8387266637122792  0.0020047519125086
  0.9146113484181981  0.1838263767469996  0.4951470399873230
  0.7511705478313999  0.3353984775158949  0.7251094451146258
  0.5845330878651183  0.5138372624545653  0.0068610763743138
  0.9122582696831998  0.1653587325807777  0.0178491121940780
  0.7482064909737716  0.6460773776801645  0.2342783997042730
  0.5825132894170224  0.8422540590099032  0.5084319802903465
  0.9153789035974427  0.4903750099372388  0.5087326749692735
  0.7479580896091491  0.6486082363345957  0.7641798814412084
  0.5833043007251177  0.8299479722181786  0.9911684773281166
  0.9165606082390170  0.5041143377082022  0.9856917326536418
  0.9203741827995486  0.8149399480110446  0.4977487343341238
  0.9174287096444189  0.8300533640833905  0.0040570020351396
  0.0084974407028824  0.1714663750130541  0.1300056825770000
  0.0005850579113300  0.1533374345353167  0.6252221237581566
  0.9924945388712274  0.5038120634769498  0.1255372766614826
  0.3216659852067210  0.1759848424107133  0.1219783003409702
  0.1622964839548970  0.3327793399513723  0.3752079043218544
  0.9924462724400342  0.4967882736864198  0.6255182257302891
  0.3434413162894927  0.1658707157596453  0.6256435423381674
  0.1665715763975939  0.3268792631509569  0.8734322067796541
  0.9971369794754281  0.8269746020863238  0.1171143250983420
  0.3353208387824651  0.4887270966235491  0.1266774006401263
  0.1592924776347289  0.6586235023487674  0.3749693704280048
  0.0022146799519831  0.8506755719698376  0.6259442166109963
  0.6754829265380380  0.1861035107531634  0.1257461458073124
  0.5032353325498278  0.3405184921812534  0.3764710237641964
  0.3432460402373110  0.5012875210325021  0.6218463734724580
  0.1503673800055196  0.6683509028330477  0.8688622674413011
  0.6620051486869087  0.1699613809955025  0.6233624412066590
  0.5019913901235142  0.3237058405204110  0.8754495470464789
  0.3325698333681189  0.8353867556834729  0.1211543845868945
  0.1567831923634486  0.0172598255289458  0.3763375184522459
  0.6735919326949826  0.4839281809331979  0.1264593730047707
  0.4969498438999054  0.6575071286640579  0.3737147664019744
  0.3393578448888164  0.8338991690464823  0.6279065889084947
  0.1721080832881299  0.0112917423298171  0.8717559657196716
  0.8194164461240518  0.3338432005204837  0.3751477859248240
  0.6703998470730710  0.4853578954602753  0.6224745943823748
  0.5129744733406483  0.6708744147932109  0.8717694083450525
  0.8152163573435658  0.3402396405081092  0.8751890348514522
  0.6707144582350963  0.8332825148658500  0.1196818744160666
  0.5109029294838479  0.0034583787747380  0.3783592235334581
  0.8405610936200034  0.6577949269800243  0.3771354280042942
  0.6592734580042645  0.8500529599492239  0.6273633433671932
  0.5061678836448635  0.0014418635415367  0.8713744340442915
  0.8341239191119172  0.6640553183800790  0.8689971097737015
  0.8343037579049692  0.0076598072646448  0.3744558298878857
  0.8224037104625310  0.0004497036287177  0.8767917109193135
  0.9928879102891557  0.0863329920826388  0.2710831007960266
  0.0015573864464571  0.0892757569063249  0.7272689790211757
  0.9905362745573072  0.4180724684745343  0.2674647167828894
  0.3342149435407507  0.0841354963395773  0.2540381744704874
  0.1525534483847295  0.2466673124191701  0.5100328189721921
  0.9897033313908068  0.4145258309233313  0.7385898509441233
  0.3310752347346266  0.0898838931702102  0.7510060963694372
  0.1614059206922391  0.2478265760700680  0.9900545504067182
  0.9996319556545075  0.7441323735540593  0.2506736668266569
  0.3365658384134065  0.4171726448266568  0.2385905242582638
  0.1573617474959477  0.5840244375902870  0.4904666307151331
  0.0019638835403981  0.7471271071347871  0.7331837399875738
  0.6753762636482818  0.0800030161276268  0.2358440869488945
  0.5019439557639984  0.2508353186872654  0.5086786863641990
  0.3352153290537885  0.4147818284008693  0.7632126428976704
  0.1578729636152474  0.5864062655328013  0.0042717336579869
  0.6623346538823043  0.0759716650357802  0.7556600949684835
  0.5058054514344192  0.2536343279249280  0.9898779371059021
  0.3378737879136793  0.7491772625630873  0.2504541555642561
  0.1594037848703636  0.9217209793559817  0.4951405011248724
  0.6689989318017169  0.4233220972304039  0.2237497362879921
  0.4993425828779650  0.5809631385208576  0.4898849935005387
  0.3350599501759390  0.7517619559220492  0.7483014424049870
  0.1730236353141308  0.9183873045930184  0.0023166415226754
  0.8496812635917621  0.2505238289548473  0.4991370793946430
  0.6698878293414268  0.4223392242740545  0.7700719996914245
  0.5189005020300073  0.5788230750595531  0.0108360101454323
  0.8215649070034985  0.2468595851998145  0.0164469524203028
  0.6671024619637009  0.7467309249610423  0.2480310215679253
  0.5101813946150600  0.9180682637591175  0.5118722561162201
  0.8423783694783822  0.5801237837685775  0.5023015908405455
  0.6643127277671823  0.7509227980629021  0.7484120308888578
  0.4996318392007026  0.9146894162750385  0.9900156150326964
  0.8198432687268280  0.5787283326154480  0.0042163035712974
  0.8374710919019819  0.9210681731593340  0.4941982570545633
  0.8268815299377152  0.9226872917923146  0.0058986530263070
 
  0.00000000E+00  0.00000000E+00  0.00000000E+00
  0.00000000E+00  0.00000000E+00  0.00000000E+00
  0.00000000E+00  0.00000000E+00  0.00000000E+00
  0.00000000E+00  0.00000000E+00  0.00000000E+00
  0.00000000E+00  0.00000000E+00  0.00000000E+00
  0.00000000E+00  0.00000000E+00  0.00000000E+00
  0.00000000E+00  0.00000000E+00  0.00000000E+00
  0.00000000E+00  0.00000000E+00  0.00000000E+00
  0.00000000E+00  0.00000000E+00  0.00000000E+00
  0.00000000E+00  0.00000000E+00  0.00000000E+00
  0.00000000E+00  0.00000000E+00  0.00000000E+00
  0.00000000E+00  0.00000000E+00  0.00000000E+00
  0.00000000E+00  0.00000000E+00  0.00000000E+00
  0.00000000E+00  0.00000000E+00  0.00000000E+00
  0.00000000E+00  0.00000000E+00  0.00000000E+00
  0.00000000E+00  0.00000000E+00  0.00000000E+00
  0.00000000E+00  0.00000000E+00  0.00000000E+00
  0.00000000E+00  0.00000000E+00  0.00000000E+00
  0.00000000E+00  0.00000000E+00  0.00000000E+00
  0.00000000E+00  0.00000000E+00  0.00000000E+00
  0.00000000E+00  0.00000000E+00  0.00000000E+00
  0.00000000E+00  0.00000000E+00  0.00000000E+00
  0.00000000E+00  0.00000000E+00  0.00000000E+00
  0.00000000E+00  0.00000000E+00  0.00000000E+00
  0.00000000E+00  0.00000000E+00  0.00000000E+00
  0.00000000E+00  0.00000000E+00  0.00000000E+00
  0.00000000E+00  0.00000000E+00  0.00000000E+00
  0.00000000E+00  0.00000000E+00  0.00000000E+00
  0.00000000E+00  0.00000000E+00  0.00000000E+00
  0.00000000E+00  0.00000000E+00  0.00000000E+00
  0.00000000E+00  0.00000000E+00  0.00000000E+00
  0.00000000E+00  0.00000000E+00  0.00000000E+00
  0.00000000E+00  0.00000000E+00  0.00000000E+00
  0.00000000E+00  0.00000000E+00  0.00000000E+00
  0.00000000E+00  0.00000000E+00  0.00000000E+00
  0.00000000E+00  0.00000000E+00  0.00000000E+00
  0.00000000E+00  0.00000000E+00  0.00000000E+00
  0.00000000E+00  0.00000000E+00  0.00000000E+00
  0.00000000E+00  0.00000000E+00  0.00000000E+00
  0.00000000E+00  0.00000000E+00  0.00000000E+00
  0.00000000E+00  0.00000000E+00  0.00000000E+00
  0.00000000E+00  0.00000000E+00  0.00000000E+00
  0.00000000E+00  0.00000000E+00  0.00000000E+00
  0.00000000E+00  0.00000000E+00  0.00000000E+00
  0.00000000E+00  0.00000000E+00  0.00000000E+00
  0.00000000E+00  0.00000000E+00  0.00000000E+00
  0.00000000E+00  0.00000000E+00  0.00000000E+00
  0.00000000E+00  0.00000000E+00  0.00000000E+00
  0.00000000E+00  0.00000000E+00  0.00000000E+00
  0.00000000E+00  0.00000000E+00  0.00000000E+00
  0.00000000E+00  0.00000000E+00  0.00000000E+00
  0.00000000E+00  0.00000000E+00  0.00000000E+00
  0.00000000E+00  0.00000000E+00  0.00000000E+00
  0.00000000E+00  0.00000000E+00  0.00000000E+00
  0.00000000E+00  0.00000000E+00  0.00000000E+00
  0.00000000E+00  0.00000000E+00  0.00000000E+00
  0.00000000E+00  0.00000000E+00  0.00000000E+00
  0.00000000E+00  0.00000000E+00  0.00000000E+00
  0.00000000E+00  0.00000000E+00  0.00000000E+00
  0.00000000E+00  0.00000000E+00  0.00000000E+00
  0.00000000E+00  0.00000000E+00  0.00000000E+00
  0.00000000E+00  0.00000000E+00  0.00000000E+00
  0.00000000E+00  0.00000000E+00  0.00000000E+00
  0.00000000E+00  0.00000000E+00  0.00000000E+00
  0.00000000E+00  0.00000000E+00  0.00000000E+00
  0.00000000E+00  0.00000000E+00  0.00000000E+00
  0.00000000E+00  0.00000000E+00  0.00000000E+00
  0.00000000E+00  0.00000000E+00  0.00000000E+00
  0.00000000E+00  0.00000000E+00  0.00000000E+00
  0.00000000E+00  0.00000000E+00  0.00000000E+00
  0.00000000E+00  0.00000000E+00  0.00000000E+00
  0.00000000E+00  0.00000000E+00  0.00000000E+00
  0.00000000E+00  0.00000000E+00  0.00000000E+00
  0.00000000E+00  0.00000000E+00  0.00000000E+00
  0.00000000E+00  0.00000000E+00  0.00000000E+00
  0.00000000E+00  0.00000000E+00  0.00000000E+00
  0.00000000E+00  0.00000000E+00  0.00000000E+00
  0.00000000E+00  0.00000000E+00  0.00000000E+00
  0.00000000E+00  0.00000000E+00  0.00000000E+00
  0.00000000E+00  0.00000000E+00  0.00000000E+00
  0.00000000E+00  0.00000000E+00  0.00000000E+00
  0.00000000E+00  0.00000000E+00  0.00000000E+00
  0.00000000E+00  0.00000000E+00  0.00000000E+00
  0.00000000E+00  0.00000000E+00  0.00000000E+00
  0.00000000E+00  0.00000000E+00  0.00000000E+00
  0.00000000E+00  0.00000000E+00  0.00000000E+00
  0.00000000E+00  0.00000000E+00  0.00000000E+00
  0.00000000E+00  0.00000000E+00  0.00000000E+00
  0.00000000E+00  0.00000000E+00  0.00000000E+00
  0.00000000E+00  0.00000000E+00  0.00000000E+00
  0.00000000E+00  0.00000000E+00  0.00000000E+00
  0.00000000E+00  0.00000000E+00  0.00000000E+00
  0.00000000E+00  0.00000000E+00  0.00000000E+00
  0.00000000E+00  0.00000000E+00  0.00000000E+00
  0.00000000E+00  0.00000000E+00  0.00000000E+00
  0.00000000E+00  0.00000000E+00  0.00000000E+00
  0.00000000E+00  0.00000000E+00  0.00000000E+00
  0.00000000E+00  0.00000000E+00  0.00000000E+00
  0.00000000E+00  0.00000000E+00  0.00000000E+00
  0.00000000E+00  0.00000000E+00  0.00000000E+00
  0.00000000E+00  0.00000000E+00  0.00000000E+00
  0.00000000E+00  0.00000000E+00  0.00000000E+00
  0.00000000E+00  0.00000000E+00  0.00000000E+00
  0.00000000E+00  0.00000000E+00  0.00000000E+00
  0.00000000E+00  0.00000000E+00  0.00000000E+00
  0.00000000E+00  0.00000000E+00  0.00000000E+00
  0.00000000E+00  0.00000000E+00  0.00000000E+00
  0.00000000E+00  0.00000000E+00  0.00000000E+00
  0.00000000E+00  0.00000000E+00  0.00000000E+00
  0.00000000E+00  0.00000000E+00  0.00000000E+00
  0.00000000E+00  0.00000000E+00  0.00000000E+00
  0.00000000E+00  0.00000000E+00  0.00000000E+00
  0.00000000E+00  0.00000000E+00  0.00000000E+00
  0.00000000E+00  0.00000000E+00  0.00000000E+00
  0.00000000E+00  0.00000000E+00  0.00000000E+00
  0.00000000E+00  0.00000000E+00  0.00000000E+00
  0.00000000E+00  0.00000000E+00  0.00000000E+00
  0.00000000E+00  0.00000000E+00  0.00000000E+00
  0.00000000E+00  0.00000000E+00  0.00000000E+00
  0.00000000E+00  0.00000000E+00  0.00000000E+00
  0.00000000E+00  0.00000000E+00  0.00000000E+00
  0.00000000E+00  0.00000000E+00  0.00000000E+00
  0.00000000E+00  0.00000000E+00  0.00000000E+00
  0.00000000E+00  0.00000000E+00  0.00000000E+00
  0.00000000E+00  0.00000000E+00  0.00000000E+00
  0.00000000E+00  0.00000000E+00  0.00000000E+00
  0.00000000E+00  0.00000000E+00  0.00000000E+00
  0.00000000E+00  0.00000000E+00  0.00000000E+00
  0.00000000E+00  0.00000000E+00  0.00000000E+00
  0.00000000E+00  0.00000000E+00  0.00000000E+00
  0.00000000E+00  0.00000000E+00  0.00000000E+00
  0.00000000E+00  0.00000000E+00  0.00000000E+00
  0.00000000E+00  0.00000000E+00  0.00000000E+00
  0.00000000E+00  0.00000000E+00  0.00000000E+00
  0.00000000E+00  0.00000000E+00  0.00000000E+00
  0.00000000E+00  0.00000000E+00  0.00000000E+00
  0.00000000E+00  0.00000000E+00  0.00000000E+00
  0.00000000E+00  0.00000000E+00  0.00000000E+00
  0.00000000E+00  0.00000000E+00  0.00000000E+00
  0.00000000E+00  0.00000000E+00  0.00000000E+00
  0.00000000E+00  0.00000000E+00  0.00000000E+00
  0.00000000E+00  0.00000000E+00  0.00000000E+00
  0.00000000E+00  0.00000000E+00  0.00000000E+00
  0.00000000E+00  0.00000000E+00  0.00000000E+00
  0.00000000E+00  0.00000000E+00  0.00000000E+00
  0.00000000E+00  0.00000000E+00  0.00000000E+00
  0.00000000E+00  0.00000000E+00  0.00000000E+00
  0.00000000E+00  0.00000000E+00  0.00000000E+00
  0.00000000E+00  0.00000000E+00  0.00000000E+00
  0.00000000E+00  0.00000000E+00  0.00000000E+00
  0.00000000E+00  0.00000000E+00  0.00000000E+00
  0.00000000E+00  0.00000000E+00  0.00000000E+00
  0.00000000E+00  0.00000000E+00  0.00000000E+00
  0.00000000E+00  0.00000000E+00  0.00000000E+00
  0.00000000E+00  0.00000000E+00  0.00000000E+00
  0.00000000E+00  0.00000000E+00  0.00000000E+00
  0.00000000E+00  0.00000000E+00  0.00000000E+00
  0.00000000E+00  0.00000000E+00  0.00000000E+00
  0.00000000E+00  0.00000000E+00  0.00000000E+00
  0.00000000E+00  0.00000000E+00  0.00000000E+00
  0.00000000E+00  0.00000000E+00  0.00000000E+00
  0.00000000E+00  0.00000000E+00  0.00000000E+00
  0.00000000E+00  0.00000000E+00  0.00000000E+00
  0.00000000E+00  0.00000000E+00  0.00000000E+00
  0.00000000E+00  0.00000000E+00  0.00000000E+00
  0.00000000E+00  0.00000000E+00  0.00000000E+00
  0.00000000E+00  0.00000000E+00  0.00000000E+00
  0.00000000E+00  0.00000000E+00  0.00000000E+00
  0.00000000E+00  0.00000000E+00  0.00000000E+00
  0.00000000E+00  0.00000000E+00  0.00000000E+00
  0.00000000E+00  0.00000000E+00  0.00000000E+00
  0.00000000E+00  0.00000000E+00  0.00000000E+00
  0.00000000E+00  0.00000000E+00  0.00000000E+00
  0.00000000E+00  0.00000000E+00  0.00000000E+00
  0.00000000E+00  0.00000000E+00  0.00000000E+00
  0.00000000E+00  0.00000000E+00  0.00000000E+00
  0.00000000E+00  0.00000000E+00  0.00000000E+00
  0.00000000E+00  0.00000000E+00  0.00000000E+00
  0.00000000E+00  0.00000000E+00  0.00000000E+00
  0.00000000E+00  0.00000000E+00  0.00000000E+00
  0.00000000E+00  0.00000000E+00  0.00000000E+00
  0.00000000E+00  0.00000000E+00  0.00000000E+00
  0.00000000E+00  0.00000000E+00  0.00000000E+00
  0.00000000E+00  0.00000000E+00  0.00000000E+00
  0.00000000E+00  0.00000000E+00  0.00000000E+00
  0.00000000E+00  0.00000000E+00  0.00000000E+00
  0.00000000E+00  0.00000000E+00  0.00000000E+00
  0.00000000E+00  0.00000000E+00  0.00000000E+00
  0.00000000E+00  0.00000000E+00  0.00000000E+00
  0.00000000E+00  0.00000000E+00  0.00000000E+00
  0.00000000E+00  0.00000000E+00  0.00000000E+00
  0.00000000E+00  0.00000000E+00  0.00000000E+00
  0.00000000E+00  0.00000000E+00  0.00000000E+00
  0.00000000E+00  0.00000000E+00  0.00000000E+00
  0.00000000E+00  0.00000000E+00  0.00000000E+00
  0.00000000E+00  0.00000000E+00  0.00000000E+00
  0.00000000E+00  0.00000000E+00  0.00000000E+00
  0.00000000E+00  0.00000000E+00  0.00000000E+00
  0.00000000E+00  0.00000000E+00  0.00000000E+00
  0.00000000E+00  0.00000000E+00  0.00000000E+00
  0.00000000E+00  0.00000000E+00  0.00000000E+00
  0.00000000E+00  0.00000000E+00  0.00000000E+00
  0.00000000E+00  0.00000000E+00  0.00000000E+00
  0.00000000E+00  0.00000000E+00  0.00000000E+00
  0.00000000E+00  0.00000000E+00  0.00000000E+00
  0.00000000E+00  0.00000000E+00  0.00000000E+00
  0.00000000E+00  0.00000000E+00  0.00000000E+00
  0.00000000E+00  0.00000000E+00  0.00000000E+00
  0.00000000E+00  0.00000000E+00  0.00000000E+00
  0.00000000E+00  0.00000000E+00  0.00000000E+00
  0.00000000E+00  0.00000000E+00  0.00000000E+00
  0.00000000E+00  0.00000000E+00  0.00000000E+00
  0.00000000E+00  0.00000000E+00  0.00000000E+00
  0.00000000E+00  0.00000000E+00  0.00000000E+00
  0.00000000E+00  0.00000000E+00  0.00000000E+00
  0.00000000E+00  0.00000000E+00  0.00000000E+00
  0.00000000E+00  0.00000000E+00  0.00000000E+00
  0.00000000E+00  0.00000000E+00  0.00000000E+00
  0.00000000E+00  0.00000000E+00  0.00000000E+00
  0.00000000E+00  0.00000000E+00  0.00000000E+00
  0.00000000E+00  0.00000000E+00  0.00000000E+00
  0.00000000E+00  0.00000000E+00  0.00000000E+00
  0.00000000E+00  0.00000000E+00  0.00000000E+00
  0.00000000E+00  0.00000000E+00  0.00000000E+00
  0.00000000E+00  0.00000000E+00  0.00000000E+00
  0.00000000E+00  0.00000000E+00  0.00000000E+00
  0.00000000E+00  0.00000000E+00  0.00000000E+00
  0.00000000E+00  0.00000000E+00  0.00000000E+00
  0.00000000E+00  0.00000000E+00  0.00000000E+00
  0.00000000E+00  0.00000000E+00  0.00000000E+00
  0.00000000E+00  0.00000000E+00  0.00000000E+00
  0.00000000E+00  0.00000000E+00  0.00000000E+00
  0.00000000E+00  0.00000000E+00  0.00000000E+00
  0.00000000E+00  0.00000000E+00  0.00000000E+00
  0.00000000E+00  0.00000000E+00  0.00000000E+00
  0.00000000E+00  0.00000000E+00  0.00000000E+00
  0.00000000E+00  0.00000000E+00  0.00000000E+00
  0.00000000E+00  0.00000000E+00  0.00000000E+00
  0.00000000E+00  0.00000000E+00  0.00000000E+00
  0.00000000E+00  0.00000000E+00  0.00000000E+00
  0.00000000E+00  0.00000000E+00  0.00000000E+00
  0.00000000E+00  0.00000000E+00  0.00000000E+00
  0.00000000E+00  0.00000000E+00  0.00000000E+00
  0.00000000E+00  0.00000000E+00  0.00000000E+00
  0.00000000E+00  0.00000000E+00  0.00000000E+00
  0.00000000E+00  0.00000000E+00  0.00000000E+00
  0.00000000E+00  0.00000000E+00  0.00000000E+00
  0.00000000E+00  0.00000000E+00  0.00000000E+00
  0.00000000E+00  0.00000000E+00  0.00000000E+00
  0.00000000E+00  0.00000000E+00  0.00000000E+00
  0.00000000E+00  0.00000000E+00  0.00000000E+00
  0.00000000E+00  0.00000000E+00  0.00000000E+00
