       N       E                     dE             d eps       ncg     rms          rms(c)
DAV:   1     0.134972424878E+05    0.13497E+05   -0.25218E+05 15968   0.241E+03
DAV:   2     0.226204647240E+04   -0.11235E+05   -0.10540E+05 15960   0.798E+02
DAV:   3    -0.495710836242E+03   -0.27578E+04   -0.25217E+04 20568   0.410E+02
DAV:   4    -0.900592287671E+03   -0.40488E+03   -0.38198E+03 26832   0.217E+02
DAV:   5    -0.927051421106E+03   -0.26459E+02   -0.25708E+02 26584   0.690E+01    0.221E+02
DAV:   6    -0.699932335069E+03    0.22712E+03   -0.33015E+02 30048   0.975E+01    0.819E+01
DAV:   7    -0.693866705181E+03    0.60656E+01   -0.29358E+02 27256   0.469E+01    0.483E+01
DAV:   8    -0.692969473765E+03    0.89723E+00   -0.39397E+01 27168   0.197E+01    0.193E+01
DAV:   9    -0.692612670438E+03    0.35680E+00   -0.43355E+00 25944   0.787E+00    0.100E+01
DAV:  10    -0.692517083797E+03    0.95587E-01   -0.58055E-01 26392   0.331E+00    0.769E+00
DAV:  11    -0.692482263812E+03    0.34820E-01   -0.16718E-01 27256   0.168E+00    0.282E+00
DAV:  12    -0.692479798656E+03    0.24652E-02   -0.54471E-02 26736   0.849E-01    0.486E-01
DAV:  13    -0.692479182143E+03    0.61651E-03   -0.95340E-03 25712   0.386E-01    0.167E-01
DAV:  14    -0.692479196149E+03   -0.14006E-04   -0.12815E-03 26432   0.133E-01    0.132E-01
DAV:  15    -0.692479208283E+03   -0.12134E-04   -0.15520E-04 27616   0.470E-02    0.865E-02
DAV:  16    -0.692479197623E+03    0.10660E-04   -0.24387E-05 28960   0.243E-02    0.328E-02
DAV:  17    -0.692479190279E+03    0.73438E-05   -0.50553E-06 18800   0.116E-02    0.109E-02
DAV:  18    -0.692479190195E+03    0.83965E-07   -0.16508E-06 15008   0.672E-03
   1 F= 0.14183157E+03 E0= 0.14183083E+03  d E =0.141832E+03
