opt                                     
           1
    10.022780   -0.007605   -0.000960
    -0.007572   10.037091   -0.001571
    -0.000620   -0.001019    6.643740
   Mg   Na   Ca   Zr   H 
   9   9   9   9 216
Direct configuration=     1
   0.16664080  0.17396196  0.25030563
   0.50151517  0.49640463  0.24869283
   0.83449851  0.17390483  0.25326439
   0.66184860  0.32874329  0.50252048
   0.66364361  0.33528091  0.99653376
   0.00014215  0.33454016  0.50043501
   0.00110872  0.65859299  0.50033579
   0.66104632  0.99485179  0.99807231
   0.99653239  0.00364800  0.49852509
   0.16767544  0.16523068  0.74469651
   0.50218824  0.16564031  0.75183292
   0.33740473  0.33105025  0.00025375
   0.83448767  0.49617731  0.25374374
   0.50159159  0.83279369  0.74985021
   0.82980593  0.49526192  0.74807604
   0.67046027  0.67072201  0.99778806
   0.67455157  0.01008918  0.49960223
   0.99291868  0.66459757  0.99611384
   0.16181405  0.49299103  0.24629256
   0.33383635  0.33254345  0.50275266
   0.32982329  0.66532412  0.50029410
   0.16953354  0.84019806  0.74752728
   0.50641850  0.49689661  0.75438733
   0.83206287  0.17219497  0.75286468
   0.33357273  0.00324078  0.50528707
   0.33844174  0.00822706  0.99747052
   0.98860360  0.33401328  0.99998606
   0.50204522  0.17312099  0.25039414
   0.16092258  0.49463941  0.75024477
   0.16297487  0.83471234  0.25011085
   0.33577291  0.66206231  0.99652484
   0.50500666  0.83315705  0.25000562
   0.66885731  0.65576598  0.50059688
   0.83337135  0.82872132  0.25236108
   0.82978562  0.83486085  0.74875709
   0.00172927  0.00520330  0.00301442
   0.16938738  0.08485503  0.00042858
   0.15640479  0.08544454  0.49339455
   0.17417045  0.40904869  0.00058187
   0.51302670  0.08285238  0.98823560
   0.33007666  0.25174194  0.24380693
   0.16197240  0.41212194  0.49374131
   0.50862274  0.08029817  0.51119975
   0.32421029  0.25357953  0.75838717
   0.16096450  0.75112002  0.99288188
   0.50497049  0.41781423  0.01413340
   0.33625402  0.58122529  0.24931383
   0.15791964  0.74673499  0.50902979
   0.81535042  0.08233474  0.01075358
   0.67557012  0.25131290  0.22116775
   0.50475806  0.41850637  0.49329815
   0.33447450  0.58076484  0.74681359
   0.84015808  0.08427591  0.49315994
   0.66295113  0.24449728  0.77543770
   0.50653821  0.74788766  0.99284816
   0.33485664  0.92103595  0.24837350
   0.81784819  0.41252351  0.01895045
   0.67408922  0.58446467  0.23520874
   0.50160990  0.74921629  0.50877293
   0.35005799  0.91930956  0.75311072
   0.00321307  0.24870311  0.25384337
   0.83761968  0.41941219  0.49584423
   0.67944385  0.58563935  0.76253434
   0.01127598  0.25035194  0.73849739
   0.83335349  0.74547719  0.99463594
   0.67089067  0.92067124  0.25910755
   0.99351308  0.58175680  0.25359326
   0.83506260  0.74142345  0.50810505
   0.65690112  0.91618891  0.73322191
   0.98952282  0.58242680  0.74273451
   0.99482355  0.91825590  0.27627946
   0.00087413  0.91822915  0.72416063
   0.08938865  0.17853489  0.99725911
   0.08592308  0.18038251  0.49198976
   0.07856383  0.50145422  0.99839412
   0.41615833  0.17413387  0.98598220
   0.25126567  0.32707375  0.24191712
   0.08187027  0.49554408  0.50008154
   0.41583564  0.16826718  0.51776432
   0.25542263  0.31322829  0.76065889
   0.08052439  0.82480516  0.99383094
   0.41558322  0.49534934  0.00311701
   0.24994119  0.66378444  0.24619023
   0.08090281  0.82924789  0.49931852
   0.74605923  0.14680092  0.00604066
   0.58752996  0.33426788  0.26389518
   0.41370111  0.49998906  0.50469609
   0.25011097  0.67098624  0.75189375
   0.74839131  0.17674159  0.48537312
   0.58533607  0.33073902  0.73954779
   0.42085467  0.83852728  0.99203398
   0.24985312  0.00924573  0.25045264
   0.75680906  0.51474307  0.00251703
   0.58322195  0.65563043  0.23232618
   0.41977783  0.83343393  0.50436875
   0.25033225  0.01340294  0.75471498
   0.91388908  0.32890883  0.26671996
   0.75373787  0.48051300  0.49393960
   0.58242052  0.67132229  0.76313060
   0.91342620  0.34165261  0.72997233
   0.74853237  0.83800034  0.00462673
   0.58813724  0.00563353  0.25595391
   0.91899595  0.65698730  0.25345323
   0.74503027  0.83574492  0.49695673
   0.58590436  0.00479867  0.74850882
   0.91766254  0.65402365  0.74561217
   0.91665842  0.01759378  0.25375377
   0.91672376  0.00482136  0.75379786
   0.16821062  0.01734298  0.12926469
   0.15486785  0.00855142  0.61973432
   0.16880245  0.32891103  0.12004922
   0.50476807  0.00312992  0.12565182
   0.32296356  0.16982490  0.37710079
   0.16397199  0.32830666  0.62632651
   0.50833573  0.00369699  0.62314872
   0.34154857  0.17020004  0.87696356
   0.15377878  0.65704875  0.11805796
   0.50471808  0.34193711  0.12167097
   0.33769522  0.49874517  0.37257039
   0.16199080  0.67111107  0.62436841
   0.83463827  0.00339798  0.12972802
   0.67871700  0.17379226  0.37635709
   0.51004891  0.32319530  0.63239587
   0.33699536  0.48722112  0.87468636
   0.83744521  0.00615160  0.62294369
   0.66198381  0.18132809  0.87503971
   0.50988908  0.65929497  0.12567326
   0.33499737  0.83232545  0.37690131
   0.82000488  0.34414329  0.12383988
   0.66346789  0.48703643  0.37270291
   0.49674343  0.67095851  0.62557829
   0.33961691  0.83733677  0.87524636
   0.99933061  0.16538298  0.37833375
   0.81299860  0.33451617  0.62530685
   0.67388556  0.48666264  0.87688330
   0.00771603  0.16368850  0.87349218
   0.83453576  0.65789120  0.12638380
   0.67076999  0.84333583  0.38685535
   0.99648957  0.49266785  0.37195797
   0.83931409  0.66075537  0.62491881
   0.66239043  0.83616183  0.87218375
   0.97612156  0.50387058  0.88321814
   0.99745517  0.82323399  0.38902167
   0.00123839  0.83272620  0.87308786
   0.08511939  0.01246234  0.26288054
   0.08434160  0.00363157  0.74437233
   0.08091832  0.32417054  0.25336954
   0.41501076  0.00300808  0.25273870
   0.25058921  0.16955225  0.48712767
   0.07950911  0.31871195  0.74830912
   0.41959918  0.99427603  0.75004976
   0.25149610  0.17314097  0.00468040
   0.08232485  0.66520556  0.23522713
   0.41849342  0.33770433  0.24616561
   0.24928146  0.49601631  0.49438070
   0.08048049  0.67166829  0.76094966
   0.75019422  0.01239642  0.24461251
   0.58604525  0.16562890  0.51236720
   0.42024859  0.33012179  0.75897762
   0.24939659  0.48899512  0.00185763
   0.74880298  0.00815558  0.75945970
   0.58644255  0.15655411  0.99509441
   0.41803447  0.66165230  0.25292851
   0.25157217  0.83515484  0.49529586
   0.74963642  0.33450462  0.28174477
   0.58146057  0.48631893  0.49189124
   0.42022816  0.66705266  0.74438388
   0.25252824  0.83872666  0.00200475
   0.91461135  0.18382638  0.49514704
   0.75117055  0.33539848  0.72510945
   0.58453309  0.51383726  0.00686108
   0.91225827  0.16535873  0.01784911
   0.74820649  0.64607738  0.23427840
   0.58251329  0.84225406  0.50843198
   0.91537890  0.49037501  0.50873267
   0.74795809  0.64860824  0.76417988
   0.58330430  0.82994797  0.99116848
   0.91656061  0.50411434  0.98569173
   0.92037418  0.81493995  0.49774873
   0.91742871  0.83005336  0.00405700
   0.00849744  0.17146638  0.13000568
   0.00058506  0.15333743  0.62522212
   0.99249454  0.50381206  0.12553728
   0.32166599  0.17598484  0.12197830
   0.16229648  0.33277934  0.37520790
   0.99244627  0.49678827  0.62551823
   0.34344132  0.16587072  0.62564354
   0.16657158  0.32687926  0.87343221
   0.99713698  0.82697460  0.11711433
   0.33532084  0.48872710  0.12667740
   0.15929248  0.65862350  0.37496937
   0.00221468  0.85067557  0.62594422
   0.67548293  0.18610351  0.12574615
   0.50323533  0.34051849  0.37647102
   0.34324604  0.50128752  0.62184637
   0.15036738  0.66835090  0.86886227
   0.66200515  0.16996138  0.62336244
   0.50199139  0.32370584  0.87544955
   0.33256983  0.83538676  0.12115438
   0.15678319  0.01725983  0.37633752
   0.67359193  0.48392818  0.12645937
   0.49694984  0.65750713  0.37371477
   0.33935784  0.83389917  0.62790659
   0.17210808  0.01129174  0.87175597
   0.81941645  0.33384320  0.37514779
   0.67039985  0.48535790  0.62247459
   0.51297447  0.67087441  0.87176941
   0.81521636  0.34023964  0.87518903
   0.67071446  0.83328251  0.11968187
   0.51090293  0.00345838  0.37835922
   0.84056109  0.65779493  0.37713543
   0.65927346  0.85005296  0.62736334
   0.50616788  0.00144186  0.87137443
   0.83412392  0.66405532  0.86899711
   0.83430376  0.00765981  0.37445583
   0.82240371  0.00044970  0.87679171
   0.99288791  0.08633299  0.27108310
   0.00155739  0.08927576  0.72726898
   0.99053627  0.41807247  0.26746472
   0.33421494  0.08413550  0.25403817
   0.15255345  0.24666731  0.51003282
   0.98970333  0.41452583  0.73858985
   0.33107523  0.08988389  0.75100610
   0.16140592  0.24782658  0.99005455
   0.99963196  0.74413237  0.25067367
   0.33656584  0.41717264  0.23859052
   0.15736175  0.58402444  0.49046663
   0.00196388  0.74712711  0.73318374
   0.67537626  0.08000302  0.23584409
   0.50194396  0.25083532  0.50867869
   0.33521533  0.41478183  0.76321264
   0.15787296  0.58640627  0.00427173
   0.66233465  0.07597167  0.75566009
   0.50580545  0.25363433  0.98987794
   0.33787379  0.74917726  0.25045416
   0.15940378  0.92172098  0.49514050
   0.66899893  0.42332210  0.22374974
   0.49934258  0.58096314  0.48988499
   0.33505995  0.75176196  0.74830144
   0.17302364  0.91838730  0.00231664
   0.84968126  0.25052383  0.49913708
   0.66988783  0.42233922  0.77007200
   0.51890050  0.57882308  0.01083601
   0.82156491  0.24685959  0.01644695
   0.66710246  0.74673092  0.24803102
   0.51018139  0.91806826  0.51187226
   0.84237837  0.58012378  0.50230159
   0.66431273  0.75092280  0.74841203
   0.49963184  0.91468942  0.99001562
   0.81984327  0.57872833  0.00421630
   0.83747109  0.92106817  0.49419826
   0.82688153  0.92268729  0.00589865
