generated by phonopy                    
   1.00000000000000     
     0.0000000000000000    3.2198453581711837    3.2198453581712529
     3.2198453581712116    0.0000000000000000    3.2198453581712529
     3.2198453581712116    3.2198453581711837    0.0000000000000000
   Mg   Hf   Ca   Sc   H 
     1     1     1     1    24
Direct
  0.2500000000000000  0.2500000000000000  0.2500000000000000
  0.7500000000000000  0.7500000000000000  0.7500000000000000
  0.0000000000000000  0.0000000000000000  0.0000000000000000
  0.5000000000000000  0.5000000000000000  0.5000000000000000
  0.1375949742318952  0.8832837352443690  0.6165027480976590
  0.8832837352443690  0.1375949742318952  0.3626185424260626
  0.6165027480976590  0.3626185424260626  0.1375949742318952
  0.3626185424260626  0.6165027480976590  0.8832837352443690
  0.6165027480976590  0.1375949742318952  0.8832837352443690
  0.3626185424260626  0.8832837352443690  0.1375949742318952
  0.1375949742318952  0.6165027480976590  0.3626185424260626
  0.8832837352443690  0.3626185424260626  0.6165027480976590
  0.8832837352443690  0.6165027480976590  0.1375949742318952
  0.1375949742318952  0.3626185424260626  0.8832837352443690
  0.3626185424260626  0.1375949742318952  0.6165027480976590
  0.6165027480976590  0.8832837352443690  0.3626185424260626
  0.1375949742318952  0.3626185424260626  0.6165027480976590
  0.3626185424260626  0.1375949742318952  0.8832837352443690
  0.6165027480976590  0.8832837352443690  0.1375949742318952
  0.8832837352443690  0.6165027480976590  0.3626185424260626
  0.6165027480976590  0.1375949742318952  0.3626185424260626
  0.8832837352443690  0.3626185424260626  0.1375949742318952
  0.1375949742318952  0.6165027480976590  0.8832837352443690
  0.3626185424260626  0.8832837352443690  0.6165027480976590
  0.3626185424260626  0.6165027480976590  0.1375949742318952
  0.1375949742318952  0.8832837352443690  0.3626185424260626
  0.8832837352443690  0.1375949742318952  0.6165027480976590
  0.6165027480976590  0.3626185424260626  0.8832837352443690
 
  0.00000000E+00  0.00000000E+00  0.00000000E+00
  0.00000000E+00  0.00000000E+00  0.00000000E+00
  0.00000000E+00  0.00000000E+00  0.00000000E+00
  0.00000000E+00  0.00000000E+00  0.00000000E+00
  0.00000000E+00  0.00000000E+00  0.00000000E+00
  0.00000000E+00  0.00000000E+00  0.00000000E+00
  0.00000000E+00  0.00000000E+00  0.00000000E+00
  0.00000000E+00  0.00000000E+00  0.00000000E+00
  0.00000000E+00  0.00000000E+00  0.00000000E+00
  0.00000000E+00  0.00000000E+00  0.00000000E+00
  0.00000000E+00  0.00000000E+00  0.00000000E+00
  0.00000000E+00  0.00000000E+00  0.00000000E+00
  0.00000000E+00  0.00000000E+00  0.00000000E+00
  0.00000000E+00  0.00000000E+00  0.00000000E+00
  0.00000000E+00  0.00000000E+00  0.00000000E+00
  0.00000000E+00  0.00000000E+00  0.00000000E+00
  0.00000000E+00  0.00000000E+00  0.00000000E+00
  0.00000000E+00  0.00000000E+00  0.00000000E+00
  0.00000000E+00  0.00000000E+00  0.00000000E+00
  0.00000000E+00  0.00000000E+00  0.00000000E+00
  0.00000000E+00  0.00000000E+00  0.00000000E+00
  0.00000000E+00  0.00000000E+00  0.00000000E+00
  0.00000000E+00  0.00000000E+00  0.00000000E+00
  0.00000000E+00  0.00000000E+00  0.00000000E+00
  0.00000000E+00  0.00000000E+00  0.00000000E+00
  0.00000000E+00  0.00000000E+00  0.00000000E+00
  0.00000000E+00  0.00000000E+00  0.00000000E+00
  0.00000000E+00  0.00000000E+00  0.00000000E+00
