generated by phonopy                    
   1.00000000000000     
     0.0000000000000000    3.2526956965045852    3.2526956965047362
     3.2526956965046434    0.0000000000000000    3.2526956965047362
     3.2526956965046434    3.2526956965045852    0.0000000000000000
   Na   Ca   Sc   Ce   H 
     1     1     1     1    24
Direct
  0.2500000000000000  0.2500000000000000  0.2500000000000000
  0.7500000000000000  0.7500000000000000  0.7500000000000000
  0.0000000000000000  0.0000000000000000  0.0000000000000000
  0.5000000000000000  0.5000000000000000  0.5000000000000000
  0.1245220595063117  0.8903433264702372  0.6242625302650282
  0.8903433264702372  0.1245220595063117  0.3608720837584301
  0.6242625302650282  0.3608720837584301  0.1245220595063117
  0.3608720837584301  0.6242625302650282  0.8903433264702372
  0.6242625302650282  0.1245220595063117  0.8903433264702372
  0.3608720837584301  0.8903433264702372  0.1245220595063117
  0.1245220595063117  0.6242625302650282  0.3608720837584301
  0.8903433264702372  0.3608720837584301  0.6242625302650282
  0.8903433264702372  0.6242625302650282  0.1245220595063117
  0.1245220595063117  0.3608720837584301  0.8903433264702372
  0.3608720837584301  0.1245220595063117  0.6242625302650282
  0.6242625302650282  0.8903433264702372  0.3608720837584301
  0.1245220595063117  0.3608720837584301  0.6242625302650282
  0.3608720837584301  0.1245220595063117  0.8903433264702372
  0.6242625302650282  0.8903433264702372  0.1245220595063117
  0.8903433264702372  0.6242625302650282  0.3608720837584301
  0.6242625302650282  0.1245220595063117  0.3608720837584301
  0.8903433264702372  0.3608720837584301  0.1245220595063117
  0.1245220595063117  0.6242625302650282  0.8903433264702372
  0.3608720837584301  0.8903433264702372  0.6242625302650282
  0.3608720837584301  0.6242625302650282  0.1245220595063117
  0.1245220595063117  0.8903433264702372  0.3608720837584301
  0.8903433264702372  0.1245220595063117  0.6242625302650282
  0.6242625302650282  0.3608720837584301  0.8903433264702372
 
  0.00000000E+00  0.00000000E+00  0.00000000E+00
  0.00000000E+00  0.00000000E+00  0.00000000E+00
  0.00000000E+00  0.00000000E+00  0.00000000E+00
  0.00000000E+00  0.00000000E+00  0.00000000E+00
  0.00000000E+00  0.00000000E+00  0.00000000E+00
  0.00000000E+00  0.00000000E+00  0.00000000E+00
  0.00000000E+00  0.00000000E+00  0.00000000E+00
  0.00000000E+00  0.00000000E+00  0.00000000E+00
  0.00000000E+00  0.00000000E+00  0.00000000E+00
  0.00000000E+00  0.00000000E+00  0.00000000E+00
  0.00000000E+00  0.00000000E+00  0.00000000E+00
  0.00000000E+00  0.00000000E+00  0.00000000E+00
  0.00000000E+00  0.00000000E+00  0.00000000E+00
  0.00000000E+00  0.00000000E+00  0.00000000E+00
  0.00000000E+00  0.00000000E+00  0.00000000E+00
  0.00000000E+00  0.00000000E+00  0.00000000E+00
  0.00000000E+00  0.00000000E+00  0.00000000E+00
  0.00000000E+00  0.00000000E+00  0.00000000E+00
  0.00000000E+00  0.00000000E+00  0.00000000E+00
  0.00000000E+00  0.00000000E+00  0.00000000E+00
  0.00000000E+00  0.00000000E+00  0.00000000E+00
  0.00000000E+00  0.00000000E+00  0.00000000E+00
  0.00000000E+00  0.00000000E+00  0.00000000E+00
  0.00000000E+00  0.00000000E+00  0.00000000E+00
  0.00000000E+00  0.00000000E+00  0.00000000E+00
  0.00000000E+00  0.00000000E+00  0.00000000E+00
  0.00000000E+00  0.00000000E+00  0.00000000E+00
  0.00000000E+00  0.00000000E+00  0.00000000E+00
