generated by phonopy                    
   1.00000000000000     
     0.0000000000000000    3.2930844866183238    3.2930844866183757
     3.2930844866183455    0.0000000000000000    3.2930844866183757
     3.2930844866183455    3.2930844866183238    0.0000000000000000
   K    Hf   Ca   Zr   H 
     1     1     1     1    24
Direct
  0.2500000000000000  0.2500000000000000  0.2500000000000000
  0.7500000000000000  0.7500000000000000  0.7500000000000000
  0.0000000000000000  0.0000000000000000  0.0000000000000000
  0.5000000000000000  0.5000000000000000  0.5000000000000000
  0.1249432044283836  0.8840177076776072  0.6249015669609648
  0.8840177076776072  0.1249432044283836  0.3661375209330444
  0.6249015669609648  0.3661375209330444  0.1249432044283836
  0.3661375209330444  0.6249015669609648  0.8840177076776072
  0.6249015669609648  0.1249432044283836  0.8840177076776072
  0.3661375209330444  0.8840177076776072  0.1249432044283836
  0.1249432044283836  0.6249015669609648  0.3661375209330444
  0.8840177076776072  0.3661375209330444  0.6249015669609648
  0.8840177076776072  0.6249015669609648  0.1249432044283836
  0.1249432044283836  0.3661375209330444  0.8840177076776072
  0.3661375209330444  0.1249432044283836  0.6249015669609648
  0.6249015669609648  0.8840177076776072  0.3661375209330444
  0.1249432044283836  0.3661375209330444  0.6249015669609648
  0.3661375209330444  0.1249432044283836  0.8840177076776072
  0.6249015669609648  0.8840177076776072  0.1249432044283836
  0.8840177076776072  0.6249015669609648  0.3661375209330444
  0.6249015669609648  0.1249432044283836  0.3661375209330444
  0.8840177076776072  0.3661375209330444  0.1249432044283836
  0.1249432044283836  0.6249015669609648  0.8840177076776072
  0.3661375209330444  0.8840177076776072  0.6249015669609648
  0.3661375209330444  0.6249015669609648  0.1249432044283836
  0.1249432044283836  0.8840177076776072  0.3661375209330444
  0.8840177076776072  0.1249432044283836  0.6249015669609648
  0.6249015669609648  0.3661375209330444  0.8840177076776072
 
  0.00000000E+00  0.00000000E+00  0.00000000E+00
  0.00000000E+00  0.00000000E+00  0.00000000E+00
  0.00000000E+00  0.00000000E+00  0.00000000E+00
  0.00000000E+00  0.00000000E+00  0.00000000E+00
  0.00000000E+00  0.00000000E+00  0.00000000E+00
  0.00000000E+00  0.00000000E+00  0.00000000E+00
  0.00000000E+00  0.00000000E+00  0.00000000E+00
  0.00000000E+00  0.00000000E+00  0.00000000E+00
  0.00000000E+00  0.00000000E+00  0.00000000E+00
  0.00000000E+00  0.00000000E+00  0.00000000E+00
  0.00000000E+00  0.00000000E+00  0.00000000E+00
  0.00000000E+00  0.00000000E+00  0.00000000E+00
  0.00000000E+00  0.00000000E+00  0.00000000E+00
  0.00000000E+00  0.00000000E+00  0.00000000E+00
  0.00000000E+00  0.00000000E+00  0.00000000E+00
  0.00000000E+00  0.00000000E+00  0.00000000E+00
  0.00000000E+00  0.00000000E+00  0.00000000E+00
  0.00000000E+00  0.00000000E+00  0.00000000E+00
  0.00000000E+00  0.00000000E+00  0.00000000E+00
  0.00000000E+00  0.00000000E+00  0.00000000E+00
  0.00000000E+00  0.00000000E+00  0.00000000E+00
  0.00000000E+00  0.00000000E+00  0.00000000E+00
  0.00000000E+00  0.00000000E+00  0.00000000E+00
  0.00000000E+00  0.00000000E+00  0.00000000E+00
  0.00000000E+00  0.00000000E+00  0.00000000E+00
  0.00000000E+00  0.00000000E+00  0.00000000E+00
  0.00000000E+00  0.00000000E+00  0.00000000E+00
  0.00000000E+00  0.00000000E+00  0.00000000E+00
