generated by phonopy                    
   1.00000000000000     
     0.0000000000000000    3.2949240995269857    3.2949240995271909
     3.2949240995270741    0.0000000000000000    3.2949240995271909
     3.2949240995270741    3.2949240995269857    0.0000000000000000
   Ca   Zr   Sr   Sc   H 
     1     1     1     1    24
Direct
  0.2500000000000000  0.2500000000000000  0.2500000000000000
  0.7500000000000000  0.7500000000000000  0.7500000000000000
  0.0000000000000000  0.0000000000000000  0.0000000000000000
  0.5000000000000000  0.5000000000000000  0.5000000000000000
  0.1379233484909435  0.8711799013622965  0.6149877075243211
  0.8711799013622965  0.1379233484909435  0.3759090426224319
  0.6149877075243211  0.3759090426224319  0.1379233484909435
  0.3759090426224319  0.6149877075243211  0.8711799013622965
  0.6149877075243211  0.1379233484909435  0.8711799013622965
  0.3759090426224319  0.8711799013622965  0.1379233484909435
  0.1379233484909435  0.6149877075243211  0.3759090426224319
  0.8711799013622965  0.3759090426224319  0.6149877075243211
  0.8711799013622965  0.6149877075243211  0.1379233484909435
  0.1379233484909435  0.3759090426224319  0.8711799013622965
  0.3759090426224319  0.1379233484909435  0.6149877075243211
  0.6149877075243211  0.8711799013622965  0.3759090426224319
  0.1379233484909435  0.3759090426224319  0.6149877075243211
  0.3759090426224319  0.1379233484909435  0.8711799013622965
  0.6149877075243211  0.8711799013622965  0.1379233484909435
  0.8711799013622965  0.6149877075243211  0.3759090426224319
  0.6149877075243211  0.1379233484909435  0.3759090426224319
  0.8711799013622965  0.3759090426224319  0.1379233484909435
  0.1379233484909435  0.6149877075243211  0.8711799013622965
  0.3759090426224319  0.8711799013622965  0.6149877075243211
  0.3759090426224319  0.6149877075243211  0.1379233484909435
  0.1379233484909435  0.8711799013622965  0.3759090426224319
  0.8711799013622965  0.1379233484909435  0.6149877075243211
  0.6149877075243211  0.3759090426224319  0.8711799013622965
 
  0.00000000E+00  0.00000000E+00  0.00000000E+00
  0.00000000E+00  0.00000000E+00  0.00000000E+00
  0.00000000E+00  0.00000000E+00  0.00000000E+00
  0.00000000E+00  0.00000000E+00  0.00000000E+00
  0.00000000E+00  0.00000000E+00  0.00000000E+00
  0.00000000E+00  0.00000000E+00  0.00000000E+00
  0.00000000E+00  0.00000000E+00  0.00000000E+00
  0.00000000E+00  0.00000000E+00  0.00000000E+00
  0.00000000E+00  0.00000000E+00  0.00000000E+00
  0.00000000E+00  0.00000000E+00  0.00000000E+00
  0.00000000E+00  0.00000000E+00  0.00000000E+00
  0.00000000E+00  0.00000000E+00  0.00000000E+00
  0.00000000E+00  0.00000000E+00  0.00000000E+00
  0.00000000E+00  0.00000000E+00  0.00000000E+00
  0.00000000E+00  0.00000000E+00  0.00000000E+00
  0.00000000E+00  0.00000000E+00  0.00000000E+00
  0.00000000E+00  0.00000000E+00  0.00000000E+00
  0.00000000E+00  0.00000000E+00  0.00000000E+00
  0.00000000E+00  0.00000000E+00  0.00000000E+00
  0.00000000E+00  0.00000000E+00  0.00000000E+00
  0.00000000E+00  0.00000000E+00  0.00000000E+00
  0.00000000E+00  0.00000000E+00  0.00000000E+00
  0.00000000E+00  0.00000000E+00  0.00000000E+00
  0.00000000E+00  0.00000000E+00  0.00000000E+00
  0.00000000E+00  0.00000000E+00  0.00000000E+00
  0.00000000E+00  0.00000000E+00  0.00000000E+00
  0.00000000E+00  0.00000000E+00  0.00000000E+00
  0.00000000E+00  0.00000000E+00  0.00000000E+00
