POSCAR                                  
   1.00000000000000     
    10.3097872763884855   -0.0324544398245296   -0.0277942746154245
    -0.0322973432467959   10.3102315808371543   -0.0871076952863571
    -0.0184216205830534   -0.0580351709073129    6.8740782202928532
   Y    Zr   K    Sc   H 
     9     9     9     9   216
Direct
  0.1696050317339655  0.1691810720056139  0.2528801331957382
  0.1681688944668807  0.8323651677658148  0.7539496213041588
  0.8324255449690696  0.1752845084182653  0.2438828339352241
  0.6616190261742503  0.3299176272831374  0.4946894401794353
  0.4984276950080258  0.8268566225037617  0.7568420483201308
  0.9956903938503245  0.3373061174592991  0.9987532917951967
  0.8355665335793390  0.8288518339695372  0.7615241757164171
  0.9980368344849566  0.6615694892422042  0.0097788069425562
  0.0045379510462524  0.0014826630546949  0.9934156011652817
  0.1630098047082953  0.1629926948245100  0.7421003533356938
  0.1706683423131423  0.4986140253347386  0.7565498389966976
  0.5028087682954876  0.1646237102106340  0.7480029544580518
  0.3374362417909538  0.3289924472538743  0.9978402558905302
  0.3302617726026611  0.6574766796616558  0.4984068823490304
  0.8266680696232953  0.1623468851563175  0.7433636350247781
  0.3318007661362330  0.9985704458992331  0.5010041819138138
  0.6678724015690278  0.6599060561138330  0.5056635281839803
  0.9964689124976971  0.3357793091020937  0.5018042275296892
  0.1729138532792263  0.5017283298715185  0.2542217924050689
  0.4990680809418322  0.1745484494033818  0.2560253232887106
  0.3310818617034954  0.3332743344323745  0.4900364678182356
  0.5144115334656263  0.8376475201056266  0.2568547102172545
  0.8339663776090873  0.5099054519890203  0.2468662034712423
  0.6594987255042781  0.6731915624006746  0.0144234153009535
  0.8437164533038271  0.8499911054504494  0.2701926109452515
  0.6553379638701884  0.9857222777891721  0.4734978750391079
  0.9892470699064049  0.9843284161796504  0.4843650742662930
  0.1747849901904885  0.8294167619150059  0.2463482407112494
  0.5008672147706434  0.5024939238772674  0.2440013630505504
  0.4996861872969731  0.5009371476707685  0.7581743960413760
  0.3365933301816213  0.6716999212466064  0.0035297719410323
  0.6667267249378241  0.3415035978405996  0.9961030790983401
  0.3345351285035747  0.0004512218188637  0.9992185363822017
  0.8256297698213899  0.5037056331558603  0.7497723473337103
  0.0067281118531426  0.6655620049352251  0.5058554439240268
  0.6653193104834187  0.0011568248367482  0.9936778150465599
  0.1761600520950068  0.0824257486653082  0.0028104398076678
  0.1565951452075325  0.0724725583544412  0.4946753777679618
  0.1735123060368622  0.4168701601750229  0.0018080145382626
  0.5000978482444509  0.0869798210041708  0.0022275999547574
  0.3360284584120805  0.2526519582726081  0.2365855501347980
  0.1606074210805986  0.4171735759624440  0.5060114445212704
  0.4993182694249825  0.0810888257099691  0.4938730993076845
  0.3333655308733015  0.2489677968104900  0.7433987371939210
  0.1734762602970008  0.7502745115161957  0.0086959642323094
  0.4992188458292190  0.4187592189320100  0.9953860651457092
  0.3411366965877889  0.5827799981798805  0.2319200311696079
  0.1756507806719867  0.7505758490830843  0.4961817909890556
  0.8230616255360843  0.0859500483159010  0.9969759449083284
  0.6628728863104811  0.2578742107896304  0.2264241544896421
  0.4991157914553881  0.4157717940450709  0.5153740099643755
  0.3376709872341195  0.5789258712631877  0.7709180058962630
  0.8261787598772727  0.0796877255235700  0.4881576440266642
  0.6650970202127837  0.2542477260857368  0.7568893192086321
  0.4900624515371490  0.7509570464095248  0.0105181556821208
  0.3388157102730887  0.9180495030382332  0.2410476972709432
  0.8259236286108447  0.4211600418837591  0.9885076421785470
  0.6612944915217156  0.5773648647780618  0.2506481192276127
  0.4830129595163797  0.7469968422909830  0.4941390315044814
  0.3354251345148924  0.9184586002870105  0.7558392601463382
  0.0029590625459832  0.2535650245153604  0.2515291382756999
  0.8304247346086342  0.4203193602790520  0.5045634460121633
  0.6652541875719180  0.5816260684560604  0.7619112545651348
  0.9952242768614923  0.2502184507989611  0.7447404959309267
  0.8276990466211558  0.7600545673261152  0.0177567170482078
  0.6837578213534172  0.9246762318352992  0.2118119901097728
  0.0061853373295619  0.5818491142571105  0.2711196890178087
  0.8516913459114761  0.7472776459859531  0.4949080091538107
  0.6688891097249652  0.9109061741326840  0.7284467132062389
  0.9941505788983136  0.5792622880964515  0.7419272164539024
  0.0229481709152850  0.9119942486677388  0.2341824908143550
  0.0020899670549781  0.9158285838999234  0.7413311376392571
  0.0851691438469260  0.1704529157708237  0.9938782304591953
  0.0763578002246277  0.1535471785348008  0.4995123296670982
  0.0882675788939338  0.5008309449265766  0.0009600020557130
  0.4214732622011894  0.1618883597270653  0.9969444608090541
  0.2535670590570902  0.3385627846524741  0.2339635870877430
  0.0809355202200237  0.5050745084645740  0.5054330478684221
  0.4126648906637627  0.1644105882955813  0.5090578393098681
  0.2513770851089916  0.3309267091828758  0.7464310950371953
  0.0902876969348227  0.8266165931004679  0.0105855768838481
  0.4184228922200717  0.4906920509275849  0.9929773834449662
  0.2532534477732185  0.6710625949150923  0.2514075866945902
  0.0835664458555527  0.8261302057481359  0.5006272866886974
  0.7423125017434486  0.1720185688563163  0.9896670776162750
  0.5845023821618796  0.3420837510846297  0.2310764942514396
  0.4164448768753886  0.5016193258770585  0.5153152096023845
  0.2517570869775483  0.6643101050175275  0.7554260529042551
  0.7423223938425352  0.1570054504614546  0.5021690893716126
  0.5831401622510270  0.3386400341059783  0.7561809471404999
  0.4197311870429417  0.8494289533250452  0.0140813446338584
  0.2532936814329787  0.9943718354677884  0.2430504544295857
  0.7452607270353582  0.5021976883061114  0.9954545810496356
  0.5758740594399612  0.6608398313617911  0.2679758075820047
  0.4207264324335043  0.8207759243286503  0.4920683590983970
  0.2533326791240498  0.0005511002239658  0.7481681412636902
  0.9149028649803697  0.3437332722821154  0.2576830206507239
  0.7505574616769479  0.4970761633253886  0.5014194552170679
  0.5802465139336448  0.6565883099640217  0.7519204608463284
  0.9099105043253246  0.3406309562183054  0.7444224438152887
  0.7582011007981464  0.8283378339613918  0.0190060502410105
  0.5800035489130480  0.0114576867362857  0.2137037263882462
  0.9244650377720589  0.6811094487137623  0.2678127447533711
  0.7506192087032417  0.8220502622742671  0.5086500312734117
  0.5830225993423923  0.0000021326571087  0.7464068972233662
  0.9178707240093473  0.6577184733178569  0.7463766871850837
  0.9184008056985320  0.0146512426507996  0.2295102248498679
  0.9127324380734905  0.0039605993007612  0.7414854986316541
  0.1760613838437024  0.0002824005732904  0.1223162436871021
  0.1619876613656501  0.9992069792161971  0.6159162546202595
  0.1652512547973402  0.3357754515566427  0.1290480696312670
  0.5070754086944760  0.0052918478269319  0.1277400912445330
  0.3351861976516730  0.1565328369533390  0.3787298964398573
  0.1658017922302690  0.3310474280251370  0.6264648635623900
  0.4956328754902088  0.9956979221471798  0.6275613966274918
  0.3319086971155940  0.1612004523547697  0.8725005946269491
  0.1744992569664774  0.6685901583335649  0.1289941037487026
  0.5065490570469962  0.3410726637213415  0.1199626570283030
  0.3467125916045433  0.4977887262079221  0.3652822122167478
  0.1666640398389703  0.6641785087310126  0.6308695374298594
  0.8326589891795351  0.0068587002314473  0.1154872287355388
  0.6691202972892043  0.1563862149313593  0.3636751836835757
  0.4955853388071887  0.3443332921665458  0.6248557542076441
  0.3406210606884628  0.5061956419059186  0.8829559772157936
  0.8228562127191097  0.9877382227868665  0.6115996585449537
  0.6665978785836728  0.1631014763428738  0.8756935637133552
  0.4902551852799633  0.6634299373539250  0.1306832391127060
  0.3361299810173790  0.8339961857783607  0.3707844594544554
  0.8243664493466909  0.3431488972206225  0.1198617995428251
  0.6621077920497385  0.4977227609488395  0.3719043402138738
  0.4944577653169517  0.6551919131591504  0.6262000606346518
  0.3327178048826482  0.8352210314225843  0.8828500652727698
  0.0028585592106865  0.1593165617518650  0.3777008109652371
  0.8303107369112510  0.3400893636670546  0.6301920627516324
  0.6601007174445925  0.5039641817707405  0.8770723702586949
  0.9950354683414915  0.1700075383727722  0.8678424491195784
  0.8260307708941710  0.6794633027741597  0.1436433716284853
  0.6808019675027595  0.8086872563507512  0.3788934549883365
  0.0031225126997896  0.5076169631596485  0.3796535743650082
  0.8336041060258452  0.6644173156139104  0.6273793902716420
  0.6694931266471329  0.8376210554616321  0.8811173664405842
  0.9972655784593556  0.4992263131297889  0.8646029292370656
  0.0242455274173210  0.8164322031416376  0.3689083730482992
  0.0044760290975319  0.8271900666297327  0.8844013746641508
  0.0901382234663117  0.9914463384410865  0.2481270427641959
  0.0786544174525119  0.9983538229047753  0.7322772753422839
  0.0886829546220440  0.3375812463006937  0.2448750458362667
  0.4154344816053026  0.9980954630294434  0.2385329651949490
  0.2464740725828278  0.1661970743997685  0.5089817426882277
  0.0800346559868501  0.3369729800549095  0.7504429540620592
  0.4161059630176638  0.0004825990889188  0.7625283815967592
  0.2528554957017022  0.1626194919128707  0.9934113781860603
  0.0930245708629229  0.6727887948802760  0.2541796224643207
  0.4227489085318084  0.3437744321346727  0.2441722936487167
  0.2471880629771519  0.4976192260214773  0.5129645944687908
  0.0820311718833864  0.6608130435707906  0.7506909319394452
  0.7474469195285991  0.0049189933384213  0.2337273445582895
  0.5779864246353270  0.1520799202399985  0.5073552119996094
  0.4168289203471076  0.3340692995272079  0.7477479294011076
  0.2564128259847394  0.5015524703902301  0.0028454747707443
  0.7420472334590542  0.0019660123601568  0.7408251418410643
  0.5812816331651618  0.1713413601167773  0.0017611116301737
  0.4165672551879496  0.6721388480895030  0.2580910587259027
  0.2484502757499527  0.8231041054320301  0.4938007412828398
  0.7506314681248085  0.3468181964239818  0.2438797522304768
  0.5787518919423462  0.4995656948923681  0.5083599561106169
  0.4152024949645607  0.6560925152101262  0.7489306394763346
  0.2542937819723647  0.8372929237297555  0.0080589887870417
  0.9173703573965710  0.1607920933520290  0.5050642954251146
  0.7468303972557777  0.3368008077733009  0.7491701449388444
  0.5833280889493793  0.4993588383574590  0.9955293163747285
  0.9158358693190678  0.1668975620751922  0.9864338996590050
  0.7650669358728450  0.6804110152539096  0.2420192272328237
  0.5835287717720163  0.8150595403279937  0.5137585156408875
  0.9109601742443090  0.5124826824526707  0.5051547696098950
  0.7466398115535853  0.6609072974687749  0.7637022947675618
  0.5850677526334707  0.8476948304622667  0.0003097559535377
  0.9077939264351897  0.4997356301296279  0.9862794896114480
  0.9181379248563175  0.8099509652101773  0.5143836384322000
  0.9217867969890818  0.8315564434852547  0.0204693853003235
  0.0014882562587317  0.1700102295915258  0.1237851159564798
  0.9931665686936952  0.1594288713241596  0.6144035970901385
  0.0048053599061149  0.4970774263260509  0.1369317225519424
  0.3363720686475489  0.1545882841497956  0.1275751124988318
  0.1571349370438355  0.3369968970342399  0.3794400738235453
  0.9945565628159017  0.4989816511425786  0.6259969123354310
  0.3305788552835267  0.1663940670305593  0.6265965933785722
  0.1652059452501362  0.3281842223315792  0.8726316575411062
  0.0050047895542136  0.8338169543749601  0.1327343494710505
  0.3395960215283438  0.5159683089585130  0.1249847747603425
  0.1609240158389156  0.6705751007548173  0.3751455714956151
  0.0073362775526249  0.8242868731422064  0.6231848309441617
  0.6639277922409903  0.1655508909327423  0.1154893450193057
  0.4955685373778067  0.3503240420761458  0.3670228892878313
  0.3449045061722416  0.4954640878467274  0.6281681889806521
  0.1746178302333803  0.6646469889726276  0.8813111696565699
  0.6684778762526236  0.1569155279639673  0.6149191097935685
  0.5064907867458288  0.3396401863161813  0.8771208074192813
  0.3407805532282850  0.8268428293919925  0.1408288246278246
  0.1657193154872019  0.9965455158051029  0.3716331459725950
  0.6627112570299261  0.5029196490541707  0.1267653766292440
  0.5014800242252520  0.6627295836491811  0.3736063767288016
  0.3324888461616169  0.8310764870624894  0.6210018985321000
  0.1749300944729626  0.0027227905672831  0.8724525204969993
  0.8322655374914305  0.3438744488096219  0.3694767524441147
  0.6587767425534423  0.4979149533264433  0.6257246366548657
  0.4939935479678326  0.6581198892942126  0.8813141137159377
  0.8259003051133647  0.3379445468524764  0.8716256981078629
  0.6796591444070401  0.8520176911598440  0.1230445594694558
  0.4830333476285631  0.0102777905025562  0.3733962010988066
  0.8317271487401996  0.6757275740720203  0.3886881042416448
  0.6671020011457784  0.8374029682528530  0.6348277564518554
  0.4969398651637889  0.9991624515341542  0.8769595251406130
  0.8278582956548703  0.6599188546411199  0.8784616533814784
  0.8186798708282907  0.0206520590572694  0.3667192452271664
  0.8241739947045730  0.0021765235318654  0.8737101766912687
  0.0007635938259725  0.0842064298396465  0.2527039970487763
  0.9962347497695276  0.0811173233868985  0.7309882604740494
  0.0016400654881608  0.4224657418704183  0.2532707459744685
  0.3368196827599945  0.0851737161773372  0.2253729561815945
  0.1625341128067390  0.2516781035923401  0.5086445473560488
  0.9920293999432701  0.4199374140994223  0.7474012165075834
  0.3372191942274014  0.0847824754854329  0.7642565107756099
  0.1694129143099445  0.2517539607798582  0.9924072737469487
  0.9939232374394820  0.7473090677408649  0.2686443368378377
  0.3416848515427020  0.4214527324986221  0.2418034860045424
  0.1570254564948144  0.5819528538220737  0.5022950119103342
  0.0013372840607033  0.7402983107504824  0.7490488153800570
  0.6630246236696209  0.0935241320166256  0.2330760780013108
  0.4938452966263824  0.2508816812670958  0.5171173102932798
  0.3382880697390718  0.4153963271278514  0.7475979630462035
  0.1763617903281798  0.5833422260679555  0.0054536918675083
  0.6631988921708754  0.0712694294413367  0.7408115526641978
  0.5123546167391027  0.2492243226920579  0.9988009991278659
  0.3446247127709796  0.7579051483123891  0.2410639170149054
  0.1669697510985486  0.9103488130554567  0.4903339827121087
  0.6660538187072049  0.4195644010479924  0.2472882101325808
  0.4953447421337529  0.5785385819997160  0.4934252355689352
  0.3318181031383460  0.7445449292277644  0.7599301660249509
  0.1771560576393014  0.9153355653999071  0.0136997431877290
  0.8302892813862144  0.2527857119691532  0.5055079197687178
  0.6648412164722188  0.4171227650799807  0.7520073706408894
  0.4923908392634928  0.5845489377589672  0.0053746482388277
  0.8224661072975863  0.2535497296931339  0.9876715085278533
  0.6818542527307230  0.7490223986301530  0.2753293036752211
  0.4858346924603438  0.9105680213936012  0.5116965234619215
  0.8438926300973648  0.5777998477684037  0.5086036354522889
  0.6686970276864272  0.7467695692006728  0.7567417092058264
  0.4893639321230125  0.9178342094518612  0.0084626879353138
  0.8253050238304098  0.5828221850566777  0.9890675138428051
  0.8175931687156677  0.9143435009438363  0.5290269836502972
  0.8285267727986607  0.9258196080921408  0.0075418092192407
 
  0.00000000E+00  0.00000000E+00  0.00000000E+00
  0.00000000E+00  0.00000000E+00  0.00000000E+00
  0.00000000E+00  0.00000000E+00  0.00000000E+00
  0.00000000E+00  0.00000000E+00  0.00000000E+00
  0.00000000E+00  0.00000000E+00  0.00000000E+00
  0.00000000E+00  0.00000000E+00  0.00000000E+00
  0.00000000E+00  0.00000000E+00  0.00000000E+00
  0.00000000E+00  0.00000000E+00  0.00000000E+00
  0.00000000E+00  0.00000000E+00  0.00000000E+00
  0.00000000E+00  0.00000000E+00  0.00000000E+00
  0.00000000E+00  0.00000000E+00  0.00000000E+00
  0.00000000E+00  0.00000000E+00  0.00000000E+00
  0.00000000E+00  0.00000000E+00  0.00000000E+00
  0.00000000E+00  0.00000000E+00  0.00000000E+00
  0.00000000E+00  0.00000000E+00  0.00000000E+00
  0.00000000E+00  0.00000000E+00  0.00000000E+00
  0.00000000E+00  0.00000000E+00  0.00000000E+00
  0.00000000E+00  0.00000000E+00  0.00000000E+00
  0.00000000E+00  0.00000000E+00  0.00000000E+00
  0.00000000E+00  0.00000000E+00  0.00000000E+00
  0.00000000E+00  0.00000000E+00  0.00000000E+00
  0.00000000E+00  0.00000000E+00  0.00000000E+00
  0.00000000E+00  0.00000000E+00  0.00000000E+00
  0.00000000E+00  0.00000000E+00  0.00000000E+00
  0.00000000E+00  0.00000000E+00  0.00000000E+00
  0.00000000E+00  0.00000000E+00  0.00000000E+00
  0.00000000E+00  0.00000000E+00  0.00000000E+00
  0.00000000E+00  0.00000000E+00  0.00000000E+00
  0.00000000E+00  0.00000000E+00  0.00000000E+00
  0.00000000E+00  0.00000000E+00  0.00000000E+00
  0.00000000E+00  0.00000000E+00  0.00000000E+00
  0.00000000E+00  0.00000000E+00  0.00000000E+00
  0.00000000E+00  0.00000000E+00  0.00000000E+00
  0.00000000E+00  0.00000000E+00  0.00000000E+00
  0.00000000E+00  0.00000000E+00  0.00000000E+00
  0.00000000E+00  0.00000000E+00  0.00000000E+00
  0.00000000E+00  0.00000000E+00  0.00000000E+00
  0.00000000E+00  0.00000000E+00  0.00000000E+00
  0.00000000E+00  0.00000000E+00  0.00000000E+00
  0.00000000E+00  0.00000000E+00  0.00000000E+00
  0.00000000E+00  0.00000000E+00  0.00000000E+00
  0.00000000E+00  0.00000000E+00  0.00000000E+00
  0.00000000E+00  0.00000000E+00  0.00000000E+00
  0.00000000E+00  0.00000000E+00  0.00000000E+00
  0.00000000E+00  0.00000000E+00  0.00000000E+00
  0.00000000E+00  0.00000000E+00  0.00000000E+00
  0.00000000E+00  0.00000000E+00  0.00000000E+00
  0.00000000E+00  0.00000000E+00  0.00000000E+00
  0.00000000E+00  0.00000000E+00  0.00000000E+00
  0.00000000E+00  0.00000000E+00  0.00000000E+00
  0.00000000E+00  0.00000000E+00  0.00000000E+00
  0.00000000E+00  0.00000000E+00  0.00000000E+00
  0.00000000E+00  0.00000000E+00  0.00000000E+00
  0.00000000E+00  0.00000000E+00  0.00000000E+00
  0.00000000E+00  0.00000000E+00  0.00000000E+00
  0.00000000E+00  0.00000000E+00  0.00000000E+00
  0.00000000E+00  0.00000000E+00  0.00000000E+00
  0.00000000E+00  0.00000000E+00  0.00000000E+00
  0.00000000E+00  0.00000000E+00  0.00000000E+00
  0.00000000E+00  0.00000000E+00  0.00000000E+00
  0.00000000E+00  0.00000000E+00  0.00000000E+00
  0.00000000E+00  0.00000000E+00  0.00000000E+00
  0.00000000E+00  0.00000000E+00  0.00000000E+00
  0.00000000E+00  0.00000000E+00  0.00000000E+00
  0.00000000E+00  0.00000000E+00  0.00000000E+00
  0.00000000E+00  0.00000000E+00  0.00000000E+00
  0.00000000E+00  0.00000000E+00  0.00000000E+00
  0.00000000E+00  0.00000000E+00  0.00000000E+00
  0.00000000E+00  0.00000000E+00  0.00000000E+00
  0.00000000E+00  0.00000000E+00  0.00000000E+00
  0.00000000E+00  0.00000000E+00  0.00000000E+00
  0.00000000E+00  0.00000000E+00  0.00000000E+00
  0.00000000E+00  0.00000000E+00  0.00000000E+00
  0.00000000E+00  0.00000000E+00  0.00000000E+00
  0.00000000E+00  0.00000000E+00  0.00000000E+00
  0.00000000E+00  0.00000000E+00  0.00000000E+00
  0.00000000E+00  0.00000000E+00  0.00000000E+00
  0.00000000E+00  0.00000000E+00  0.00000000E+00
  0.00000000E+00  0.00000000E+00  0.00000000E+00
  0.00000000E+00  0.00000000E+00  0.00000000E+00
  0.00000000E+00  0.00000000E+00  0.00000000E+00
  0.00000000E+00  0.00000000E+00  0.00000000E+00
  0.00000000E+00  0.00000000E+00  0.00000000E+00
  0.00000000E+00  0.00000000E+00  0.00000000E+00
  0.00000000E+00  0.00000000E+00  0.00000000E+00
  0.00000000E+00  0.00000000E+00  0.00000000E+00
  0.00000000E+00  0.00000000E+00  0.00000000E+00
  0.00000000E+00  0.00000000E+00  0.00000000E+00
  0.00000000E+00  0.00000000E+00  0.00000000E+00
  0.00000000E+00  0.00000000E+00  0.00000000E+00
  0.00000000E+00  0.00000000E+00  0.00000000E+00
  0.00000000E+00  0.00000000E+00  0.00000000E+00
  0.00000000E+00  0.00000000E+00  0.00000000E+00
  0.00000000E+00  0.00000000E+00  0.00000000E+00
  0.00000000E+00  0.00000000E+00  0.00000000E+00
  0.00000000E+00  0.00000000E+00  0.00000000E+00
  0.00000000E+00  0.00000000E+00  0.00000000E+00
  0.00000000E+00  0.00000000E+00  0.00000000E+00
  0.00000000E+00  0.00000000E+00  0.00000000E+00
  0.00000000E+00  0.00000000E+00  0.00000000E+00
  0.00000000E+00  0.00000000E+00  0.00000000E+00
  0.00000000E+00  0.00000000E+00  0.00000000E+00
  0.00000000E+00  0.00000000E+00  0.00000000E+00
  0.00000000E+00  0.00000000E+00  0.00000000E+00
  0.00000000E+00  0.00000000E+00  0.00000000E+00
  0.00000000E+00  0.00000000E+00  0.00000000E+00
  0.00000000E+00  0.00000000E+00  0.00000000E+00
  0.00000000E+00  0.00000000E+00  0.00000000E+00
  0.00000000E+00  0.00000000E+00  0.00000000E+00
  0.00000000E+00  0.00000000E+00  0.00000000E+00
  0.00000000E+00  0.00000000E+00  0.00000000E+00
  0.00000000E+00  0.00000000E+00  0.00000000E+00
  0.00000000E+00  0.00000000E+00  0.00000000E+00
  0.00000000E+00  0.00000000E+00  0.00000000E+00
  0.00000000E+00  0.00000000E+00  0.00000000E+00
  0.00000000E+00  0.00000000E+00  0.00000000E+00
  0.00000000E+00  0.00000000E+00  0.00000000E+00
  0.00000000E+00  0.00000000E+00  0.00000000E+00
  0.00000000E+00  0.00000000E+00  0.00000000E+00
  0.00000000E+00  0.00000000E+00  0.00000000E+00
  0.00000000E+00  0.00000000E+00  0.00000000E+00
  0.00000000E+00  0.00000000E+00  0.00000000E+00
  0.00000000E+00  0.00000000E+00  0.00000000E+00
  0.00000000E+00  0.00000000E+00  0.00000000E+00
  0.00000000E+00  0.00000000E+00  0.00000000E+00
  0.00000000E+00  0.00000000E+00  0.00000000E+00
  0.00000000E+00  0.00000000E+00  0.00000000E+00
  0.00000000E+00  0.00000000E+00  0.00000000E+00
  0.00000000E+00  0.00000000E+00  0.00000000E+00
  0.00000000E+00  0.00000000E+00  0.00000000E+00
  0.00000000E+00  0.00000000E+00  0.00000000E+00
  0.00000000E+00  0.00000000E+00  0.00000000E+00
  0.00000000E+00  0.00000000E+00  0.00000000E+00
  0.00000000E+00  0.00000000E+00  0.00000000E+00
  0.00000000E+00  0.00000000E+00  0.00000000E+00
  0.00000000E+00  0.00000000E+00  0.00000000E+00
  0.00000000E+00  0.00000000E+00  0.00000000E+00
  0.00000000E+00  0.00000000E+00  0.00000000E+00
  0.00000000E+00  0.00000000E+00  0.00000000E+00
  0.00000000E+00  0.00000000E+00  0.00000000E+00
  0.00000000E+00  0.00000000E+00  0.00000000E+00
  0.00000000E+00  0.00000000E+00  0.00000000E+00
  0.00000000E+00  0.00000000E+00  0.00000000E+00
  0.00000000E+00  0.00000000E+00  0.00000000E+00
  0.00000000E+00  0.00000000E+00  0.00000000E+00
  0.00000000E+00  0.00000000E+00  0.00000000E+00
  0.00000000E+00  0.00000000E+00  0.00000000E+00
  0.00000000E+00  0.00000000E+00  0.00000000E+00
  0.00000000E+00  0.00000000E+00  0.00000000E+00
  0.00000000E+00  0.00000000E+00  0.00000000E+00
  0.00000000E+00  0.00000000E+00  0.00000000E+00
  0.00000000E+00  0.00000000E+00  0.00000000E+00
  0.00000000E+00  0.00000000E+00  0.00000000E+00
  0.00000000E+00  0.00000000E+00  0.00000000E+00
  0.00000000E+00  0.00000000E+00  0.00000000E+00
  0.00000000E+00  0.00000000E+00  0.00000000E+00
  0.00000000E+00  0.00000000E+00  0.00000000E+00
  0.00000000E+00  0.00000000E+00  0.00000000E+00
  0.00000000E+00  0.00000000E+00  0.00000000E+00
  0.00000000E+00  0.00000000E+00  0.00000000E+00
  0.00000000E+00  0.00000000E+00  0.00000000E+00
  0.00000000E+00  0.00000000E+00  0.00000000E+00
  0.00000000E+00  0.00000000E+00  0.00000000E+00
  0.00000000E+00  0.00000000E+00  0.00000000E+00
  0.00000000E+00  0.00000000E+00  0.00000000E+00
  0.00000000E+00  0.00000000E+00  0.00000000E+00
  0.00000000E+00  0.00000000E+00  0.00000000E+00
  0.00000000E+00  0.00000000E+00  0.00000000E+00
  0.00000000E+00  0.00000000E+00  0.00000000E+00
  0.00000000E+00  0.00000000E+00  0.00000000E+00
  0.00000000E+00  0.00000000E+00  0.00000000E+00
  0.00000000E+00  0.00000000E+00  0.00000000E+00
  0.00000000E+00  0.00000000E+00  0.00000000E+00
  0.00000000E+00  0.00000000E+00  0.00000000E+00
  0.00000000E+00  0.00000000E+00  0.00000000E+00
  0.00000000E+00  0.00000000E+00  0.00000000E+00
  0.00000000E+00  0.00000000E+00  0.00000000E+00
  0.00000000E+00  0.00000000E+00  0.00000000E+00
  0.00000000E+00  0.00000000E+00  0.00000000E+00
  0.00000000E+00  0.00000000E+00  0.00000000E+00
  0.00000000E+00  0.00000000E+00  0.00000000E+00
  0.00000000E+00  0.00000000E+00  0.00000000E+00
  0.00000000E+00  0.00000000E+00  0.00000000E+00
  0.00000000E+00  0.00000000E+00  0.00000000E+00
  0.00000000E+00  0.00000000E+00  0.00000000E+00
  0.00000000E+00  0.00000000E+00  0.00000000E+00
  0.00000000E+00  0.00000000E+00  0.00000000E+00
  0.00000000E+00  0.00000000E+00  0.00000000E+00
  0.00000000E+00  0.00000000E+00  0.00000000E+00
  0.00000000E+00  0.00000000E+00  0.00000000E+00
  0.00000000E+00  0.00000000E+00  0.00000000E+00
  0.00000000E+00  0.00000000E+00  0.00000000E+00
  0.00000000E+00  0.00000000E+00  0.00000000E+00
  0.00000000E+00  0.00000000E+00  0.00000000E+00
  0.00000000E+00  0.00000000E+00  0.00000000E+00
  0.00000000E+00  0.00000000E+00  0.00000000E+00
  0.00000000E+00  0.00000000E+00  0.00000000E+00
  0.00000000E+00  0.00000000E+00  0.00000000E+00
  0.00000000E+00  0.00000000E+00  0.00000000E+00
  0.00000000E+00  0.00000000E+00  0.00000000E+00
  0.00000000E+00  0.00000000E+00  0.00000000E+00
  0.00000000E+00  0.00000000E+00  0.00000000E+00
  0.00000000E+00  0.00000000E+00  0.00000000E+00
  0.00000000E+00  0.00000000E+00  0.00000000E+00
  0.00000000E+00  0.00000000E+00  0.00000000E+00
  0.00000000E+00  0.00000000E+00  0.00000000E+00
  0.00000000E+00  0.00000000E+00  0.00000000E+00
  0.00000000E+00  0.00000000E+00  0.00000000E+00
  0.00000000E+00  0.00000000E+00  0.00000000E+00
  0.00000000E+00  0.00000000E+00  0.00000000E+00
  0.00000000E+00  0.00000000E+00  0.00000000E+00
  0.00000000E+00  0.00000000E+00  0.00000000E+00
  0.00000000E+00  0.00000000E+00  0.00000000E+00
  0.00000000E+00  0.00000000E+00  0.00000000E+00
  0.00000000E+00  0.00000000E+00  0.00000000E+00
  0.00000000E+00  0.00000000E+00  0.00000000E+00
  0.00000000E+00  0.00000000E+00  0.00000000E+00
  0.00000000E+00  0.00000000E+00  0.00000000E+00
  0.00000000E+00  0.00000000E+00  0.00000000E+00
  0.00000000E+00  0.00000000E+00  0.00000000E+00
  0.00000000E+00  0.00000000E+00  0.00000000E+00
  0.00000000E+00  0.00000000E+00  0.00000000E+00
  0.00000000E+00  0.00000000E+00  0.00000000E+00
  0.00000000E+00  0.00000000E+00  0.00000000E+00
  0.00000000E+00  0.00000000E+00  0.00000000E+00
  0.00000000E+00  0.00000000E+00  0.00000000E+00
  0.00000000E+00  0.00000000E+00  0.00000000E+00
  0.00000000E+00  0.00000000E+00  0.00000000E+00
  0.00000000E+00  0.00000000E+00  0.00000000E+00
  0.00000000E+00  0.00000000E+00  0.00000000E+00
  0.00000000E+00  0.00000000E+00  0.00000000E+00
  0.00000000E+00  0.00000000E+00  0.00000000E+00
  0.00000000E+00  0.00000000E+00  0.00000000E+00
  0.00000000E+00  0.00000000E+00  0.00000000E+00
  0.00000000E+00  0.00000000E+00  0.00000000E+00
  0.00000000E+00  0.00000000E+00  0.00000000E+00
  0.00000000E+00  0.00000000E+00  0.00000000E+00
  0.00000000E+00  0.00000000E+00  0.00000000E+00
  0.00000000E+00  0.00000000E+00  0.00000000E+00
  0.00000000E+00  0.00000000E+00  0.00000000E+00
  0.00000000E+00  0.00000000E+00  0.00000000E+00
  0.00000000E+00  0.00000000E+00  0.00000000E+00
  0.00000000E+00  0.00000000E+00  0.00000000E+00
  0.00000000E+00  0.00000000E+00  0.00000000E+00
  0.00000000E+00  0.00000000E+00  0.00000000E+00
  0.00000000E+00  0.00000000E+00  0.00000000E+00
  0.00000000E+00  0.00000000E+00  0.00000000E+00
  0.00000000E+00  0.00000000E+00  0.00000000E+00
  0.00000000E+00  0.00000000E+00  0.00000000E+00
  0.00000000E+00  0.00000000E+00  0.00000000E+00
  0.00000000E+00  0.00000000E+00  0.00000000E+00
  0.00000000E+00  0.00000000E+00  0.00000000E+00
