       N       E                     dE             d eps       ncg     rms          rms(c)
DAV:   1     0.115054723278E+05    0.11505E+05   -0.28935E+05148576   0.181E+03
DAV:   2     0.150469667985E+04   -0.10001E+05   -0.93845E+04203336   0.817E+02
DAV:   3    -0.323908941687E+03   -0.18286E+04   -0.16958E+04247512   0.366E+02
DAV:   4    -0.598943638494E+03   -0.27503E+03   -0.26091E+03278664   0.183E+02
DAV:   5    -0.632452606625E+03   -0.33509E+02   -0.31990E+02280768   0.770E+01
DAV:   6    -0.638935243539E+03   -0.64826E+01   -0.63072E+01280768   0.316E+01
DAV:   7    -0.640206072536E+03   -0.12708E+01   -0.12516E+01280768   0.160E+01
DAV:   8    -0.640451338195E+03   -0.24527E+00   -0.24307E+00280768   0.667E+00
DAV:   9    -0.640496031038E+03   -0.44693E-01   -0.44456E-01280768   0.307E+00
DAV:  10    -0.640504256264E+03   -0.82252E-02   -0.81963E-02280768   0.119E+00
DAV:  11    -0.640505818826E+03   -0.15626E-02   -0.15585E-02280760   0.521E-01
DAV:  12    -0.640506129882E+03   -0.31106E-03   -0.31048E-03280768   0.206E-01
DAV:  13    -0.640506194152E+03   -0.64269E-04   -0.64181E-04280752   0.918E-02
DAV:  14    -0.640506207896E+03   -0.13745E-04   -0.13733E-04280752   0.373E-02
DAV:  15    -0.640506210911E+03   -0.30147E-05   -0.30120E-05255656   0.169E-02
DAV:  16    -0.640506211582E+03   -0.67118E-06   -0.67151E-06202624   0.699E-03
DAV:  17    -0.640506211732E+03   -0.15010E-06   -0.15095E-06157008   0.328E-03
DAV:  18    -0.640506211769E+03   -0.36584E-07   -0.35902E-07144000   0.186E-03
   1 F= -.64050621E+03 E0= -.64050621E+03  d E =0.000000E+00
