POSCAR                                  
   1.00000000000000     
    10.3097872763884855   -0.0324544398245296   -0.0277942746154245
    -0.0322973432467959   10.3102315808371543   -0.0871076952863571
    -0.0184216205830534   -0.0580351709073129    6.8740782202928532
   Y    Zr   K    Sc   H 
     9     9     9     9   216
Direct
  0.1696050317339637  0.1691810720056140  0.2528801331957378
  0.1681688944668829  0.8323651677658143  0.7539496213041558
  0.8324255449690671  0.1752845084182661  0.2438828339352243
  0.6616190261742503  0.3299176272831389  0.4946894401794351
  0.4984276950080267  0.8268566225037606  0.7568420483201305
  0.9956903938503211  0.3373061174592970  0.9987532917951946
  0.8355665335793385  0.8288518339695364  0.7615241757164148
  0.9980368344849546  0.6615694892422043  0.0097788069425591
  0.0045379510462491  0.0014826630546976  0.9934156011652832
  0.1630098047082959  0.1629926948245099  0.7421003533356942
  0.1706683423131438  0.4986140253347409  0.7565498389966984
  0.5028087682954909  0.1646237102106339  0.7480029544580525
  0.3374362417909548  0.3289924472538751  0.9978402558905267
  0.3302617726026615  0.6574766796616565  0.4984068823490320
  0.8266680696232946  0.1623468851563195  0.7433636350247784
  0.3318007661362332  0.9985704458992323  0.5010041819138102
  0.6678724015690267  0.6599060561138355  0.5056635281839775
  0.9964689124976998  0.3357793091020932  0.5018042275296880
  0.1729138532792240  0.5017283298715193  0.2542217924050692
  0.4990680809418313  0.1745484494033850  0.2560253232887139
  0.3310818617034982  0.3332743344323771  0.4900364678182377
  0.5144115334656283  0.8376475201056250  0.2568547102172565
  0.8339663776090869  0.5099054519890195  0.2468662034712406
  0.6594987255042799  0.6731915624006720  0.0144234153009529
  0.8437164533038286  0.8499911054504500  0.2701926109452550
  0.6553379638701887  0.9857222777891749  0.4734978750391050
  0.9892470699064072  0.9843284161796488  0.4843650742662937
  0.1747849901904861  0.8294167619150082  0.2463482407112478
  0.5008672147706434  0.5024939238772662  0.2440013630505492
  0.4996861872969740  0.5009371476707681  0.7581743960413756
  0.3365933301816179  0.6716999212466073  0.0035297719410319
  0.6667267249378233  0.3415035978406001  0.9961030790983418
  0.3345351285035731  0.0004512218188637  0.9992185363821984
  0.8256297698213864  0.5037056331558624  0.7497723473337085
  0.0067281118531407  0.6655620049352228  0.5058554439240295
  0.6653193104834206  0.0011568248367492  0.9936778150465624
  0.1761600520950086  0.0824257486653095  0.0028104398076644
  0.1565951452075312  0.0724725583544416  0.4946753777679626
  0.1735123060368602  0.4168701601750194  0.0018080145382625
  0.5000978482444507  0.0869798210041740  0.0022275999547605
  0.3360284584120807  0.2526519582726052  0.2365855501347972
  0.1606074210805995  0.4171735759624423  0.5060114445212691
  0.4993182694249810  0.0810888257099664  0.4938730993076862
  0.3333655308733040  0.2489677968104868  0.7433987371939176
  0.1734762602969991  0.7502745115161928  0.0086959642323108
  0.4992188458292209  0.4187592189320064  0.9953860651457077
  0.3411366965877899  0.5827799981798801  0.2319200311696067
  0.1756507806719853  0.7505758490830862  0.4961817909890534
  0.8230616255360825  0.0859500483159036  0.9969759449083254
  0.6628728863104781  0.2578742107896275  0.2264241544896448
  0.4991157914553863  0.4157717940450679  0.5153740099643778
  0.3376709872341159  0.5789258712631846  0.7709180058962665
  0.8261787598772735  0.0796877255235706  0.4881576440266664
  0.6650970202127852  0.2542477260857355  0.7568893192086348
  0.4900624515371507  0.7509570464095232  0.0105181556821243
  0.3388157102730881  0.9180495030382361  0.2410476972709434
  0.8259236286108452  0.4211600418837558  0.9885076421785470
  0.6612944915217156  0.5773648647780598  0.2506481192276128
  0.4830129595163820  0.7469968422909806  0.4941390315044826
  0.3354251345148935  0.9184586002870071  0.7558392601463411
  0.0029590625459859  0.2535650245153589  0.2515291382757016
  0.8304247346086330  0.4203193602790543  0.5045634460121610
  0.6652541875719153  0.5816260684560581  0.7619112545651329
  0.9952242768614903  0.2502184507989580  0.7447404959309245
  0.8276990466211553  0.7600545673261166  0.0177567170482056
  0.6837578213534198  0.9246762318353008  0.2118119901097755
  0.0061853373295584  0.5818491142571118  0.2711196890178068
  0.8516913459114765  0.7472776459859565  0.4949080091538094
  0.6688891097249680  0.9109061741326870  0.7284467132062403
  0.9941505788983119  0.5792622880964517  0.7419272164539048
  0.0229481709152846  0.9119942486677367  0.2341824908143552
  0.0020899670549797  0.9158285838999256  0.7413311376392584
  0.0851691438469244  0.1704529157708227  0.9938782304591944
  0.0763578002246244  0.1535471785348003  0.4995123296670957
  0.0882675788939305  0.5008309449265749  0.0009600020557117
  0.4214732622011894  0.1618883597270641  0.9969444608090556
  0.2535670590570934  0.3385627846524719  0.2339635870877404
  0.0809355202200271  0.5050745084645752  0.5054330478684202
  0.4126648906637602  0.1644105882955791  0.5090578393098706
  0.2513770851089930  0.3309267091828775  0.7464310950371983
  0.0902876969348226  0.8266165931004713  0.0105855768838511
  0.4184228922200749  0.4906920509275870  0.9929773834449680
  0.2532534477732161  0.6710625949150951  0.2514075866945892
  0.0835664458555525  0.8261302057481354  0.5006272866886978
  0.7423125017434509  0.1720185688563182  0.9896670776162757
  0.5845023821618825  0.3420837510846294  0.2310764942514424
  0.4164448768753881  0.5016193258770593  0.5153152096023811
  0.2517570869775453  0.6643101050175256  0.7554260529042580
  0.7423223938425351  0.1570054504614531  0.5021690893716100
  0.5831401622510280  0.3386400341059776  0.7561809471404969
  0.4197311870429451  0.8494289533250488  0.0140813446338590
  0.2532936814329802  0.9943718354677850  0.2430504544295891
  0.7452607270353612  0.5021976883061124  0.9954545810496340
  0.5758740594399623  0.6608398313617933  0.2679758075820078
  0.4207264324335017  0.8207759243286488  0.4920683590984003
  0.2533326791240493  0.0005511002239628  0.7481681412636869
  0.9149028649803707  0.3437332722821144  0.2576830206507223
  0.7505574616769457  0.4970761633253890  0.5014194552170693
  0.5802465139336461  0.6565883099640214  0.7519204608463259
  0.9099105043253248  0.3406309562183071  0.7444224438152921
  0.7582011007981473  0.8283378339613929  0.0190060502410127
  0.5800035489130475  0.0114576867362836  0.2137037263882480
  0.9244650377720607  0.6811094487137631  0.2678127447533745
  0.7506192087032386  0.8220502622742678  0.5086500312734125
  0.5830225993423896  0.0000021326571085  0.7464068972233657
  0.9178707240093469  0.6577184733178553  0.7463766871850817
  0.9184008056985330  0.0146512426508028  0.2295102248498706
  0.9127324380734898  0.0039605993007599  0.7414854986316565
  0.1760613838437045  0.0002824005732925  0.1223162436871043
  0.1619876613656513  0.9992069792161944  0.6159162546202613
  0.1652512547973395  0.3357754515566433  0.1290480696312701
  0.5070754086944786  0.0052918478269354  0.1277400912445363
  0.3351861976516713  0.1565328369533363  0.3787298964398541
  0.1658017922302701  0.3310474280251386  0.6264648635623882
  0.4956328754902086  0.9956979221471804  0.6275613966274910
  0.3319086971155908  0.1612004523547690  0.8725005946269521
  0.1744992569664750  0.6685901583335641  0.1289941037487002
  0.5065490570469992  0.3410726637213420  0.1199626570283023
  0.3467125916045397  0.4977887262079213  0.3652822122167455
  0.1666640398389735  0.6641785087310094  0.6308695374298625
  0.8326589891795354  0.0068587002314452  0.1154872287355367
  0.6691202972892009  0.1563862149313567  0.3636751836835765
  0.4955853388071887  0.3443332921665459  0.6248557542076457
  0.3406210606884661  0.5061956419059156  0.8829559772157956
  0.8228562127191121  0.9877382227868656  0.6115996585449535
  0.6665978785836701  0.1631014763428720  0.8756935637133546
  0.4902551852799656  0.6634299373539277  0.1306832391127059
  0.3361299810173784  0.8339961857783588  0.3707844594544548
  0.8243664493466893  0.3431488972206221  0.1198617995428217
  0.6621077920497390  0.4977227609488395  0.3719043402138706
  0.4944577653169547  0.6551919131591492  0.6262000606346494
  0.3327178048826481  0.8352210314225876  0.8828500652727719
  0.0028585592106836  0.1593165617518671  0.3777008109652373
  0.8303107369112509  0.3400893636670522  0.6301920627516304
  0.6601007174445918  0.5039641817707418  0.8770723702586958
  0.9950354683414940  0.1700075383727720  0.8678424491195771
  0.8260307708941691  0.6794633027741569  0.1436433716284864
  0.6808019675027572  0.8086872563507521  0.3788934549883366
  0.0031225126997863  0.5076169631596485  0.3796535743650086
  0.8336041060258428  0.6644173156139100  0.6273793902716432
  0.6694931266471329  0.8376210554616299  0.8811173664405827
  0.9972655784593549  0.4992263131297869  0.8646029292370648
  0.0242455274173213  0.8164322031416374  0.3689083730482958
  0.0044760290975307  0.8271900666297320  0.8844013746641519
  0.0901382234663140  0.9914463384410884  0.2481270427641976
  0.0786544174525137  0.9983538229047736  0.7322772753422820
  0.0886829546220459  0.3375812463006946  0.2448750458362650
  0.4154344816053038  0.9980954630294425  0.2385329651949496
  0.2464740725828309  0.1661970743997716  0.5089817426882270
  0.0800346559868534  0.3369729800549114  0.7504429540620591
  0.4161059630176668  0.0004825990889205  0.7625283815967591
  0.2528554957017007  0.1626194919128734  0.9934113781860615
  0.0930245708629212  0.6727887948802743  0.2541796224643190
  0.4227489085318116  0.3437744321346753  0.2441722936487148
  0.2471880629771553  0.4976192260214783  0.5129645944687904
  0.0820311718833834  0.6608130435707933  0.7506909319394487
  0.7474469195286001  0.0049189933384221  0.2337273445582865
  0.5779864246353302  0.1520799202400007  0.5073552119996104
  0.4168289203471065  0.3340692995272073  0.7477479294011068
  0.2564128259847425  0.5015524703902320  0.0028454747707431
  0.7420472334590544  0.0019660123601561  0.7408251418410667
  0.5812816331651623  0.1713413601167759  0.0017611116301749
  0.4165672551879469  0.6721388480895020  0.2580910587258994
  0.2484502757499499  0.8231041054320294  0.4938007412828372
  0.7506314681248091  0.3468181964239852  0.2438797522304763
  0.5787518919423446  0.4995656948923715  0.5083599561106148
  0.4152024949645578  0.6560925152101262  0.7489306394763328
  0.2542937819723659  0.8372929237297537  0.0080589887870432
  0.9173703573965744  0.1607920933520290  0.5050642954251164
  0.7468303972557762  0.3368008077732992  0.7491701449388408
  0.5833280889493793  0.4993588383574608  0.9955293163747285
  0.9158358693190662  0.1668975620751936  0.9864338996590053
  0.7650669358728466  0.6804110152539095  0.2420192272328208
  0.5835287717720192  0.8150595403279938  0.5137585156408900
  0.9109601742443116  0.5124826824526738  0.5051547696098940
  0.7466398115535818  0.6609072974687749  0.7637022947675589
  0.5850677526334701  0.8476948304622676  0.0003097559535393
  0.9077939264351903  0.4997356301296256  0.9862794896114456
  0.9181379248563168  0.8099509652101742  0.5143836384321996
  0.9217867969890801  0.8315564434852551  0.0204693853003253
  0.0014882562587304  0.1700102295915276  0.1237851159564763
  0.9931665686936969  0.1594288713241592  0.6144035970901400
  0.0048053599061153  0.4970774263260494  0.1369317225519429
  0.3363720686475458  0.1545882841497925  0.1275751124988320
  0.1571349370438387  0.3369968970342388  0.3794400738235474
  0.9945565628159048  0.4989816511425800  0.6259969123354312
  0.3305788552835268  0.1663940670305588  0.6265965933785712
  0.1652059452501389  0.3281842223315795  0.8726316575411026
  0.0050047895542131  0.8338169543749566  0.1327343494710493
  0.3395960215283406  0.5159683089585118  0.1249847747603439
  0.1609240158389137  0.6705751007548156  0.3751455714956119
  0.0073362775526214  0.8242868731422057  0.6231848309441628
  0.6639277922409885  0.1655508909327456  0.1154893450193056
  0.4955685373778061  0.3503240420761451  0.3670228892878321
  0.3449045061722395  0.4954640878467246  0.6281681889806513
  0.1746178302333828  0.6646469889726305  0.8813111696565715
  0.6684778762526232  0.1569155279639671  0.6149191097935713
  0.5064907867458323  0.3396401863161838  0.8771208074192841
  0.3407805532282883  0.8268428293919894  0.1408288246278228
  0.1657193154872029  0.9965455158051002  0.3716331459725954
  0.6627112570299238  0.5029196490541676  0.1267653766292443
  0.5014800242252515  0.6627295836491832  0.3736063767288049
  0.3324888461616174  0.8310764870624860  0.6210018985321003
  0.1749300944729635  0.0027227905672850  0.8724525204970016
  0.8322655374914293  0.3438744488096184  0.3694767524441165
  0.6587767425534410  0.4979149533264408  0.6257246366548628
  0.4939935479678300  0.6581198892942102  0.8813141137159409
  0.8259003051133642  0.3379445468524785  0.8716256981078625
  0.6796591444070376  0.8520176911598423  0.1230445594694582
  0.4830333476285645  0.0102777905025562  0.3733962010988064
  0.8317271487402017  0.6757275740720214  0.3886881042416414
  0.6671020011457812  0.8374029682528510  0.6348277564518564
  0.4969398651637912  0.9991624515341527  0.8769595251406149
  0.8278582956548695  0.6599188546411184  0.8784616533814803
  0.8186798708282929  0.0206520590572679  0.3667192452271644
  0.8241739947045720  0.0021765235318642  0.8737101766912718
  0.0007635938259715  0.0842064298396471  0.2527039970487751
  0.9962347497695301  0.0811173233868973  0.7309882604740484
  0.0016400654881629  0.4224657418704184  0.2532707459744719
  0.3368196827599960  0.0851737161773348  0.2253729561815957
  0.1625341128067380  0.2516781035923417  0.5086445473560520
  0.9920293999432681  0.4199374140994203  0.7474012165075838
  0.3372191942274008  0.0847824754854294  0.7642565107756102
  0.1694129143099481  0.2517539607798605  0.9924072737469498
  0.9939232374394820  0.7473090677408624  0.2686443368378394
  0.3416848515427043  0.4214527324986188  0.2418034860045448
  0.1570254564948144  0.5819528538220772  0.5022950119103371
  0.0013372840607061  0.7402983107504854  0.7490488153800604
  0.6630246236696240  0.0935241320166250  0.2330760780013125
  0.4938452966263844  0.2508816812670962  0.5171173102932777
  0.3382880697390746  0.4153963271278543  0.7475979630462065
  0.1763617903281814  0.5833422260679568  0.0054536918675061
  0.6631988921708739  0.0712694294413367  0.7408115526641981
  0.5123546167390999  0.2492243226920560  0.9988009991278666
  0.3446247127709802  0.7579051483123921  0.2410639170149084
  0.1669697510985517  0.9103488130554567  0.4903339827121091
  0.6660538187072021  0.4195644010479953  0.2472882101325802
  0.4953447421337529  0.5785385819997142  0.4934252355689363
  0.3318181031383431  0.7445449292277672  0.7599301660249500
  0.1771560576393000  0.9153355653999066  0.0136997431877295
  0.8302892813862169  0.2527857119691559  0.5055079197687146
  0.6648412164722184  0.4171227650799819  0.7520073706408928
  0.4923908392634954  0.5845489377589644  0.0053746482388310
  0.8224661072975853  0.2535497296931328  0.9876715085278559
  0.6818542527307264  0.7490223986301555  0.2753293036752246
  0.4858346924603417  0.9105680213936017  0.5116965234619230
  0.8438926300973657  0.5777998477684010  0.5086036354522855
  0.6686970276864254  0.7467695692006727  0.7567417092058241
  0.4893639321230128  0.9178342094518644  0.0084626879353136
  0.8253050238304119  0.5828221850566768  0.9890675138428043
  0.8175931687156649  0.9143435009438367  0.5290269836502983
  0.8285267727986624  0.9258196080921397  0.0075418092192406
 
  0.00000000E+00  0.00000000E+00  0.00000000E+00
  0.00000000E+00  0.00000000E+00  0.00000000E+00
  0.00000000E+00  0.00000000E+00  0.00000000E+00
  0.00000000E+00  0.00000000E+00  0.00000000E+00
  0.00000000E+00  0.00000000E+00  0.00000000E+00
  0.00000000E+00  0.00000000E+00  0.00000000E+00
  0.00000000E+00  0.00000000E+00  0.00000000E+00
  0.00000000E+00  0.00000000E+00  0.00000000E+00
  0.00000000E+00  0.00000000E+00  0.00000000E+00
  0.00000000E+00  0.00000000E+00  0.00000000E+00
  0.00000000E+00  0.00000000E+00  0.00000000E+00
  0.00000000E+00  0.00000000E+00  0.00000000E+00
  0.00000000E+00  0.00000000E+00  0.00000000E+00
  0.00000000E+00  0.00000000E+00  0.00000000E+00
  0.00000000E+00  0.00000000E+00  0.00000000E+00
  0.00000000E+00  0.00000000E+00  0.00000000E+00
  0.00000000E+00  0.00000000E+00  0.00000000E+00
  0.00000000E+00  0.00000000E+00  0.00000000E+00
  0.00000000E+00  0.00000000E+00  0.00000000E+00
  0.00000000E+00  0.00000000E+00  0.00000000E+00
  0.00000000E+00  0.00000000E+00  0.00000000E+00
  0.00000000E+00  0.00000000E+00  0.00000000E+00
  0.00000000E+00  0.00000000E+00  0.00000000E+00
  0.00000000E+00  0.00000000E+00  0.00000000E+00
  0.00000000E+00  0.00000000E+00  0.00000000E+00
  0.00000000E+00  0.00000000E+00  0.00000000E+00
  0.00000000E+00  0.00000000E+00  0.00000000E+00
  0.00000000E+00  0.00000000E+00  0.00000000E+00
  0.00000000E+00  0.00000000E+00  0.00000000E+00
  0.00000000E+00  0.00000000E+00  0.00000000E+00
  0.00000000E+00  0.00000000E+00  0.00000000E+00
  0.00000000E+00  0.00000000E+00  0.00000000E+00
  0.00000000E+00  0.00000000E+00  0.00000000E+00
  0.00000000E+00  0.00000000E+00  0.00000000E+00
  0.00000000E+00  0.00000000E+00  0.00000000E+00
  0.00000000E+00  0.00000000E+00  0.00000000E+00
  0.00000000E+00  0.00000000E+00  0.00000000E+00
  0.00000000E+00  0.00000000E+00  0.00000000E+00
  0.00000000E+00  0.00000000E+00  0.00000000E+00
  0.00000000E+00  0.00000000E+00  0.00000000E+00
  0.00000000E+00  0.00000000E+00  0.00000000E+00
  0.00000000E+00  0.00000000E+00  0.00000000E+00
  0.00000000E+00  0.00000000E+00  0.00000000E+00
  0.00000000E+00  0.00000000E+00  0.00000000E+00
  0.00000000E+00  0.00000000E+00  0.00000000E+00
  0.00000000E+00  0.00000000E+00  0.00000000E+00
  0.00000000E+00  0.00000000E+00  0.00000000E+00
  0.00000000E+00  0.00000000E+00  0.00000000E+00
  0.00000000E+00  0.00000000E+00  0.00000000E+00
  0.00000000E+00  0.00000000E+00  0.00000000E+00
  0.00000000E+00  0.00000000E+00  0.00000000E+00
  0.00000000E+00  0.00000000E+00  0.00000000E+00
  0.00000000E+00  0.00000000E+00  0.00000000E+00
  0.00000000E+00  0.00000000E+00  0.00000000E+00
  0.00000000E+00  0.00000000E+00  0.00000000E+00
  0.00000000E+00  0.00000000E+00  0.00000000E+00
  0.00000000E+00  0.00000000E+00  0.00000000E+00
  0.00000000E+00  0.00000000E+00  0.00000000E+00
  0.00000000E+00  0.00000000E+00  0.00000000E+00
  0.00000000E+00  0.00000000E+00  0.00000000E+00
  0.00000000E+00  0.00000000E+00  0.00000000E+00
  0.00000000E+00  0.00000000E+00  0.00000000E+00
  0.00000000E+00  0.00000000E+00  0.00000000E+00
  0.00000000E+00  0.00000000E+00  0.00000000E+00
  0.00000000E+00  0.00000000E+00  0.00000000E+00
  0.00000000E+00  0.00000000E+00  0.00000000E+00
  0.00000000E+00  0.00000000E+00  0.00000000E+00
  0.00000000E+00  0.00000000E+00  0.00000000E+00
  0.00000000E+00  0.00000000E+00  0.00000000E+00
  0.00000000E+00  0.00000000E+00  0.00000000E+00
  0.00000000E+00  0.00000000E+00  0.00000000E+00
  0.00000000E+00  0.00000000E+00  0.00000000E+00
  0.00000000E+00  0.00000000E+00  0.00000000E+00
  0.00000000E+00  0.00000000E+00  0.00000000E+00
  0.00000000E+00  0.00000000E+00  0.00000000E+00
  0.00000000E+00  0.00000000E+00  0.00000000E+00
  0.00000000E+00  0.00000000E+00  0.00000000E+00
  0.00000000E+00  0.00000000E+00  0.00000000E+00
  0.00000000E+00  0.00000000E+00  0.00000000E+00
  0.00000000E+00  0.00000000E+00  0.00000000E+00
  0.00000000E+00  0.00000000E+00  0.00000000E+00
  0.00000000E+00  0.00000000E+00  0.00000000E+00
  0.00000000E+00  0.00000000E+00  0.00000000E+00
  0.00000000E+00  0.00000000E+00  0.00000000E+00
  0.00000000E+00  0.00000000E+00  0.00000000E+00
  0.00000000E+00  0.00000000E+00  0.00000000E+00
  0.00000000E+00  0.00000000E+00  0.00000000E+00
  0.00000000E+00  0.00000000E+00  0.00000000E+00
  0.00000000E+00  0.00000000E+00  0.00000000E+00
  0.00000000E+00  0.00000000E+00  0.00000000E+00
  0.00000000E+00  0.00000000E+00  0.00000000E+00
  0.00000000E+00  0.00000000E+00  0.00000000E+00
  0.00000000E+00  0.00000000E+00  0.00000000E+00
  0.00000000E+00  0.00000000E+00  0.00000000E+00
  0.00000000E+00  0.00000000E+00  0.00000000E+00
  0.00000000E+00  0.00000000E+00  0.00000000E+00
  0.00000000E+00  0.00000000E+00  0.00000000E+00
  0.00000000E+00  0.00000000E+00  0.00000000E+00
  0.00000000E+00  0.00000000E+00  0.00000000E+00
  0.00000000E+00  0.00000000E+00  0.00000000E+00
  0.00000000E+00  0.00000000E+00  0.00000000E+00
  0.00000000E+00  0.00000000E+00  0.00000000E+00
  0.00000000E+00  0.00000000E+00  0.00000000E+00
  0.00000000E+00  0.00000000E+00  0.00000000E+00
  0.00000000E+00  0.00000000E+00  0.00000000E+00
  0.00000000E+00  0.00000000E+00  0.00000000E+00
  0.00000000E+00  0.00000000E+00  0.00000000E+00
  0.00000000E+00  0.00000000E+00  0.00000000E+00
  0.00000000E+00  0.00000000E+00  0.00000000E+00
  0.00000000E+00  0.00000000E+00  0.00000000E+00
  0.00000000E+00  0.00000000E+00  0.00000000E+00
  0.00000000E+00  0.00000000E+00  0.00000000E+00
  0.00000000E+00  0.00000000E+00  0.00000000E+00
  0.00000000E+00  0.00000000E+00  0.00000000E+00
  0.00000000E+00  0.00000000E+00  0.00000000E+00
  0.00000000E+00  0.00000000E+00  0.00000000E+00
  0.00000000E+00  0.00000000E+00  0.00000000E+00
  0.00000000E+00  0.00000000E+00  0.00000000E+00
  0.00000000E+00  0.00000000E+00  0.00000000E+00
  0.00000000E+00  0.00000000E+00  0.00000000E+00
  0.00000000E+00  0.00000000E+00  0.00000000E+00
  0.00000000E+00  0.00000000E+00  0.00000000E+00
  0.00000000E+00  0.00000000E+00  0.00000000E+00
  0.00000000E+00  0.00000000E+00  0.00000000E+00
  0.00000000E+00  0.00000000E+00  0.00000000E+00
  0.00000000E+00  0.00000000E+00  0.00000000E+00
  0.00000000E+00  0.00000000E+00  0.00000000E+00
  0.00000000E+00  0.00000000E+00  0.00000000E+00
  0.00000000E+00  0.00000000E+00  0.00000000E+00
  0.00000000E+00  0.00000000E+00  0.00000000E+00
  0.00000000E+00  0.00000000E+00  0.00000000E+00
  0.00000000E+00  0.00000000E+00  0.00000000E+00
  0.00000000E+00  0.00000000E+00  0.00000000E+00
  0.00000000E+00  0.00000000E+00  0.00000000E+00
  0.00000000E+00  0.00000000E+00  0.00000000E+00
  0.00000000E+00  0.00000000E+00  0.00000000E+00
  0.00000000E+00  0.00000000E+00  0.00000000E+00
  0.00000000E+00  0.00000000E+00  0.00000000E+00
  0.00000000E+00  0.00000000E+00  0.00000000E+00
  0.00000000E+00  0.00000000E+00  0.00000000E+00
  0.00000000E+00  0.00000000E+00  0.00000000E+00
  0.00000000E+00  0.00000000E+00  0.00000000E+00
  0.00000000E+00  0.00000000E+00  0.00000000E+00
  0.00000000E+00  0.00000000E+00  0.00000000E+00
  0.00000000E+00  0.00000000E+00  0.00000000E+00
  0.00000000E+00  0.00000000E+00  0.00000000E+00
  0.00000000E+00  0.00000000E+00  0.00000000E+00
  0.00000000E+00  0.00000000E+00  0.00000000E+00
  0.00000000E+00  0.00000000E+00  0.00000000E+00
  0.00000000E+00  0.00000000E+00  0.00000000E+00
  0.00000000E+00  0.00000000E+00  0.00000000E+00
  0.00000000E+00  0.00000000E+00  0.00000000E+00
  0.00000000E+00  0.00000000E+00  0.00000000E+00
  0.00000000E+00  0.00000000E+00  0.00000000E+00
  0.00000000E+00  0.00000000E+00  0.00000000E+00
  0.00000000E+00  0.00000000E+00  0.00000000E+00
  0.00000000E+00  0.00000000E+00  0.00000000E+00
  0.00000000E+00  0.00000000E+00  0.00000000E+00
  0.00000000E+00  0.00000000E+00  0.00000000E+00
  0.00000000E+00  0.00000000E+00  0.00000000E+00
  0.00000000E+00  0.00000000E+00  0.00000000E+00
  0.00000000E+00  0.00000000E+00  0.00000000E+00
  0.00000000E+00  0.00000000E+00  0.00000000E+00
  0.00000000E+00  0.00000000E+00  0.00000000E+00
  0.00000000E+00  0.00000000E+00  0.00000000E+00
  0.00000000E+00  0.00000000E+00  0.00000000E+00
  0.00000000E+00  0.00000000E+00  0.00000000E+00
  0.00000000E+00  0.00000000E+00  0.00000000E+00
  0.00000000E+00  0.00000000E+00  0.00000000E+00
  0.00000000E+00  0.00000000E+00  0.00000000E+00
  0.00000000E+00  0.00000000E+00  0.00000000E+00
  0.00000000E+00  0.00000000E+00  0.00000000E+00
  0.00000000E+00  0.00000000E+00  0.00000000E+00
  0.00000000E+00  0.00000000E+00  0.00000000E+00
  0.00000000E+00  0.00000000E+00  0.00000000E+00
  0.00000000E+00  0.00000000E+00  0.00000000E+00
  0.00000000E+00  0.00000000E+00  0.00000000E+00
  0.00000000E+00  0.00000000E+00  0.00000000E+00
  0.00000000E+00  0.00000000E+00  0.00000000E+00
  0.00000000E+00  0.00000000E+00  0.00000000E+00
  0.00000000E+00  0.00000000E+00  0.00000000E+00
  0.00000000E+00  0.00000000E+00  0.00000000E+00
  0.00000000E+00  0.00000000E+00  0.00000000E+00
  0.00000000E+00  0.00000000E+00  0.00000000E+00
  0.00000000E+00  0.00000000E+00  0.00000000E+00
  0.00000000E+00  0.00000000E+00  0.00000000E+00
  0.00000000E+00  0.00000000E+00  0.00000000E+00
  0.00000000E+00  0.00000000E+00  0.00000000E+00
  0.00000000E+00  0.00000000E+00  0.00000000E+00
  0.00000000E+00  0.00000000E+00  0.00000000E+00
  0.00000000E+00  0.00000000E+00  0.00000000E+00
  0.00000000E+00  0.00000000E+00  0.00000000E+00
  0.00000000E+00  0.00000000E+00  0.00000000E+00
  0.00000000E+00  0.00000000E+00  0.00000000E+00
  0.00000000E+00  0.00000000E+00  0.00000000E+00
  0.00000000E+00  0.00000000E+00  0.00000000E+00
  0.00000000E+00  0.00000000E+00  0.00000000E+00
  0.00000000E+00  0.00000000E+00  0.00000000E+00
  0.00000000E+00  0.00000000E+00  0.00000000E+00
  0.00000000E+00  0.00000000E+00  0.00000000E+00
  0.00000000E+00  0.00000000E+00  0.00000000E+00
  0.00000000E+00  0.00000000E+00  0.00000000E+00
  0.00000000E+00  0.00000000E+00  0.00000000E+00
  0.00000000E+00  0.00000000E+00  0.00000000E+00
  0.00000000E+00  0.00000000E+00  0.00000000E+00
  0.00000000E+00  0.00000000E+00  0.00000000E+00
  0.00000000E+00  0.00000000E+00  0.00000000E+00
  0.00000000E+00  0.00000000E+00  0.00000000E+00
  0.00000000E+00  0.00000000E+00  0.00000000E+00
  0.00000000E+00  0.00000000E+00  0.00000000E+00
  0.00000000E+00  0.00000000E+00  0.00000000E+00
  0.00000000E+00  0.00000000E+00  0.00000000E+00
  0.00000000E+00  0.00000000E+00  0.00000000E+00
  0.00000000E+00  0.00000000E+00  0.00000000E+00
  0.00000000E+00  0.00000000E+00  0.00000000E+00
  0.00000000E+00  0.00000000E+00  0.00000000E+00
  0.00000000E+00  0.00000000E+00  0.00000000E+00
  0.00000000E+00  0.00000000E+00  0.00000000E+00
  0.00000000E+00  0.00000000E+00  0.00000000E+00
  0.00000000E+00  0.00000000E+00  0.00000000E+00
  0.00000000E+00  0.00000000E+00  0.00000000E+00
  0.00000000E+00  0.00000000E+00  0.00000000E+00
  0.00000000E+00  0.00000000E+00  0.00000000E+00
  0.00000000E+00  0.00000000E+00  0.00000000E+00
  0.00000000E+00  0.00000000E+00  0.00000000E+00
  0.00000000E+00  0.00000000E+00  0.00000000E+00
  0.00000000E+00  0.00000000E+00  0.00000000E+00
  0.00000000E+00  0.00000000E+00  0.00000000E+00
  0.00000000E+00  0.00000000E+00  0.00000000E+00
  0.00000000E+00  0.00000000E+00  0.00000000E+00
  0.00000000E+00  0.00000000E+00  0.00000000E+00
  0.00000000E+00  0.00000000E+00  0.00000000E+00
  0.00000000E+00  0.00000000E+00  0.00000000E+00
  0.00000000E+00  0.00000000E+00  0.00000000E+00
  0.00000000E+00  0.00000000E+00  0.00000000E+00
  0.00000000E+00  0.00000000E+00  0.00000000E+00
  0.00000000E+00  0.00000000E+00  0.00000000E+00
  0.00000000E+00  0.00000000E+00  0.00000000E+00
  0.00000000E+00  0.00000000E+00  0.00000000E+00
  0.00000000E+00  0.00000000E+00  0.00000000E+00
  0.00000000E+00  0.00000000E+00  0.00000000E+00
  0.00000000E+00  0.00000000E+00  0.00000000E+00
  0.00000000E+00  0.00000000E+00  0.00000000E+00
  0.00000000E+00  0.00000000E+00  0.00000000E+00
  0.00000000E+00  0.00000000E+00  0.00000000E+00
  0.00000000E+00  0.00000000E+00  0.00000000E+00
  0.00000000E+00  0.00000000E+00  0.00000000E+00
  0.00000000E+00  0.00000000E+00  0.00000000E+00
  0.00000000E+00  0.00000000E+00  0.00000000E+00
  0.00000000E+00  0.00000000E+00  0.00000000E+00
  0.00000000E+00  0.00000000E+00  0.00000000E+00
  0.00000000E+00  0.00000000E+00  0.00000000E+00
