all                                     
           1
    10.309787   -0.032454   -0.027794
    -0.032297   10.310232   -0.087108
    -0.018422   -0.058035    6.874078
   Y    Zr   K    Sc   H 
   9   9   9   9 216
Direct configuration=     1
   0.16960503  0.16918107  0.25288013
   0.16816889  0.83236517  0.75394962
   0.83242554  0.17528451  0.24388283
   0.66161903  0.32991763  0.49468944
   0.49842770  0.82685662  0.75684205
   0.99569039  0.33730612  0.99875329
   0.83556653  0.82885183  0.76152418
   0.99803683  0.66156949  0.00977881
   0.00453795  0.00148266  0.99341560
   0.16300980  0.16299269  0.74210035
   0.17066834  0.49861403  0.75654984
   0.50280877  0.16462371  0.74800295
   0.33743624  0.32899245  0.99784026
   0.33026177  0.65747668  0.49840688
   0.82666807  0.16234689  0.74336364
   0.33180077  0.99857045  0.50100418
   0.66787240  0.65990606  0.50566353
   0.99646891  0.33577931  0.50180423
   0.17291385  0.50172833  0.25422179
   0.49906808  0.17454845  0.25602532
   0.33108186  0.33327433  0.49003647
   0.51441153  0.83764752  0.25685471
   0.83396638  0.50990545  0.24686620
   0.65949873  0.67319156  0.01442342
   0.84371645  0.84999111  0.27019261
   0.65533796  0.98572228  0.47349788
   0.98924707  0.98432842  0.48436507
   0.17478499  0.82941676  0.24634824
   0.50086721  0.50249392  0.24400136
   0.49968619  0.50093715  0.75817440
   0.33659333  0.67169992  0.00352977
   0.66672672  0.34150360  0.99610308
   0.33453513  0.00045122  0.99921854
   0.82562977  0.50370563  0.74977235
   0.00672811  0.66556200  0.50585544
   0.66531931  0.00115682  0.99367782
   0.17616005  0.08242575  0.00281044
   0.15659515  0.07247256  0.49467538
   0.17351231  0.41687016  0.00180801
   0.50009785  0.08697982  0.00222760
   0.33602846  0.25265196  0.23658555
   0.16060742  0.41717358  0.50601144
   0.49931827  0.08108883  0.49387310
   0.33336553  0.24896780  0.74339874
   0.17347626  0.75027451  0.00869596
   0.49921885  0.41875922  0.99538607
   0.34113670  0.58278000  0.23192003
   0.17565078  0.75057585  0.49618179
   0.82306163  0.08595005  0.99697594
   0.66287289  0.25787421  0.22642415
   0.49911579  0.41577179  0.51537401
   0.33767099  0.57892587  0.77091801
   0.82617876  0.07968773  0.48815764
   0.66509702  0.25424773  0.75688932
   0.49006245  0.75095705  0.01051816
   0.33881571  0.91804950  0.24104770
   0.82592363  0.42116004  0.98850764
   0.66129449  0.57736486  0.25064812
   0.48301296  0.74699684  0.49413903
   0.33542513  0.91845860  0.75583926
   0.00295906  0.25356502  0.25152914
   0.83042473  0.42031936  0.50456345
   0.66525419  0.58162607  0.76191125
   0.99522428  0.25021845  0.74474050
   0.82769905  0.76005457  0.01775672
   0.68375782  0.92467623  0.21181199
   0.00618534  0.58184911  0.27111969
   0.85169135  0.74727765  0.49490801
   0.66888911  0.91090617  0.72844671
   0.99415058  0.57926229  0.74192722
   0.02294817  0.91199425  0.23418249
   0.00208997  0.91582858  0.74133114
   0.08516914  0.17045292  0.99387823
   0.07635780  0.15354718  0.49951233
   0.08826758  0.50083094  0.00096000
   0.42147326  0.16188836  0.99694446
   0.25356706  0.33856278  0.23396359
   0.08093552  0.50507451  0.50543305
   0.41266489  0.16441059  0.50905784
   0.25137709  0.33092671  0.74643110
   0.09028770  0.82661659  0.01058558
   0.41842289  0.49069205  0.99297738
   0.25325345  0.67106259  0.25140759
   0.08356645  0.82613021  0.50062729
   0.74231250  0.17201857  0.98966708
   0.58450238  0.34208375  0.23107649
   0.41644488  0.50161933  0.51531521
   0.25175709  0.66431011  0.75542605
   0.74232239  0.15700545  0.50216909
   0.58314016  0.33864003  0.75618095
   0.41973119  0.84942895  0.01408134
   0.25329368  0.99437184  0.24305045
   0.74526073  0.50219769  0.99545458
   0.57587406  0.66083983  0.26797581
   0.42072643  0.82077592  0.49206836
   0.25333268  0.00055110  0.74816814
   0.91490286  0.34373327  0.25768302
   0.75055746  0.49707616  0.50141946
   0.58024651  0.65658831  0.75192046
   0.90991050  0.34063096  0.74442244
   0.75820110  0.82833783  0.01900605
   0.58000355  0.01145769  0.21370373
   0.92446504  0.68110945  0.26781274
   0.75061921  0.82205026  0.50865003
   0.58302260  0.00000213  0.74640690
   0.91787072  0.65771847  0.74637669
   0.91840081  0.01465124  0.22951022
   0.91273244  0.00396060  0.74148550
   0.17606138  0.00028240  0.12231624
   0.16198766  0.99920698  0.61591625
   0.16525125  0.33577545  0.12904807
   0.50707541  0.00529185  0.12774009
   0.33518620  0.15653284  0.37872990
   0.16580179  0.33104743  0.62646486
   0.49563288  0.99569792  0.62756140
   0.33190870  0.16120045  0.87250059
   0.17449926  0.66859016  0.12899410
   0.50654906  0.34107266  0.11996266
   0.34671259  0.49778873  0.36528221
   0.16666404  0.66417851  0.63086954
   0.83265899  0.00685870  0.11548723
   0.66912030  0.15638621  0.36367518
   0.49558534  0.34433329  0.62485575
   0.34062106  0.50619564  0.88295598
   0.82285621  0.98773822  0.61159966
   0.66659788  0.16310148  0.87569356
   0.49025519  0.66342994  0.13068324
   0.33612998  0.83399619  0.37078446
   0.82436645  0.34314890  0.11986180
   0.66210779  0.49772276  0.37190434
   0.49445777  0.65519191  0.62620006
   0.33271780  0.83522103  0.88285007
   0.00285856  0.15931656  0.37770081
   0.83031074  0.34008936  0.63019206
   0.66010072  0.50396418  0.87707237
   0.99503547  0.17000754  0.86784245
   0.82603077  0.67946330  0.14364337
   0.68080197  0.80868726  0.37889345
   0.00312251  0.50761696  0.37965357
   0.83360411  0.66441732  0.62737939
   0.66949313  0.83762106  0.88111737
   0.99726558  0.49922631  0.86460293
   0.02424553  0.81643220  0.36890837
   0.00447603  0.82719007  0.88440137
   0.09013822  0.99144634  0.24812704
   0.07865442  0.99835382  0.73227728
   0.08868295  0.33758125  0.24487505
   0.41543448  0.99809546  0.23853297
   0.24647407  0.16619707  0.50898174
   0.08003466  0.33697298  0.75044295
   0.41610596  0.00048260  0.76252838
   0.25285550  0.16261949  0.99341138
   0.09302457  0.67278879  0.25417962
   0.42274891  0.34377443  0.24417229
   0.24718806  0.49761923  0.51296459
   0.08203117  0.66081304  0.75069093
   0.74744692  0.00491899  0.23372734
   0.57798642  0.15207992  0.50735521
   0.41682892  0.33406930  0.74774793
   0.25641283  0.50155247  0.00284547
   0.74204723  0.00196601  0.74082514
   0.58128163  0.17134136  0.00176111
   0.41656726  0.67213885  0.25809106
   0.24845028  0.82310411  0.49380074
   0.75063147  0.34681820  0.24387975
   0.57875189  0.49956569  0.50835996
   0.41520249  0.65609252  0.74893064
   0.25429378  0.83729292  0.00805899
   0.91737036  0.16079209  0.50506430
   0.74683040  0.33680081  0.74917014
   0.58332809  0.49935884  0.99552932
   0.91583587  0.16689756  0.98643390
   0.76506694  0.68041102  0.24201923
   0.58352877  0.81505954  0.51375852
   0.91096017  0.51248268  0.50515477
   0.74663981  0.66090730  0.76370229
   0.58506775  0.84769483  0.00030976
   0.90779393  0.49973563  0.98627949
   0.91813792  0.80995097  0.51438364
   0.92178680  0.83155644  0.02046939
   0.00148826  0.17001023  0.12378512
   0.99316657  0.15942887  0.61440360
   0.00480536  0.49707743  0.13693172
   0.33637207  0.15458828  0.12757511
   0.15713494  0.33699690  0.37944007
   0.99455656  0.49898165  0.62599691
   0.33057886  0.16639407  0.62659659
   0.16520595  0.32818422  0.87263166
   0.00500479  0.83381695  0.13273435
   0.33959602  0.51596831  0.12498477
   0.16092402  0.67057510  0.37514557
   0.00733628  0.82428687  0.62318483
   0.66392779  0.16555089  0.11548935
   0.49556854  0.35032404  0.36702289
   0.34490451  0.49546409  0.62816819
   0.17461783  0.66464699  0.88131117
   0.66847788  0.15691553  0.61491911
   0.50649079  0.33964019  0.87712081
   0.34078055  0.82684283  0.14082882
   0.16571932  0.99654552  0.37163315
   0.66271126  0.50291965  0.12676538
   0.50148002  0.66272958  0.37360638
   0.33248885  0.83107649  0.62100190
   0.17493009  0.00272279  0.87245252
   0.83226554  0.34387445  0.36947675
   0.65877674  0.49791495  0.62572464
   0.49399355  0.65811989  0.88131411
   0.82590031  0.33794455  0.87162570
   0.67965914  0.85201769  0.12304456
   0.48303335  0.01027779  0.37339620
   0.83172715  0.67572757  0.38868810
   0.66710200  0.83740297  0.63482776
   0.49693987  0.99916245  0.87695953
   0.82785830  0.65991885  0.87846165
   0.81867987  0.02065206  0.36671925
   0.82417399  0.00217652  0.87371018
   0.00076359  0.08420643  0.25270400
   0.99623475  0.08111732  0.73098826
   0.00164007  0.42246574  0.25327075
   0.33681968  0.08517372  0.22537296
   0.16253411  0.25167810  0.50864455
   0.99202940  0.41993741  0.74740122
   0.33721919  0.08478248  0.76425651
   0.16941291  0.25175396  0.99240727
   0.99392324  0.74730907  0.26864434
   0.34168485  0.42145273  0.24180349
   0.15702546  0.58195285  0.50229501
   0.00133728  0.74029831  0.74904882
   0.66302462  0.09352413  0.23307608
   0.49384530  0.25088168  0.51711731
   0.33828807  0.41539633  0.74759796
   0.17636179  0.58334223  0.00545369
   0.66319889  0.07126943  0.74081155
   0.51235462  0.24922432  0.99880100
   0.34462471  0.75790515  0.24106392
   0.16696975  0.91034881  0.49033398
   0.66605382  0.41956440  0.24728821
   0.49534474  0.57853858  0.49342524
   0.33181810  0.74454493  0.75993017
   0.17715606  0.91533557  0.01369974
   0.83028928  0.25278571  0.50550792
   0.66484122  0.41712277  0.75200737
   0.49239084  0.58454894  0.00537465
   0.82246611  0.25354973  0.98767151
   0.68185425  0.74902240  0.27532930
   0.48583469  0.91056802  0.51169652
   0.84389263  0.57779985  0.50860364
   0.66869703  0.74676957  0.75674171
   0.48936393  0.91783421  0.00846269
   0.82530502  0.58282219  0.98906751
   0.81759317  0.91434350  0.52902698
   0.82852677  0.92581961  0.00754181
