POSCAR                                  
   1.00000000000000     
     9.7402059679281958   -0.0040780051222353   -0.0423393861205029
    -0.0038152712984784    9.7309438892153874    0.0569879368316684
    -0.0280416905557844    0.0377980213171294    6.4564347518374499
   K    Mg   Ca   Hf   H 
     9     9     9     9   216
Direct
  0.1595493947881934  0.1777892548657718  0.2307373152068166
  0.1636594883960001  0.8445517195804086  0.7521908347590269
  0.8411077899636652  0.1674932279114927  0.2462446476924995
  0.6653961580501573  0.3380646389875110  0.5034047403230772
  0.5016657628900489  0.8363132011413228  0.7486945240284726
  0.0108268037452675  0.3053403203549223  0.0184874070372771
  0.8434658014635588  0.8436917820897065  0.7582578532379429
  0.0007209918839379  0.6431392101968143  0.0257655668400503
  0.9980184703887360  0.9760885302289211  0.9562242410642270
  0.1773904947838219  0.1721451998420207  0.7317502989323756
  0.1657182290003902  0.4981128537411621  0.7524545450163131
  0.4956873727046442  0.1679854355937778  0.7431264455640090
  0.3306358723412473  0.3292370433007790  0.9987387320689223
  0.3307729486094715  0.6677840510049577  0.5111740841361154
  0.8248502085155209  0.1711633678539783  0.7392343697058621
  0.3316966697728887  0.0062208379104050  0.4893924937422156
  0.6655656661159668  0.6720278270481188  0.5095220353884997
  0.0033685260773098  0.3283167218729872  0.5249151961871803
  0.1647463952890078  0.5024935776163275  0.2568932156629060
  0.4982202679148742  0.1665714232765225  0.2417635218208076
  0.3293877652838830  0.3342789307267751  0.5030128703927161
  0.5008158586512792  0.8353546696140768  0.2576790175600081
  0.8390611394805774  0.5032473314978034  0.2589793311830846
  0.6649835954989811  0.6681621805507021  0.9991106245311983
  0.8285401618706842  0.8288427896035557  0.2591904406826160
  0.6557644453563256  0.0005169296246095  0.4956544922923030
  0.9947916936738039  0.0228158151363544  0.4652699134164493
  0.1685490318137468  0.8351844781490314  0.2565453220795604
  0.5013247881729654  0.4988600552936191  0.2617681826769669
  0.4962014099820138  0.5012399267031711  0.7450756517807520
  0.3352853390005848  0.6631212420585655  0.0038925510514218
  0.6724480586305290  0.3299423374181742  0.0038223355559026
  0.3272312431796678  0.0036752324589244  0.9884791263850659
  0.8427708470107618  0.4968610474191451  0.7549635681291988
  0.0039644855609708  0.6755941486732553  0.5222788471217541
  0.6686849823750549  0.9942898907743469  0.9901441706099519
  0.1600250735472386  0.0774168564555850  0.9943581981610805
  0.1697817623449467  0.0866795396144937  0.4813430711807811
  0.1690350426331193  0.4073446371744041  0.0028293238497170
  0.4949829427035652  0.0864782850986998  0.9871814816002527
  0.3337026266043921  0.2521146723542387  0.2418519545736828
  0.1579417111414685  0.4188064229814898  0.5196348411630680
  0.4915841463893287  0.0894293127255068  0.4965790072159706
  0.3314167425391759  0.2541439985746621  0.7598574169959775
  0.1653914349463079  0.7453168627207347  0.9958726832110116
  0.4895632271280945  0.4098882964772983  0.9939130752114309
  0.3282073041100020  0.5860279029063378  0.2631103568375792
  0.1818867266644446  0.7561403959235093  0.5125900476816909
  0.8402177651815137  0.0806775278464045  0.9837446743092499
  0.6656481994034067  0.2462797158536034  0.2584421756205089
  0.4936717430582860  0.4124613924817382  0.5075694838732616
  0.3212621153482971  0.5809344319637333  0.7558903163069530
  0.8176261696958775  0.0939364047865041  0.5106553302916481
  0.6651785828191734  0.2495033723539279  0.7513001948897156
  0.5011635584887486  0.7504075614556385  0.0056830637692116
  0.3373402898237075  0.9183192878847777  0.2605096868274401
  0.8495880040640102  0.4069126764351196  0.0192393777698641
  0.6693967487426562  0.5833762496086550  0.2416585548445696
  0.4875840082348475  0.7507551609796153  0.5019595215881054
  0.3353054372028481  0.9168921162077623  0.7185193334010975
  0.9907279123258306  0.2674819640670307  0.2963403149359038
  0.8420744381853495  0.4152238302328328  0.5059289521202572
  0.6728523509619464  0.5843663779507580  0.7588511595588159
  0.9905171134106325  0.2440976056078128  0.7550081071839756
  0.8336752062434343  0.7441711570559377  0.0052430546169333
  0.6676115746210058  0.9129631050406246  0.2509409400807030
  0.0043096431349952  0.5827111156128666  0.2942380490057559
  0.8235795937859649  0.7520766626021071  0.5150822534057369
  0.6715951855744109  0.9142301241408859  0.7350664481809019
  0.0129684286085379  0.5766283602481721  0.7640062652723287
  0.9948570587819248  0.9117799051796851  0.2463873721578338
  0.0067059018848497  0.9341329805924730  0.6931732640420876
  0.0857562578106368  0.1454168273081322  0.9437393879237987
  0.0852512348640460  0.1748098166309617  0.5145033546928062
  0.0910274418446235  0.4802320498331198  0.9880307694467376
  0.4190247159726184  0.1725226638393238  0.9819369834415781
  0.2525522320280231  0.3397333380488590  0.2490515788112972
  0.0859498674336336  0.4938719092636035  0.5162324609067284
  0.4159342429381994  0.1655977829216226  0.4953331805203121
  0.2485814428509130  0.3413264320526892  0.7502862470802469
  0.0816524347160126  0.8111965958393057  0.0057596937344115
  0.4161111503742063  0.4851474704777274  0.0003760074811083
  0.2530526419426593  0.6627287398284167  0.2804314806640775
  0.0838389971497691  0.8460107241323414  0.5003371609580398
  0.7495455094143182  0.1609624570118555  0.9943812725783161
  0.5824801722752397  0.3296725653185177  0.2487683686311684
  0.4066636061736233  0.5099907461990085  0.5040794077009707
  0.2468747750725413  0.6645079961065292  0.7410496536697408
  0.7461783935204238  0.1655531592871000  0.4949052703199541
  0.5818026999939718  0.3252454029948524  0.7557423869616855
  0.4202936785070577  0.8373969243573924  0.0045920050999939
  0.2480810070912582  0.0084189214402173  0.2504985801043702
  0.7514045792384962  0.5015900244000449  0.0081031502177495
  0.5864478986983883  0.6685191119913299  0.2706332059950114
  0.4173904572656113  0.8235876457257021  0.5015694967066864
  0.2513275535105350  0.0115178207470095  0.7137537719919038
  0.9176069951309174  0.3362635452285829  0.2741008033429750
  0.7501755764059581  0.5153886696506262  0.5034965390166946
  0.5875936183987065  0.6660059149649982  0.7380066893269301
  0.9232244635948987  0.3147384364852570  0.7595666797563183
  0.7522670014082564  0.8266191447549147  0.0022152465404943
  0.5789015059253586  0.0020305331161197  0.2378831897910274
  0.9156175542537994  0.6704753531543091  0.2766183176658359
  0.7517680580607120  0.8330215826868965  0.5101544951237642
  0.5749302546144364  0.0139101422524135  0.7428899757173042
  0.9185695476844842  0.6700778790258113  0.7686633526412834
  0.9145369287540177  0.9913490631005146  0.2143735204972828
  0.9101155468607800  0.0264092520414536  0.7154069513514685
  0.1566379696666402  0.0084610561464444  0.1141552075977188
  0.1730119744617156  0.0131607320694229  0.6060193954525843
  0.1858661382070323  0.3485247673261824  0.1248556759354216
  0.4967419537570024  0.0022620075605957  0.1206571335788595
  0.3306130294373162  0.1630910044089333  0.3672332023247620
  0.1653958282120342  0.3305443548029245  0.6298437715049658
  0.4861019652220122  0.0101479703354883  0.6194809830213401
  0.3321064352610321  0.1648745362566615  0.8608682675550199
  0.1726699597321897  0.6658110077707917  0.1319108721796951
  0.4910679168458216  0.3336928512624269  0.1212149349381590
  0.3303648266456420  0.5067632175842434  0.3828828807088485
  0.1787188951036569  0.6680566775885737  0.6381865818591166
  0.8433582509112370  0.9967668684108375  0.1202105294798841
  0.6666859220171943  0.1705519550216295  0.3724755153277641
  0.4971231548445871  0.3206252066255644  0.6254513804363455
  0.3230179851692228  0.4878301580009676  0.8815693146877095
  0.8277527118993078  0.0093663070810450  0.6048918153823308
  0.6702396572101605  0.1598733995723265  0.8674055451948206
  0.5024211794001729  0.6673719646038734  0.1330996691696882
  0.3388228028077194  0.8437645044153754  0.3788373903871971
  0.8413633862118104  0.3419014277226680  0.1339849686926442
  0.6738459378576707  0.5139763341706356  0.3858309951970114
  0.4953768644156327  0.6696640745768434  0.6245633377354238
  0.3316900072733873  0.8324555340970718  0.8725663359581404
  0.0064113859211972  0.1952192451771140  0.3741163119632631
  0.8334477684983383  0.3281828495426353  0.6321826715731191
  0.6688976838400933  0.5036778041869212  0.8764658616156566
  0.0217668874454020  0.1529399137000738  0.8549536432553637
  0.8268243244211035  0.6660441467077831  0.1330233603408502
  0.6645467378034837  0.8301256590763515  0.3824403519953918
  0.9992447774232929  0.4717293353483356  0.3900388194403135
  0.8246554376276123  0.6731410748222615  0.6307824510555875
  0.6737373569463543  0.8272330306685944  0.8688141156428415
  0.0127902321674753  0.4808060323464503  0.8825559125913003
  0.9971079201705351  0.8529664474684466  0.3672778995379389
  0.0088794909085479  0.7998155233013975  0.8949289061241998
  0.0816235802927920  0.0011355099267760  0.2207306429218718
  0.0885563848176787  0.0271043604725776  0.7186936872977085
  0.0846315051380202  0.3449356412093181  0.2835173237378967
  0.4147068411824293  0.0010710480255156  0.2472065962106171
  0.2484437775595794  0.1698826054167384  0.4943624950499697
  0.0865575391916877  0.3268826912265297  0.7575868638036596
  0.4155791580513437  0.0055537370157310  0.7343086123517040
  0.2458031462385009  0.1764685607201670  0.9761400079919369
  0.0850957687485092  0.6674795280556651  0.2738860333343709
  0.4130783575956940  0.3306168015471798  0.2396690172780467
  0.2460041589550315  0.5069418649514716  0.5133724755970164
  0.0883623572636978  0.6594446179824232  0.7703138904191675
  0.7510609551156406  0.0025976848603264  0.2581684988208082
  0.5799507657628951  0.1671664245671494  0.5042499461626875
  0.4136178841377856  0.3285622421107206  0.7638296813307761
  0.2527148551556095  0.4918738387623875  0.9951487946265800
  0.7472808385604139  0.0100233279898063  0.7334436085438796
  0.5784497215069209  0.1625110423374068  0.9758594622172794
  0.4158293241959612  0.6722539060071924  0.2814461365453624
  0.2515686695514319  0.8337177289705338  0.5101827725629562
  0.7532732970445295  0.3373989076124744  0.2620218462687873
  0.5896887162642770  0.5156440030788403  0.5088779778371375
  0.4137180118513513  0.6718668823309386  0.7367019217940225
  0.2516899721661687  0.8284052831269690  0.9953757956007507
  0.9143467216985854  0.1800557362227480  0.5234903342030464
  0.7512736711985113  0.3304364994914124  0.7481667672553414
  0.5846806526847601  0.4957048059446691  0.0028680236677943
  0.9151021943648345  0.1499179087766436  0.9640781847941966
  0.7492034018136167  0.6623917685432090  0.2799867231806914
  0.5857016842516671  0.8253311478603749  0.5034141858143002
  0.9251775330721870  0.4777318829194215  0.4965115046434363
  0.7521148418790418  0.6690003600309851  0.7376528530969892
  0.5778104535807103  0.8315204788320898  0.0080385831184344
  0.9216040881162684  0.4751375176483918  0.0035097462521989
  0.9151328718789955  0.8439316688739638  0.4988256183901782
  0.9183813839610835  0.8120342222634989  0.0238203327180884
  0.9906236279489136  0.1321171825611529  0.0928917732772661
  0.0208630106100642  0.1657321142641734  0.6218851259719642
  0.0010245738798815  0.4704292681917011  0.1334801082902572
  0.3296251938810357  0.1719683906391793  0.1181457878086221
  0.1556799744805488  0.3329126676507386  0.3841190268408710
  0.0069471170373276  0.4947329722907412  0.6294638245405011
  0.3365702805803537  0.1609057652008303  0.6143206253754343
  0.1700524070921645  0.3419905395535920  0.8723794169321266
  0.9917963132374794  0.8193258373910481  0.1252390217246599
  0.3312063488408512  0.4888744125932618  0.1308576316307253
  0.1792258529545734  0.6643704397632817  0.3856074955705608
  0.0004626722165426  0.8639126225193650  0.6225876791965987
  0.6684748585349354  0.1596735158978859  0.1249523301552102
  0.4942893992436908  0.3270408374632368  0.3763421449444735
  0.3242489249446905  0.5062937614258445  0.6279368859666477
  0.1650628187822818  0.6632083788862886  0.8827298180071352
  0.6524135877417905  0.1659739476634385  0.6239216409799226
  0.4934423516841164  0.3331753644887598  0.8767310032084765
  0.3348006698574153  0.8309669307732577  0.1313203784527772
  0.1736023502137556  0.0134689283981828  0.3684942375103475
  0.6715984343043004  0.5030930652456362  0.1328381014224789
  0.5099425610016013  0.6687893295169829  0.3802467240649321
  0.3328733388400948  0.8443481681608631  0.6257020242694082
  0.1646478663303199  0.0221287684315357  0.8442865876133467
  0.8365117600014145  0.3307987178694987  0.3848533104486975
  0.6712194544524763  0.5101175335489074  0.6252855397550050
  0.5002367103144323  0.6676355789149682  0.8785844496013056
  0.8459024203061034  0.3279400340441896  0.8807763685388181
  0.6667249373871655  0.8266158019991465  0.1335733503511136
  0.4861321804825067  0.0027038715878760  0.3713431263692968
  0.8167054565791005  0.6646972303672030  0.3841860462458442
  0.6716931156517560  0.8361144659549637  0.6279811165387841
  0.4936662125039746  0.0083441045095682  0.8632568005488821
  0.8356054818571010  0.6689193885990150  0.8847073919894157
  0.8177183907132317  0.9960089225485120  0.3659024386517373
  0.8251433446422354  0.0183732104196324  0.8613506072551971
  0.0054719563439107  0.0807402302046540  0.1881400147825332
  0.9741812956740290  0.0883934869777931  0.7247251883135419
  0.0060525897204258  0.4197030818607388  0.2447404611261916
  0.3288327565416296  0.0900749725547172  0.2531655736954335
  0.1688888812349916  0.2546533844409851  0.4945447264541301
  0.0103870601219711  0.4077454316137050  0.7576617288835905
  0.3367210350731895  0.0896491004772670  0.7285645334612099
  0.1833977675340250  0.2477821567925886  0.9589055656035868
  0.9978111020467821  0.7470111680264395  0.2612756106742822
  0.3287955254931276  0.4159670663606363  0.2497247181139741
  0.1631114000952181  0.5816471356188657  0.5076274226095450
  0.0021654235477513  0.7475235743858022  0.7785645967640633
  0.6676888534806267  0.0845644563189225  0.2432929322821806
  0.4949397189562745  0.2516960346626362  0.5062954540570885
  0.3263063629253296  0.4150404909578427  0.7566197790043461
  0.1732383090162131  0.5760924177134328  0.9922984750595347
  0.6691749044799380  0.0898136387632107  0.7361141642485549
  0.4904183827169319  0.2490247734976663  0.9852439098179175
  0.3404108679956579  0.7496718718019793  0.2765645594037807
  0.1685943681057580  0.9238312545516294  0.4996506826721827
  0.6759554976187943  0.4153593442832104  0.2511449357238007
  0.4911017142190133  0.5915032961043707  0.5026858446029436
  0.3323656377386541  0.7505188356344306  0.7423843774843206
  0.1709652321484185  0.9111040820649521  0.0081553517048221
  0.8408363900441742  0.2565212499034786  0.5050927041361319
  0.6671328337126781  0.4144798113246750  0.7531625694664825
  0.5041999336031964  0.5798726475530316  0.0048298636333399
  0.8353130161360127  0.2404440509542027  0.9714753342479412
  0.6637968433479813  0.7494072696346521  0.2561411210464044
  0.4828717352725604  0.9177691926159639  0.4994987421537402
  0.8513546674103267  0.5813591765978430  0.5053418990798448
  0.6736528295589466  0.7508061456066528  0.7459212190818363
  0.4926680943711972  0.9105403280591275  0.0043578763093706
  0.8233920170831226  0.5819649947211971  0.0054575026267969
  0.8337410358688473  0.9207627465341517  0.4974251629931459
  0.8258361506902361  0.9106376744887328  0.0168240017428758
 
  0.00000000E+00  0.00000000E+00  0.00000000E+00
  0.00000000E+00  0.00000000E+00  0.00000000E+00
  0.00000000E+00  0.00000000E+00  0.00000000E+00
  0.00000000E+00  0.00000000E+00  0.00000000E+00
  0.00000000E+00  0.00000000E+00  0.00000000E+00
  0.00000000E+00  0.00000000E+00  0.00000000E+00
  0.00000000E+00  0.00000000E+00  0.00000000E+00
  0.00000000E+00  0.00000000E+00  0.00000000E+00
  0.00000000E+00  0.00000000E+00  0.00000000E+00
  0.00000000E+00  0.00000000E+00  0.00000000E+00
  0.00000000E+00  0.00000000E+00  0.00000000E+00
  0.00000000E+00  0.00000000E+00  0.00000000E+00
  0.00000000E+00  0.00000000E+00  0.00000000E+00
  0.00000000E+00  0.00000000E+00  0.00000000E+00
  0.00000000E+00  0.00000000E+00  0.00000000E+00
  0.00000000E+00  0.00000000E+00  0.00000000E+00
  0.00000000E+00  0.00000000E+00  0.00000000E+00
  0.00000000E+00  0.00000000E+00  0.00000000E+00
  0.00000000E+00  0.00000000E+00  0.00000000E+00
  0.00000000E+00  0.00000000E+00  0.00000000E+00
  0.00000000E+00  0.00000000E+00  0.00000000E+00
  0.00000000E+00  0.00000000E+00  0.00000000E+00
  0.00000000E+00  0.00000000E+00  0.00000000E+00
  0.00000000E+00  0.00000000E+00  0.00000000E+00
  0.00000000E+00  0.00000000E+00  0.00000000E+00
  0.00000000E+00  0.00000000E+00  0.00000000E+00
  0.00000000E+00  0.00000000E+00  0.00000000E+00
  0.00000000E+00  0.00000000E+00  0.00000000E+00
  0.00000000E+00  0.00000000E+00  0.00000000E+00
  0.00000000E+00  0.00000000E+00  0.00000000E+00
  0.00000000E+00  0.00000000E+00  0.00000000E+00
  0.00000000E+00  0.00000000E+00  0.00000000E+00
  0.00000000E+00  0.00000000E+00  0.00000000E+00
  0.00000000E+00  0.00000000E+00  0.00000000E+00
  0.00000000E+00  0.00000000E+00  0.00000000E+00
  0.00000000E+00  0.00000000E+00  0.00000000E+00
  0.00000000E+00  0.00000000E+00  0.00000000E+00
  0.00000000E+00  0.00000000E+00  0.00000000E+00
  0.00000000E+00  0.00000000E+00  0.00000000E+00
  0.00000000E+00  0.00000000E+00  0.00000000E+00
  0.00000000E+00  0.00000000E+00  0.00000000E+00
  0.00000000E+00  0.00000000E+00  0.00000000E+00
  0.00000000E+00  0.00000000E+00  0.00000000E+00
  0.00000000E+00  0.00000000E+00  0.00000000E+00
  0.00000000E+00  0.00000000E+00  0.00000000E+00
  0.00000000E+00  0.00000000E+00  0.00000000E+00
  0.00000000E+00  0.00000000E+00  0.00000000E+00
  0.00000000E+00  0.00000000E+00  0.00000000E+00
  0.00000000E+00  0.00000000E+00  0.00000000E+00
  0.00000000E+00  0.00000000E+00  0.00000000E+00
  0.00000000E+00  0.00000000E+00  0.00000000E+00
  0.00000000E+00  0.00000000E+00  0.00000000E+00
  0.00000000E+00  0.00000000E+00  0.00000000E+00
  0.00000000E+00  0.00000000E+00  0.00000000E+00
  0.00000000E+00  0.00000000E+00  0.00000000E+00
  0.00000000E+00  0.00000000E+00  0.00000000E+00
  0.00000000E+00  0.00000000E+00  0.00000000E+00
  0.00000000E+00  0.00000000E+00  0.00000000E+00
  0.00000000E+00  0.00000000E+00  0.00000000E+00
  0.00000000E+00  0.00000000E+00  0.00000000E+00
  0.00000000E+00  0.00000000E+00  0.00000000E+00
  0.00000000E+00  0.00000000E+00  0.00000000E+00
  0.00000000E+00  0.00000000E+00  0.00000000E+00
  0.00000000E+00  0.00000000E+00  0.00000000E+00
  0.00000000E+00  0.00000000E+00  0.00000000E+00
  0.00000000E+00  0.00000000E+00  0.00000000E+00
  0.00000000E+00  0.00000000E+00  0.00000000E+00
  0.00000000E+00  0.00000000E+00  0.00000000E+00
  0.00000000E+00  0.00000000E+00  0.00000000E+00
  0.00000000E+00  0.00000000E+00  0.00000000E+00
  0.00000000E+00  0.00000000E+00  0.00000000E+00
  0.00000000E+00  0.00000000E+00  0.00000000E+00
  0.00000000E+00  0.00000000E+00  0.00000000E+00
  0.00000000E+00  0.00000000E+00  0.00000000E+00
  0.00000000E+00  0.00000000E+00  0.00000000E+00
  0.00000000E+00  0.00000000E+00  0.00000000E+00
  0.00000000E+00  0.00000000E+00  0.00000000E+00
  0.00000000E+00  0.00000000E+00  0.00000000E+00
  0.00000000E+00  0.00000000E+00  0.00000000E+00
  0.00000000E+00  0.00000000E+00  0.00000000E+00
  0.00000000E+00  0.00000000E+00  0.00000000E+00
  0.00000000E+00  0.00000000E+00  0.00000000E+00
  0.00000000E+00  0.00000000E+00  0.00000000E+00
  0.00000000E+00  0.00000000E+00  0.00000000E+00
  0.00000000E+00  0.00000000E+00  0.00000000E+00
  0.00000000E+00  0.00000000E+00  0.00000000E+00
  0.00000000E+00  0.00000000E+00  0.00000000E+00
  0.00000000E+00  0.00000000E+00  0.00000000E+00
  0.00000000E+00  0.00000000E+00  0.00000000E+00
  0.00000000E+00  0.00000000E+00  0.00000000E+00
  0.00000000E+00  0.00000000E+00  0.00000000E+00
  0.00000000E+00  0.00000000E+00  0.00000000E+00
  0.00000000E+00  0.00000000E+00  0.00000000E+00
  0.00000000E+00  0.00000000E+00  0.00000000E+00
  0.00000000E+00  0.00000000E+00  0.00000000E+00
  0.00000000E+00  0.00000000E+00  0.00000000E+00
  0.00000000E+00  0.00000000E+00  0.00000000E+00
  0.00000000E+00  0.00000000E+00  0.00000000E+00
  0.00000000E+00  0.00000000E+00  0.00000000E+00
  0.00000000E+00  0.00000000E+00  0.00000000E+00
  0.00000000E+00  0.00000000E+00  0.00000000E+00
  0.00000000E+00  0.00000000E+00  0.00000000E+00
  0.00000000E+00  0.00000000E+00  0.00000000E+00
  0.00000000E+00  0.00000000E+00  0.00000000E+00
  0.00000000E+00  0.00000000E+00  0.00000000E+00
  0.00000000E+00  0.00000000E+00  0.00000000E+00
  0.00000000E+00  0.00000000E+00  0.00000000E+00
  0.00000000E+00  0.00000000E+00  0.00000000E+00
  0.00000000E+00  0.00000000E+00  0.00000000E+00
  0.00000000E+00  0.00000000E+00  0.00000000E+00
  0.00000000E+00  0.00000000E+00  0.00000000E+00
  0.00000000E+00  0.00000000E+00  0.00000000E+00
  0.00000000E+00  0.00000000E+00  0.00000000E+00
  0.00000000E+00  0.00000000E+00  0.00000000E+00
  0.00000000E+00  0.00000000E+00  0.00000000E+00
  0.00000000E+00  0.00000000E+00  0.00000000E+00
  0.00000000E+00  0.00000000E+00  0.00000000E+00
  0.00000000E+00  0.00000000E+00  0.00000000E+00
  0.00000000E+00  0.00000000E+00  0.00000000E+00
  0.00000000E+00  0.00000000E+00  0.00000000E+00
  0.00000000E+00  0.00000000E+00  0.00000000E+00
  0.00000000E+00  0.00000000E+00  0.00000000E+00
  0.00000000E+00  0.00000000E+00  0.00000000E+00
  0.00000000E+00  0.00000000E+00  0.00000000E+00
  0.00000000E+00  0.00000000E+00  0.00000000E+00
  0.00000000E+00  0.00000000E+00  0.00000000E+00
  0.00000000E+00  0.00000000E+00  0.00000000E+00
  0.00000000E+00  0.00000000E+00  0.00000000E+00
  0.00000000E+00  0.00000000E+00  0.00000000E+00
  0.00000000E+00  0.00000000E+00  0.00000000E+00
  0.00000000E+00  0.00000000E+00  0.00000000E+00
  0.00000000E+00  0.00000000E+00  0.00000000E+00
  0.00000000E+00  0.00000000E+00  0.00000000E+00
  0.00000000E+00  0.00000000E+00  0.00000000E+00
  0.00000000E+00  0.00000000E+00  0.00000000E+00
  0.00000000E+00  0.00000000E+00  0.00000000E+00
  0.00000000E+00  0.00000000E+00  0.00000000E+00
  0.00000000E+00  0.00000000E+00  0.00000000E+00
  0.00000000E+00  0.00000000E+00  0.00000000E+00
  0.00000000E+00  0.00000000E+00  0.00000000E+00
  0.00000000E+00  0.00000000E+00  0.00000000E+00
  0.00000000E+00  0.00000000E+00  0.00000000E+00
  0.00000000E+00  0.00000000E+00  0.00000000E+00
  0.00000000E+00  0.00000000E+00  0.00000000E+00
  0.00000000E+00  0.00000000E+00  0.00000000E+00
  0.00000000E+00  0.00000000E+00  0.00000000E+00
  0.00000000E+00  0.00000000E+00  0.00000000E+00
  0.00000000E+00  0.00000000E+00  0.00000000E+00
  0.00000000E+00  0.00000000E+00  0.00000000E+00
  0.00000000E+00  0.00000000E+00  0.00000000E+00
  0.00000000E+00  0.00000000E+00  0.00000000E+00
  0.00000000E+00  0.00000000E+00  0.00000000E+00
  0.00000000E+00  0.00000000E+00  0.00000000E+00
  0.00000000E+00  0.00000000E+00  0.00000000E+00
  0.00000000E+00  0.00000000E+00  0.00000000E+00
  0.00000000E+00  0.00000000E+00  0.00000000E+00
  0.00000000E+00  0.00000000E+00  0.00000000E+00
  0.00000000E+00  0.00000000E+00  0.00000000E+00
  0.00000000E+00  0.00000000E+00  0.00000000E+00
  0.00000000E+00  0.00000000E+00  0.00000000E+00
  0.00000000E+00  0.00000000E+00  0.00000000E+00
  0.00000000E+00  0.00000000E+00  0.00000000E+00
  0.00000000E+00  0.00000000E+00  0.00000000E+00
  0.00000000E+00  0.00000000E+00  0.00000000E+00
  0.00000000E+00  0.00000000E+00  0.00000000E+00
  0.00000000E+00  0.00000000E+00  0.00000000E+00
  0.00000000E+00  0.00000000E+00  0.00000000E+00
  0.00000000E+00  0.00000000E+00  0.00000000E+00
  0.00000000E+00  0.00000000E+00  0.00000000E+00
  0.00000000E+00  0.00000000E+00  0.00000000E+00
  0.00000000E+00  0.00000000E+00  0.00000000E+00
  0.00000000E+00  0.00000000E+00  0.00000000E+00
  0.00000000E+00  0.00000000E+00  0.00000000E+00
  0.00000000E+00  0.00000000E+00  0.00000000E+00
  0.00000000E+00  0.00000000E+00  0.00000000E+00
  0.00000000E+00  0.00000000E+00  0.00000000E+00
  0.00000000E+00  0.00000000E+00  0.00000000E+00
  0.00000000E+00  0.00000000E+00  0.00000000E+00
  0.00000000E+00  0.00000000E+00  0.00000000E+00
  0.00000000E+00  0.00000000E+00  0.00000000E+00
  0.00000000E+00  0.00000000E+00  0.00000000E+00
  0.00000000E+00  0.00000000E+00  0.00000000E+00
  0.00000000E+00  0.00000000E+00  0.00000000E+00
  0.00000000E+00  0.00000000E+00  0.00000000E+00
  0.00000000E+00  0.00000000E+00  0.00000000E+00
  0.00000000E+00  0.00000000E+00  0.00000000E+00
  0.00000000E+00  0.00000000E+00  0.00000000E+00
  0.00000000E+00  0.00000000E+00  0.00000000E+00
  0.00000000E+00  0.00000000E+00  0.00000000E+00
  0.00000000E+00  0.00000000E+00  0.00000000E+00
  0.00000000E+00  0.00000000E+00  0.00000000E+00
  0.00000000E+00  0.00000000E+00  0.00000000E+00
  0.00000000E+00  0.00000000E+00  0.00000000E+00
  0.00000000E+00  0.00000000E+00  0.00000000E+00
  0.00000000E+00  0.00000000E+00  0.00000000E+00
  0.00000000E+00  0.00000000E+00  0.00000000E+00
  0.00000000E+00  0.00000000E+00  0.00000000E+00
  0.00000000E+00  0.00000000E+00  0.00000000E+00
  0.00000000E+00  0.00000000E+00  0.00000000E+00
  0.00000000E+00  0.00000000E+00  0.00000000E+00
  0.00000000E+00  0.00000000E+00  0.00000000E+00
  0.00000000E+00  0.00000000E+00  0.00000000E+00
  0.00000000E+00  0.00000000E+00  0.00000000E+00
  0.00000000E+00  0.00000000E+00  0.00000000E+00
  0.00000000E+00  0.00000000E+00  0.00000000E+00
  0.00000000E+00  0.00000000E+00  0.00000000E+00
  0.00000000E+00  0.00000000E+00  0.00000000E+00
  0.00000000E+00  0.00000000E+00  0.00000000E+00
  0.00000000E+00  0.00000000E+00  0.00000000E+00
  0.00000000E+00  0.00000000E+00  0.00000000E+00
  0.00000000E+00  0.00000000E+00  0.00000000E+00
  0.00000000E+00  0.00000000E+00  0.00000000E+00
  0.00000000E+00  0.00000000E+00  0.00000000E+00
  0.00000000E+00  0.00000000E+00  0.00000000E+00
  0.00000000E+00  0.00000000E+00  0.00000000E+00
  0.00000000E+00  0.00000000E+00  0.00000000E+00
  0.00000000E+00  0.00000000E+00  0.00000000E+00
  0.00000000E+00  0.00000000E+00  0.00000000E+00
  0.00000000E+00  0.00000000E+00  0.00000000E+00
  0.00000000E+00  0.00000000E+00  0.00000000E+00
  0.00000000E+00  0.00000000E+00  0.00000000E+00
  0.00000000E+00  0.00000000E+00  0.00000000E+00
  0.00000000E+00  0.00000000E+00  0.00000000E+00
  0.00000000E+00  0.00000000E+00  0.00000000E+00
  0.00000000E+00  0.00000000E+00  0.00000000E+00
  0.00000000E+00  0.00000000E+00  0.00000000E+00
  0.00000000E+00  0.00000000E+00  0.00000000E+00
  0.00000000E+00  0.00000000E+00  0.00000000E+00
  0.00000000E+00  0.00000000E+00  0.00000000E+00
  0.00000000E+00  0.00000000E+00  0.00000000E+00
  0.00000000E+00  0.00000000E+00  0.00000000E+00
  0.00000000E+00  0.00000000E+00  0.00000000E+00
  0.00000000E+00  0.00000000E+00  0.00000000E+00
  0.00000000E+00  0.00000000E+00  0.00000000E+00
  0.00000000E+00  0.00000000E+00  0.00000000E+00
  0.00000000E+00  0.00000000E+00  0.00000000E+00
  0.00000000E+00  0.00000000E+00  0.00000000E+00
  0.00000000E+00  0.00000000E+00  0.00000000E+00
  0.00000000E+00  0.00000000E+00  0.00000000E+00
  0.00000000E+00  0.00000000E+00  0.00000000E+00
  0.00000000E+00  0.00000000E+00  0.00000000E+00
  0.00000000E+00  0.00000000E+00  0.00000000E+00
  0.00000000E+00  0.00000000E+00  0.00000000E+00
  0.00000000E+00  0.00000000E+00  0.00000000E+00
  0.00000000E+00  0.00000000E+00  0.00000000E+00
  0.00000000E+00  0.00000000E+00  0.00000000E+00
  0.00000000E+00  0.00000000E+00  0.00000000E+00
  0.00000000E+00  0.00000000E+00  0.00000000E+00
  0.00000000E+00  0.00000000E+00  0.00000000E+00
  0.00000000E+00  0.00000000E+00  0.00000000E+00
  0.00000000E+00  0.00000000E+00  0.00000000E+00
  0.00000000E+00  0.00000000E+00  0.00000000E+00
