       N       E                     dE             d eps       ncg     rms          rms(c)
DAV:   1     0.114796841758E+05    0.11480E+05   -0.28862E+05148616   0.181E+03
DAV:   2     0.149754348938E+04   -0.99821E+04   -0.93658E+04203336   0.817E+02
DAV:   3    -0.325645457710E+03   -0.18232E+04   -0.16900E+04247464   0.366E+02
DAV:   4    -0.600030026134E+03   -0.27438E+03   -0.26040E+03278816   0.182E+02
DAV:   5    -0.633613885664E+03   -0.33584E+02   -0.32097E+02280752   0.770E+01
DAV:   6    -0.640167745035E+03   -0.65539E+01   -0.63834E+01280768   0.318E+01
DAV:   7    -0.641452578358E+03   -0.12848E+01   -0.12662E+01280760   0.161E+01
DAV:   8    -0.641700688876E+03   -0.24811E+00   -0.24596E+00280768   0.671E+00
DAV:   9    -0.641746117817E+03   -0.45429E-01   -0.45182E-01280760   0.309E+00
DAV:  10    -0.641754567464E+03   -0.84496E-02   -0.84172E-02280768   0.120E+00
DAV:  11    -0.641756188396E+03   -0.16209E-02   -0.16161E-02280768   0.533E-01
DAV:  12    -0.641756514558E+03   -0.32616E-03   -0.32536E-03280768   0.211E-01
DAV:  13    -0.641756582571E+03   -0.68013E-04   -0.67873E-04280760   0.948E-02
DAV:  14    -0.641756597250E+03   -0.14679E-04   -0.14653E-04280744   0.385E-02
DAV:  15    -0.641756600493E+03   -0.32428E-05   -0.32379E-05255968   0.176E-02
DAV:  16    -0.641756601222E+03   -0.72896E-06   -0.72785E-06205824   0.728E-03
DAV:  17    -0.641756601385E+03   -0.16371E-06   -0.16426E-06157960   0.346E-03
DAV:  18    -0.641756601424E+03   -0.38621E-07   -0.39158E-07144464   0.188E-03
   1 F= -.64175660E+03 E0= -.64175660E+03  d E =0.000000E+00
