generated by phonopy                    
   1.00000000000000     
     0.0000000000000000    3.3505143857233737    3.3505143857234470
     3.3505143857234021    0.0000000000000000    3.3505143857234470
     3.3505143857234021    3.3505143857233737    0.0000000000000000
   Ca   Y    Hf   Ce   H 
     1     1     1     1    24
Direct
  0.2500000000000000  0.2500000000000000  0.2500000000000000
  0.7500000000000000  0.7500000000000000  0.7500000000000000
  0.0000000000000000  0.0000000000000000  0.0000000000000000
  0.5000000000000000  0.5000000000000000  0.5000000000000000
  0.1260131667871676  0.8834405926212412  0.6213166803042682
  0.8834405926212412  0.1260131667871676  0.3692295602873372
  0.6213166803042682  0.3692295602873372  0.1260131667871676
  0.3692295602873372  0.6213166803042682  0.8834405926212412
  0.6213166803042682  0.1260131667871676  0.8834405926212412
  0.3692295602873372  0.8834405926212412  0.1260131667871676
  0.1260131667871676  0.6213166803042682  0.3692295602873372
  0.8834405926212412  0.3692295602873372  0.6213166803042682
  0.8834405926212412  0.6213166803042682  0.1260131667871676
  0.1260131667871676  0.3692295602873372  0.8834405926212412
  0.3692295602873372  0.1260131667871676  0.6213166803042682
  0.6213166803042682  0.8834405926212412  0.3692295602873372
  0.1260131667871676  0.3692295602873372  0.6213166803042682
  0.3692295602873372  0.1260131667871676  0.8834405926212412
  0.6213166803042682  0.8834405926212412  0.1260131667871676
  0.8834405926212412  0.6213166803042682  0.3692295602873372
  0.6213166803042682  0.1260131667871676  0.3692295602873372
  0.8834405926212412  0.3692295602873372  0.1260131667871676
  0.1260131667871676  0.6213166803042682  0.8834405926212412
  0.3692295602873372  0.8834405926212412  0.6213166803042682
  0.3692295602873372  0.6213166803042682  0.1260131667871676
  0.1260131667871676  0.8834405926212412  0.3692295602873372
  0.8834405926212412  0.1260131667871676  0.6213166803042682
  0.6213166803042682  0.3692295602873372  0.8834405926212412
 
  0.00000000E+00  0.00000000E+00  0.00000000E+00
  0.00000000E+00  0.00000000E+00  0.00000000E+00
  0.00000000E+00  0.00000000E+00  0.00000000E+00
  0.00000000E+00  0.00000000E+00  0.00000000E+00
  0.00000000E+00  0.00000000E+00  0.00000000E+00
  0.00000000E+00  0.00000000E+00  0.00000000E+00
  0.00000000E+00  0.00000000E+00  0.00000000E+00
  0.00000000E+00  0.00000000E+00  0.00000000E+00
  0.00000000E+00  0.00000000E+00  0.00000000E+00
  0.00000000E+00  0.00000000E+00  0.00000000E+00
  0.00000000E+00  0.00000000E+00  0.00000000E+00
  0.00000000E+00  0.00000000E+00  0.00000000E+00
  0.00000000E+00  0.00000000E+00  0.00000000E+00
  0.00000000E+00  0.00000000E+00  0.00000000E+00
  0.00000000E+00  0.00000000E+00  0.00000000E+00
  0.00000000E+00  0.00000000E+00  0.00000000E+00
  0.00000000E+00  0.00000000E+00  0.00000000E+00
  0.00000000E+00  0.00000000E+00  0.00000000E+00
  0.00000000E+00  0.00000000E+00  0.00000000E+00
  0.00000000E+00  0.00000000E+00  0.00000000E+00
  0.00000000E+00  0.00000000E+00  0.00000000E+00
  0.00000000E+00  0.00000000E+00  0.00000000E+00
  0.00000000E+00  0.00000000E+00  0.00000000E+00
  0.00000000E+00  0.00000000E+00  0.00000000E+00
  0.00000000E+00  0.00000000E+00  0.00000000E+00
  0.00000000E+00  0.00000000E+00  0.00000000E+00
  0.00000000E+00  0.00000000E+00  0.00000000E+00
  0.00000000E+00  0.00000000E+00  0.00000000E+00
