generated by phonopy                    
   1.00000000000000     
     0.0000000000000000    3.2262184307858215    3.2262184307859076
     3.2262184307858592    0.0000000000000000    3.2262184307859076
     3.2262184307858592    3.2262184307858215    0.0000000000000000
   K    Sc   Mg   Hf   H 
     1     1     1     1    24
Direct
  0.2500000000000000  0.2500000000000000  0.2500000000000000
  0.7500000000000000  0.7500000000000000  0.7500000000000000
  0.0000000000000000  0.0000000000000000  0.0000000000000000
  0.5000000000000000  0.5000000000000000  0.5000000000000000
  0.1103652762986940  0.8895535474259901  0.6330208165991920
  0.8895535474259901  0.1103652762986940  0.3670603596761310
  0.6330208165991920  0.3670603596761310  0.1103652762986940
  0.3670603596761310  0.6330208165991920  0.8895535474259901
  0.6330208165991920  0.1103652762986940  0.8895535474259901
  0.3670603596761310  0.8895535474259901  0.1103652762986940
  0.1103652762986940  0.6330208165991920  0.3670603596761310
  0.8895535474259901  0.3670603596761310  0.6330208165991920
  0.8895535474259901  0.6330208165991920  0.1103652762986940
  0.1103652762986940  0.3670603596761310  0.8895535474259901
  0.3670603596761310  0.1103652762986940  0.6330208165991920
  0.6330208165991920  0.8895535474259901  0.3670603596761310
  0.1103652762986940  0.3670603596761310  0.6330208165991920
  0.3670603596761310  0.1103652762986940  0.8895535474259901
  0.6330208165991920  0.8895535474259901  0.1103652762986940
  0.8895535474259901  0.6330208165991920  0.3670603596761310
  0.6330208165991920  0.1103652762986940  0.3670603596761310
  0.8895535474259901  0.3670603596761310  0.1103652762986940
  0.1103652762986940  0.6330208165991920  0.8895535474259901
  0.3670603596761310  0.8895535474259901  0.6330208165991920
  0.3670603596761310  0.6330208165991920  0.1103652762986940
  0.1103652762986940  0.8895535474259901  0.3670603596761310
  0.8895535474259901  0.1103652762986940  0.6330208165991920
  0.6330208165991920  0.3670603596761310  0.8895535474259901
 
  0.00000000E+00  0.00000000E+00  0.00000000E+00
  0.00000000E+00  0.00000000E+00  0.00000000E+00
  0.00000000E+00  0.00000000E+00  0.00000000E+00
  0.00000000E+00  0.00000000E+00  0.00000000E+00
  0.00000000E+00  0.00000000E+00  0.00000000E+00
  0.00000000E+00  0.00000000E+00  0.00000000E+00
  0.00000000E+00  0.00000000E+00  0.00000000E+00
  0.00000000E+00  0.00000000E+00  0.00000000E+00
  0.00000000E+00  0.00000000E+00  0.00000000E+00
  0.00000000E+00  0.00000000E+00  0.00000000E+00
  0.00000000E+00  0.00000000E+00  0.00000000E+00
  0.00000000E+00  0.00000000E+00  0.00000000E+00
  0.00000000E+00  0.00000000E+00  0.00000000E+00
  0.00000000E+00  0.00000000E+00  0.00000000E+00
  0.00000000E+00  0.00000000E+00  0.00000000E+00
  0.00000000E+00  0.00000000E+00  0.00000000E+00
  0.00000000E+00  0.00000000E+00  0.00000000E+00
  0.00000000E+00  0.00000000E+00  0.00000000E+00
  0.00000000E+00  0.00000000E+00  0.00000000E+00
  0.00000000E+00  0.00000000E+00  0.00000000E+00
  0.00000000E+00  0.00000000E+00  0.00000000E+00
  0.00000000E+00  0.00000000E+00  0.00000000E+00
  0.00000000E+00  0.00000000E+00  0.00000000E+00
  0.00000000E+00  0.00000000E+00  0.00000000E+00
  0.00000000E+00  0.00000000E+00  0.00000000E+00
  0.00000000E+00  0.00000000E+00  0.00000000E+00
  0.00000000E+00  0.00000000E+00  0.00000000E+00
  0.00000000E+00  0.00000000E+00  0.00000000E+00
