generated by phonopy                    
   1.00000000000000     
     0.0000000000000000    3.3070072722088772    3.3070072722089576
     3.3070072722089097    0.0000000000000000    3.3070072722089576
     3.3070072722089097    3.3070072722088772    0.0000000000000000
   Na   Sr   Mg   Y    H 
     1     1     1     1    24
Direct
  0.2500000000000000  0.2500000000000000  0.2500000000000000
  0.7500000000000000  0.7500000000000000  0.7500000000000000
  0.0000000000000000  0.0000000000000000  0.0000000000000000
  0.5000000000000000  0.5000000000000000  0.5000000000000000
  0.1248832342564867  0.9010863591373521  0.6211751519159918
  0.9010863591373521  0.1248832342564867  0.3528552546901764
  0.6211751519159918  0.3528552546901764  0.1248832342564867
  0.3528552546901764  0.6211751519159918  0.9010863591373521
  0.6211751519159918  0.1248832342564867  0.9010863591373521
  0.3528552546901764  0.9010863591373521  0.1248832342564867
  0.1248832342564867  0.6211751519159918  0.3528552546901764
  0.9010863591373521  0.3528552546901764  0.6211751519159918
  0.9010863591373521  0.6211751519159918  0.1248832342564867
  0.1248832342564867  0.3528552546901764  0.9010863591373521
  0.3528552546901764  0.1248832342564867  0.6211751519159918
  0.6211751519159918  0.9010863591373521  0.3528552546901764
  0.1248832342564867  0.3528552546901764  0.6211751519159918
  0.3528552546901764  0.1248832342564867  0.9010863591373521
  0.6211751519159918  0.9010863591373521  0.1248832342564867
  0.9010863591373521  0.6211751519159918  0.3528552546901764
  0.6211751519159918  0.1248832342564867  0.3528552546901764
  0.9010863591373521  0.3528552546901764  0.1248832342564867
  0.1248832342564867  0.6211751519159918  0.9010863591373521
  0.3528552546901764  0.9010863591373521  0.6211751519159918
  0.3528552546901764  0.6211751519159918  0.1248832342564867
  0.1248832342564867  0.9010863591373521  0.3528552546901764
  0.9010863591373521  0.1248832342564867  0.6211751519159918
  0.6211751519159918  0.3528552546901764  0.9010863591373521
 
  0.00000000E+00  0.00000000E+00  0.00000000E+00
  0.00000000E+00  0.00000000E+00  0.00000000E+00
  0.00000000E+00  0.00000000E+00  0.00000000E+00
  0.00000000E+00  0.00000000E+00  0.00000000E+00
  0.00000000E+00  0.00000000E+00  0.00000000E+00
  0.00000000E+00  0.00000000E+00  0.00000000E+00
  0.00000000E+00  0.00000000E+00  0.00000000E+00
  0.00000000E+00  0.00000000E+00  0.00000000E+00
  0.00000000E+00  0.00000000E+00  0.00000000E+00
  0.00000000E+00  0.00000000E+00  0.00000000E+00
  0.00000000E+00  0.00000000E+00  0.00000000E+00
  0.00000000E+00  0.00000000E+00  0.00000000E+00
  0.00000000E+00  0.00000000E+00  0.00000000E+00
  0.00000000E+00  0.00000000E+00  0.00000000E+00
  0.00000000E+00  0.00000000E+00  0.00000000E+00
  0.00000000E+00  0.00000000E+00  0.00000000E+00
  0.00000000E+00  0.00000000E+00  0.00000000E+00
  0.00000000E+00  0.00000000E+00  0.00000000E+00
  0.00000000E+00  0.00000000E+00  0.00000000E+00
  0.00000000E+00  0.00000000E+00  0.00000000E+00
  0.00000000E+00  0.00000000E+00  0.00000000E+00
  0.00000000E+00  0.00000000E+00  0.00000000E+00
  0.00000000E+00  0.00000000E+00  0.00000000E+00
  0.00000000E+00  0.00000000E+00  0.00000000E+00
  0.00000000E+00  0.00000000E+00  0.00000000E+00
  0.00000000E+00  0.00000000E+00  0.00000000E+00
  0.00000000E+00  0.00000000E+00  0.00000000E+00
  0.00000000E+00  0.00000000E+00  0.00000000E+00
