generated by phonopy                    
   1.00000000000000     
     0.0000000000000000    3.3552509950298832    3.3552509950299774
     3.3552509950299223    0.0000000000000000    3.3552509950299774
     3.3552509950299223    3.3552509950298832    0.0000000000000000
   Na   Zr   Ca   Sc   H 
     1     1     1     1    24
Direct
  0.2500000000000000  0.2500000000000000  0.2500000000000000
  0.7500000000000000  0.7500000000000000  0.7500000000000000
  0.0000000000000000  0.0000000000000000  0.0000000000000000
  0.5000000000000000  0.5000000000000000  0.5000000000000000
  0.1368519779162796  0.8859564659253039  0.6139521818077966
  0.8859564659253039  0.1368519779162796  0.3632393743506199
  0.6139521818077966  0.3632393743506199  0.1368519779162796
  0.3632393743506199  0.6139521818077966  0.8859564659253039
  0.6139521818077966  0.1368519779162796  0.8859564659253039
  0.3632393743506199  0.8859564659253039  0.1368519779162796
  0.1368519779162796  0.6139521818077966  0.3632393743506199
  0.8859564659253039  0.3632393743506199  0.6139521818077966
  0.8859564659253039  0.6139521818077966  0.1368519779162796
  0.1368519779162796  0.3632393743506199  0.8859564659253039
  0.3632393743506199  0.1368519779162796  0.6139521818077966
  0.6139521818077966  0.8859564659253039  0.3632393743506199
  0.1368519779162796  0.3632393743506199  0.6139521818077966
  0.3632393743506199  0.1368519779162796  0.8859564659253039
  0.6139521818077966  0.8859564659253039  0.1368519779162796
  0.8859564659253039  0.6139521818077966  0.3632393743506199
  0.6139521818077966  0.1368519779162796  0.3632393743506199
  0.8859564659253039  0.3632393743506199  0.1368519779162796
  0.1368519779162796  0.6139521818077966  0.8859564659253039
  0.3632393743506199  0.8859564659253039  0.6139521818077966
  0.3632393743506199  0.6139521818077966  0.1368519779162796
  0.1368519779162796  0.8859564659253039  0.3632393743506199
  0.8859564659253039  0.1368519779162796  0.6139521818077966
  0.6139521818077966  0.3632393743506199  0.8859564659253039
 
  0.00000000E+00  0.00000000E+00  0.00000000E+00
  0.00000000E+00  0.00000000E+00  0.00000000E+00
  0.00000000E+00  0.00000000E+00  0.00000000E+00
  0.00000000E+00  0.00000000E+00  0.00000000E+00
  0.00000000E+00  0.00000000E+00  0.00000000E+00
  0.00000000E+00  0.00000000E+00  0.00000000E+00
  0.00000000E+00  0.00000000E+00  0.00000000E+00
  0.00000000E+00  0.00000000E+00  0.00000000E+00
  0.00000000E+00  0.00000000E+00  0.00000000E+00
  0.00000000E+00  0.00000000E+00  0.00000000E+00
  0.00000000E+00  0.00000000E+00  0.00000000E+00
  0.00000000E+00  0.00000000E+00  0.00000000E+00
  0.00000000E+00  0.00000000E+00  0.00000000E+00
  0.00000000E+00  0.00000000E+00  0.00000000E+00
  0.00000000E+00  0.00000000E+00  0.00000000E+00
  0.00000000E+00  0.00000000E+00  0.00000000E+00
  0.00000000E+00  0.00000000E+00  0.00000000E+00
  0.00000000E+00  0.00000000E+00  0.00000000E+00
  0.00000000E+00  0.00000000E+00  0.00000000E+00
  0.00000000E+00  0.00000000E+00  0.00000000E+00
  0.00000000E+00  0.00000000E+00  0.00000000E+00
  0.00000000E+00  0.00000000E+00  0.00000000E+00
  0.00000000E+00  0.00000000E+00  0.00000000E+00
  0.00000000E+00  0.00000000E+00  0.00000000E+00
  0.00000000E+00  0.00000000E+00  0.00000000E+00
  0.00000000E+00  0.00000000E+00  0.00000000E+00
  0.00000000E+00  0.00000000E+00  0.00000000E+00
  0.00000000E+00  0.00000000E+00  0.00000000E+00
