generated by phonopy                    
   1.00000000000000     
     0.0000000000000000    3.3308006873111227    3.3308006873111879
     3.3308006873111511    0.0000000000000000    3.3308006873111879
     3.3308006873111511    3.3308006873111227    0.0000000000000000
   Na   Ca   Mg   Zr   H 
     1     1     1     1    24
Direct
  0.2500000000000000  0.2500000000000000  0.2500000000000000
  0.7500000000000000  0.7500000000000000  0.7500000000000000
  0.0000000000000000  0.0000000000000000  0.0000000000000000
  0.5000000000000000  0.5000000000000000  0.5000000000000000
  0.1174150330274912  0.8949146591438577  0.6261200335313148
  0.8949146591438577  0.1174150330274912  0.3615502742973220
  0.6261200335313148  0.3615502742973220  0.1174150330274912
  0.3615502742973220  0.6261200335313148  0.8949146591438577
  0.6261200335313148  0.1174150330274912  0.8949146591438577
  0.3615502742973220  0.8949146591438577  0.1174150330274912
  0.1174150330274912  0.6261200335313148  0.3615502742973220
  0.8949146591438577  0.3615502742973220  0.6261200335313148
  0.8949146591438577  0.6261200335313148  0.1174150330274912
  0.1174150330274912  0.3615502742973220  0.8949146591438577
  0.3615502742973220  0.1174150330274912  0.6261200335313148
  0.6261200335313148  0.8949146591438577  0.3615502742973220
  0.1174150330274912  0.3615502742973220  0.6261200335313148
  0.3615502742973220  0.1174150330274912  0.8949146591438577
  0.6261200335313148  0.8949146591438577  0.1174150330274912
  0.8949146591438577  0.6261200335313148  0.3615502742973220
  0.6261200335313148  0.1174150330274912  0.3615502742973220
  0.8949146591438577  0.3615502742973220  0.1174150330274912
  0.1174150330274912  0.6261200335313148  0.8949146591438577
  0.3615502742973220  0.8949146591438577  0.6261200335313148
  0.3615502742973220  0.6261200335313148  0.1174150330274912
  0.1174150330274912  0.8949146591438577  0.3615502742973220
  0.8949146591438577  0.1174150330274912  0.6261200335313148
  0.6261200335313148  0.3615502742973220  0.8949146591438577
 
  0.00000000E+00  0.00000000E+00  0.00000000E+00
  0.00000000E+00  0.00000000E+00  0.00000000E+00
  0.00000000E+00  0.00000000E+00  0.00000000E+00
  0.00000000E+00  0.00000000E+00  0.00000000E+00
  0.00000000E+00  0.00000000E+00  0.00000000E+00
  0.00000000E+00  0.00000000E+00  0.00000000E+00
  0.00000000E+00  0.00000000E+00  0.00000000E+00
  0.00000000E+00  0.00000000E+00  0.00000000E+00
  0.00000000E+00  0.00000000E+00  0.00000000E+00
  0.00000000E+00  0.00000000E+00  0.00000000E+00
  0.00000000E+00  0.00000000E+00  0.00000000E+00
  0.00000000E+00  0.00000000E+00  0.00000000E+00
  0.00000000E+00  0.00000000E+00  0.00000000E+00
  0.00000000E+00  0.00000000E+00  0.00000000E+00
  0.00000000E+00  0.00000000E+00  0.00000000E+00
  0.00000000E+00  0.00000000E+00  0.00000000E+00
  0.00000000E+00  0.00000000E+00  0.00000000E+00
  0.00000000E+00  0.00000000E+00  0.00000000E+00
  0.00000000E+00  0.00000000E+00  0.00000000E+00
  0.00000000E+00  0.00000000E+00  0.00000000E+00
  0.00000000E+00  0.00000000E+00  0.00000000E+00
  0.00000000E+00  0.00000000E+00  0.00000000E+00
  0.00000000E+00  0.00000000E+00  0.00000000E+00
  0.00000000E+00  0.00000000E+00  0.00000000E+00
  0.00000000E+00  0.00000000E+00  0.00000000E+00
  0.00000000E+00  0.00000000E+00  0.00000000E+00
  0.00000000E+00  0.00000000E+00  0.00000000E+00
  0.00000000E+00  0.00000000E+00  0.00000000E+00
