generated by phonopy                    
   1.00000000000000     
     0.0000000000000000    3.3358198040888047    3.3358198040888700
     3.3358198040888332    0.0000000000000000    3.3358198040888700
     3.3358198040888332    3.3358198040888047    0.0000000000000000
   Ca   Y    Sr   Zr   H 
     1     1     1     1    24
Direct
  0.2500000000000000  0.2500000000000000  0.2500000000000000
  0.7500000000000000  0.7500000000000000  0.7500000000000000
  0.0000000000000000  0.0000000000000000  0.0000000000000000
  0.5000000000000000  0.5000000000000000  0.5000000000000000
  0.1302619298649432  0.8799713377469018  0.6165791839603543
  0.8799713377469018  0.1302619298649432  0.3731875484278007
  0.6165791839603543  0.3731875484278007  0.1302619298649432
  0.3731875484278007  0.6165791839603543  0.8799713377469018
  0.6165791839603543  0.1302619298649432  0.8799713377469018
  0.3731875484278007  0.8799713377469018  0.1302619298649432
  0.1302619298649432  0.6165791839603543  0.3731875484278007
  0.8799713377469018  0.3731875484278007  0.6165791839603543
  0.8799713377469018  0.6165791839603543  0.1302619298649432
  0.1302619298649432  0.3731875484278007  0.8799713377469018
  0.3731875484278007  0.1302619298649432  0.6165791839603543
  0.6165791839603543  0.8799713377469018  0.3731875484278007
  0.1302619298649432  0.3731875484278007  0.6165791839603543
  0.3731875484278007  0.1302619298649432  0.8799713377469018
  0.6165791839603543  0.8799713377469018  0.1302619298649432
  0.8799713377469018  0.6165791839603543  0.3731875484278007
  0.6165791839603543  0.1302619298649432  0.3731875484278007
  0.8799713377469018  0.3731875484278007  0.1302619298649432
  0.1302619298649432  0.6165791839603543  0.8799713377469018
  0.3731875484278007  0.8799713377469018  0.6165791839603543
  0.3731875484278007  0.6165791839603543  0.1302619298649432
  0.1302619298649432  0.8799713377469018  0.3731875484278007
  0.8799713377469018  0.1302619298649432  0.6165791839603543
  0.6165791839603543  0.3731875484278007  0.8799713377469018
 
  0.00000000E+00  0.00000000E+00  0.00000000E+00
  0.00000000E+00  0.00000000E+00  0.00000000E+00
  0.00000000E+00  0.00000000E+00  0.00000000E+00
  0.00000000E+00  0.00000000E+00  0.00000000E+00
  0.00000000E+00  0.00000000E+00  0.00000000E+00
  0.00000000E+00  0.00000000E+00  0.00000000E+00
  0.00000000E+00  0.00000000E+00  0.00000000E+00
  0.00000000E+00  0.00000000E+00  0.00000000E+00
  0.00000000E+00  0.00000000E+00  0.00000000E+00
  0.00000000E+00  0.00000000E+00  0.00000000E+00
  0.00000000E+00  0.00000000E+00  0.00000000E+00
  0.00000000E+00  0.00000000E+00  0.00000000E+00
  0.00000000E+00  0.00000000E+00  0.00000000E+00
  0.00000000E+00  0.00000000E+00  0.00000000E+00
  0.00000000E+00  0.00000000E+00  0.00000000E+00
  0.00000000E+00  0.00000000E+00  0.00000000E+00
  0.00000000E+00  0.00000000E+00  0.00000000E+00
  0.00000000E+00  0.00000000E+00  0.00000000E+00
  0.00000000E+00  0.00000000E+00  0.00000000E+00
  0.00000000E+00  0.00000000E+00  0.00000000E+00
  0.00000000E+00  0.00000000E+00  0.00000000E+00
  0.00000000E+00  0.00000000E+00  0.00000000E+00
  0.00000000E+00  0.00000000E+00  0.00000000E+00
  0.00000000E+00  0.00000000E+00  0.00000000E+00
  0.00000000E+00  0.00000000E+00  0.00000000E+00
  0.00000000E+00  0.00000000E+00  0.00000000E+00
  0.00000000E+00  0.00000000E+00  0.00000000E+00
  0.00000000E+00  0.00000000E+00  0.00000000E+00
