generated by phonopy                    
   1.00000000000000     
     0.0000000000000000    3.3806534380468820    3.3806534380469691
     3.3806534380469202    0.0000000000000000    3.3806534380469691
     3.3806534380469202    3.3806534380468820    0.0000000000000000
   Ca   Y    Hf   Th   H 
     1     1     1     1    24
Direct
  0.2500000000000000  0.2500000000000000  0.2500000000000000
  0.7500000000000000  0.7500000000000000  0.7500000000000000
  0.0000000000000000  0.0000000000000000  0.0000000000000000
  0.5000000000000000  0.5000000000000000  0.5000000000000000
  0.1219009349720537  0.8874415422754609  0.6242167770011022
  0.8874415422754609  0.1219009349720537  0.3664407457513903
  0.6242167770011022  0.3664407457513903  0.1219009349720537
  0.3664407457513903  0.6242167770011022  0.8874415422754609
  0.6242167770011022  0.1219009349720537  0.8874415422754609
  0.3664407457513903  0.8874415422754609  0.1219009349720537
  0.1219009349720537  0.6242167770011022  0.3664407457513903
  0.8874415422754609  0.3664407457513903  0.6242167770011022
  0.8874415422754609  0.6242167770011022  0.1219009349720537
  0.1219009349720537  0.3664407457513903  0.8874415422754609
  0.3664407457513903  0.1219009349720537  0.6242167770011022
  0.6242167770011022  0.8874415422754609  0.3664407457513903
  0.1219009349720537  0.3664407457513903  0.6242167770011022
  0.3664407457513903  0.1219009349720537  0.8874415422754609
  0.6242167770011022  0.8874415422754609  0.1219009349720537
  0.8874415422754609  0.6242167770011022  0.3664407457513903
  0.6242167770011022  0.1219009349720537  0.3664407457513903
  0.8874415422754609  0.3664407457513903  0.1219009349720537
  0.1219009349720537  0.6242167770011022  0.8874415422754609
  0.3664407457513903  0.8874415422754609  0.6242167770011022
  0.3664407457513903  0.6242167770011022  0.1219009349720537
  0.1219009349720537  0.8874415422754609  0.3664407457513903
  0.8874415422754609  0.1219009349720537  0.6242167770011022
  0.6242167770011022  0.3664407457513903  0.8874415422754609
 
  0.00000000E+00  0.00000000E+00  0.00000000E+00
  0.00000000E+00  0.00000000E+00  0.00000000E+00
  0.00000000E+00  0.00000000E+00  0.00000000E+00
  0.00000000E+00  0.00000000E+00  0.00000000E+00
  0.00000000E+00  0.00000000E+00  0.00000000E+00
  0.00000000E+00  0.00000000E+00  0.00000000E+00
  0.00000000E+00  0.00000000E+00  0.00000000E+00
  0.00000000E+00  0.00000000E+00  0.00000000E+00
  0.00000000E+00  0.00000000E+00  0.00000000E+00
  0.00000000E+00  0.00000000E+00  0.00000000E+00
  0.00000000E+00  0.00000000E+00  0.00000000E+00
  0.00000000E+00  0.00000000E+00  0.00000000E+00
  0.00000000E+00  0.00000000E+00  0.00000000E+00
  0.00000000E+00  0.00000000E+00  0.00000000E+00
  0.00000000E+00  0.00000000E+00  0.00000000E+00
  0.00000000E+00  0.00000000E+00  0.00000000E+00
  0.00000000E+00  0.00000000E+00  0.00000000E+00
  0.00000000E+00  0.00000000E+00  0.00000000E+00
  0.00000000E+00  0.00000000E+00  0.00000000E+00
  0.00000000E+00  0.00000000E+00  0.00000000E+00
  0.00000000E+00  0.00000000E+00  0.00000000E+00
  0.00000000E+00  0.00000000E+00  0.00000000E+00
  0.00000000E+00  0.00000000E+00  0.00000000E+00
  0.00000000E+00  0.00000000E+00  0.00000000E+00
  0.00000000E+00  0.00000000E+00  0.00000000E+00
  0.00000000E+00  0.00000000E+00  0.00000000E+00
  0.00000000E+00  0.00000000E+00  0.00000000E+00
  0.00000000E+00  0.00000000E+00  0.00000000E+00
