generated by phonopy                    
   1.00000000000000     
     0.0000000000000000    3.3149547445410610    3.3149547445411121
     3.3149547445410845    0.0000000000000000    3.3149547445411121
     3.3149547445410845    3.3149547445410610    0.0000000000000000
   Sc   Zr   Ti   Hf   H 
     1     1     1     1    24
Direct
  0.2500000000000000  0.2500000000000000  0.2500000000000000
  0.7500000000000000  0.7500000000000000  0.7500000000000000
  0.0000000000000000  0.0000000000000000  0.0000000000000000
  0.5000000000000000  0.5000000000000000  0.5000000000000000
  0.1235820046937164  0.8858952743963613  0.6259873290428288
  0.8858952743963613  0.1235820046937164  0.3645353918670935
  0.6259873290428288  0.3645353918670935  0.1235820046937164
  0.3645353918670935  0.6259873290428288  0.8858952743963613
  0.6259873290428288  0.1235820046937164  0.8858952743963613
  0.3645353918670935  0.8858952743963613  0.1235820046937164
  0.1235820046937164  0.6259873290428288  0.3645353918670935
  0.8858952743963613  0.3645353918670935  0.6259873290428288
  0.8858952743963613  0.6259873290428288  0.1235820046937164
  0.1235820046937164  0.3645353918670935  0.8858952743963613
  0.3645353918670935  0.1235820046937164  0.6259873290428288
  0.6259873290428288  0.8858952743963613  0.3645353918670935
  0.1235820046937164  0.3645353918670935  0.6259873290428288
  0.3645353918670935  0.1235820046937164  0.8858952743963613
  0.6259873290428288  0.8858952743963613  0.1235820046937164
  0.8858952743963613  0.6259873290428288  0.3645353918670935
  0.6259873290428288  0.1235820046937164  0.3645353918670935
  0.8858952743963613  0.3645353918670935  0.1235820046937164
  0.1235820046937164  0.6259873290428288  0.8858952743963613
  0.3645353918670935  0.8858952743963613  0.6259873290428288
  0.3645353918670935  0.6259873290428288  0.1235820046937164
  0.1235820046937164  0.8858952743963613  0.3645353918670935
  0.8858952743963613  0.1235820046937164  0.6259873290428288
  0.6259873290428288  0.3645353918670935  0.8858952743963613
 
  0.00000000E+00  0.00000000E+00  0.00000000E+00
  0.00000000E+00  0.00000000E+00  0.00000000E+00
  0.00000000E+00  0.00000000E+00  0.00000000E+00
  0.00000000E+00  0.00000000E+00  0.00000000E+00
  0.00000000E+00  0.00000000E+00  0.00000000E+00
  0.00000000E+00  0.00000000E+00  0.00000000E+00
  0.00000000E+00  0.00000000E+00  0.00000000E+00
  0.00000000E+00  0.00000000E+00  0.00000000E+00
  0.00000000E+00  0.00000000E+00  0.00000000E+00
  0.00000000E+00  0.00000000E+00  0.00000000E+00
  0.00000000E+00  0.00000000E+00  0.00000000E+00
  0.00000000E+00  0.00000000E+00  0.00000000E+00
  0.00000000E+00  0.00000000E+00  0.00000000E+00
  0.00000000E+00  0.00000000E+00  0.00000000E+00
  0.00000000E+00  0.00000000E+00  0.00000000E+00
  0.00000000E+00  0.00000000E+00  0.00000000E+00
  0.00000000E+00  0.00000000E+00  0.00000000E+00
  0.00000000E+00  0.00000000E+00  0.00000000E+00
  0.00000000E+00  0.00000000E+00  0.00000000E+00
  0.00000000E+00  0.00000000E+00  0.00000000E+00
  0.00000000E+00  0.00000000E+00  0.00000000E+00
  0.00000000E+00  0.00000000E+00  0.00000000E+00
  0.00000000E+00  0.00000000E+00  0.00000000E+00
  0.00000000E+00  0.00000000E+00  0.00000000E+00
  0.00000000E+00  0.00000000E+00  0.00000000E+00
  0.00000000E+00  0.00000000E+00  0.00000000E+00
  0.00000000E+00  0.00000000E+00  0.00000000E+00
  0.00000000E+00  0.00000000E+00  0.00000000E+00
