POSCAR                                  
   1.00000000000000     
    10.0241343896599009    0.0052506130113092    0.0038226942911271
     0.0052369055501222   10.0145643978592229    0.0055870744412623
     0.0025227843472241    0.0036908392720689    6.6440455928514046
   Mg   Ca   Zr   Na   H 
     9     9     9     9   216
Direct
  0.1681648349089485  0.1634182769898742  0.2478063711628782
  0.1631471979816539  0.8351361397953783  0.2515191296585728
  0.3342527941995831  0.6690075657012381  0.5008899834022305
  0.8275899396293226  0.1732336486390871  0.7516646039784887
  0.8316658489979620  0.4979349443431466  0.2503513288723495
  0.4979358424025420  0.8340561123721143  0.7512898739596071
  0.3347795086830311  0.0036316724391199  0.0006014767870500
  0.6710067927806003  0.0028200477419116  0.5024400123567275
  0.6686131863290425  0.0040138810827045 -0.0048060294970829
  0.1633967799372854  0.1622868593964437  0.7521318613625954
  0.1708295629286966  0.8364608561655651  0.7504008390006049
  0.5074363144129117  0.4998820784328009  0.7485297759419696
  0.3357106267666682  0.6689225327322381  0.0027444166894642
  0.6662318210163174  0.3260176530206827 -0.0019187540993688
  0.6657550352819559  0.6687524068022326 -0.0019943945467633
 -0.0003796656147463  0.3281492135778689  0.0008272700471637
  0.8337418364129371  0.8380584043432902  0.2528823295023148
  0.0001867867041152  0.0051035520727432  0.0030332178542583
  0.1614529893692126  0.4972870261984864  0.2524189239707677
  0.3432441057101095  0.3285935685496862  0.4997993752551243
  0.1666688076114640  0.5006432765091470  0.7480792724519152
  0.5087878387259915  0.4953832869926271  0.2486588592645482
  0.5037419448365927  0.8436058417899652  0.2480810951522365
  0.3338182318886806 -0.0001089585127514  0.5007795981243068
 -0.0150269041998719  0.3287488748256662  0.5015615602070991
  0.8295696159645930  0.8335479227673063  0.7393474295786038
 -0.0039417080681695  0.6707395317397659  0.0005365629134013
  0.5021172269914139  0.1633264040274154  0.2514523466579612
  0.5018140546812214  0.1656619770233898  0.7530299582216406
  0.3348450833724190  0.3311128774854232 -0.0001080310393002
  0.8263669342199788  0.1666402703630879  0.2520171598611382
  0.6669224298891884  0.3317868796234578  0.4989263582430651
  0.6687434013407344  0.6671276547360203  0.4994237339335294
  0.8298656188943714  0.4962861152773754  0.7511604003466580
 -0.0014906162217519  0.6681579088254129  0.5009378739979152
 -0.0011517315739535 -0.0026891367896643  0.4984633341633238
  0.1738055963093829  0.0853925624712612  0.0143073731880896
  0.1573692653672775  0.0852449362209025  0.4846763901294363
  0.1697558452523369  0.4119588131692304  0.0017875962554070
  0.4992942869636574  0.0884546247883781  0.0005158711697685
  0.3359115358580808  0.2486305561699498  0.2376941710613087
  0.1711204032896808  0.4126441045307899  0.5000586764291305
  0.5113367396510862  0.0860535654571640  0.5052784998978774
  0.3367280130972723  0.2473725956786633  0.7609856920316463
  0.1673582305030663  0.7507470593917243  0.0087676366952040
  0.4994649727901954  0.4133329221575723 -0.0018587936252710
  0.3349538015892639  0.5870943131415799  0.2640579812304572
  0.1682549467371044  0.7471506322710643  0.4965712137507051
  0.8295858834606936  0.0807664191389624 -0.0137060199394797
  0.6618458708971077  0.2495401676921679  0.2579167551230763
  0.5091908121242916  0.4148953854959964  0.5010154176500583
  0.3441071600897137  0.5879440755776691  0.7414827493394173
  0.8325871093083413  0.0825527475613862  0.5175357303715554
  0.6664448654116580  0.2505498574754391  0.7406280457557747
  0.4994274025845590  0.7508781442442168 -0.0068397543780012
  0.3231932402093219  0.9146257275924981  0.2442917634977791
  0.8323589292391727  0.4193989716286752 -0.0006371479073810
  0.6724256619152537  0.5860139909398546  0.2585299760834923
  0.5008761440309623  0.7478711267797274  0.5004539550334295
  0.3399106462682072  0.9156711687839685  0.7526639859440289
  0.0024575039459349  0.2500690501751409  0.2505696296076919
  0.8220658030972263  0.4171603623898530  0.5087948437767776
  0.6741798818748822  0.5831722924944264  0.7358190908610442
 -0.0079659874760172  0.2467476359489549  0.7545632181427329
  0.8302430325246626  0.7517409589511836 -0.0002315659349033
  0.6708176679678636  0.9232114350446585  0.2516157617320246
 -0.0047006148296968  0.5835977024745885  0.2598374660138990
  0.8322669490368283  0.7479750916467791  0.4966471121180755
  0.6653316845795035  0.9186735937084637  0.7436414529367771
 -0.0133041549069801  0.5832207123318259  0.7366886738760242
  0.0070971315902028  0.9166374580576913  0.2540932207418694
 -0.0031891819623153  0.9214479166569900  0.7478788028600267
  0.0854295379166120  0.1647642205386147  0.0141021647497436
  0.0851469652672227  0.1610250143822306  0.4869677656949574
  0.0793443860276156  0.4980982867395060  0.0026836667177983
  0.4155237962263153  0.1595037357624900  0.0044547357430343
  0.2518473931258411  0.3228602030756282  0.2474387947462091
  0.0776738351549812  0.5003493305085837  0.4987375717380892
  0.4227055259734623  0.1600779803197215  0.5029816995750745
  0.2514121411283002  0.3284294317676507  0.7537797709299355
  0.0885975424854376  0.8432934617476562  0.0063523543817556
  0.4133199651560861  0.4950223053319851 -0.0019241497492942
  0.2495669315890672  0.6770533295632171  0.2565635575546708
  0.0860811585747433  0.8367321123529035  0.4956178969610904
  0.7511983182919593  0.1667777289658187  0.0046312493847178
  0.5894204530546758  0.3174623877700800  0.2593458137353500
  0.4177496171045938  0.5074477183575219  0.4994079462520020
  0.2495401937722678  0.6693023151593420  0.7487407369129739
  0.7476801468957323  0.1737812933858115  0.5004432615204540
  0.5829280636295719  0.3215137597607914  0.7353614243076141
  0.4166062944181493  0.8444776174485212 -0.0060284324418991
  0.2498709900036998 -0.0036315038731125  0.2381176895154305
  0.7525675501636004  0.4969174609585056  0.0089585515510033
  0.5864670432024387  0.6695229943143819  0.2612410296246053
  0.4167745334508320  0.8301323391969414  0.5048800853102233
  0.2501150053212186  0.0004255810503386  0.7668010365950900
  0.9109384819394182  0.3295522167209604  0.2428296709880986
  0.7508956688245464  0.4977435995445457  0.4885371079431787
  0.5835704317144602  0.6769782786687093  0.7362440981117803
  0.9143855727507936  0.3376525935296451  0.7560401976106932
  0.7463882295195495  0.8411001852138330 -0.0022995831137885
  0.5841588600092996  0.0094037807932105  0.2407305993136969
  0.9112198227380378  0.6620750406871713  0.2714273767488151
  0.7433942262747885  0.8340657103829133  0.4952665053177824
  0.5839752525722801  0.0026826734670243  0.7517894017075639
  0.9182686790308181  0.6616816504422640  0.7413495724154803
  0.9165353882983129  0.0089877532393754  0.2618291617851887
  0.9198101022584708 -0.0014959408014228  0.7430666073993822
  0.1742262237992674  0.0041506516700958  0.1251544433394939
  0.1617155056470743 -0.0011758081179175  0.6225697843986333
  0.1717789324410690  0.3254870525610197  0.1230661860448348
  0.5043453453312162  0.0104970266944989  0.1175953101844631
  0.3362501799809815  0.1627332440896109  0.3673801347472083
  0.1687678040837528  0.3299163492131864  0.6238639000649188
  0.5071888352494249 -0.0049138857986881  0.6304738392342959
  0.3376518493691608  0.1660600303857062  0.8783415723161204
  0.1670965624575280  0.6699816629211607  0.1311881408742069
  0.4948499874915998  0.3159755725742767  0.1162062279184867
  0.3323001978446654  0.5031168605030966  0.3768013043327583
  0.1683132376937418  0.6723279950952157  0.6168247427295805
  0.8237696907118542  0.0091371338329271  0.1254779685922208
  0.6698922822775545  0.1547846258398775  0.3756970346202386
  0.5135232325244510  0.3286246082123712  0.6298853674260112
  0.3375963697638231  0.4950185653616960  0.8766268239209500
  0.8343999233587585  0.0209430460497092  0.6210093100687344
  0.6626926352808169  0.1589943646638618  0.8737294896899614
  0.5004853279105294  0.6702970065839408  0.1265856594625490
  0.3271883151480482  0.8337774057792920  0.3724100100105697
  0.8349889242735593  0.3276336556641784  0.1248935558028603
  0.6788370608475008  0.4996949789450901  0.3810923102435941
  0.4993724350713274  0.6732478103714573  0.6225245892761890
  0.3416009263567428  0.8434452243645165  0.8782984500049773
 -0.0160712477315348  0.1556920545854921  0.3757826240478810
  0.8202233301639079  0.3398164817199221  0.6262726277776138
  0.6698609130284248  0.4959729991454590  0.8744337840451775
 -0.0118651893824172  0.1677698424656529  0.8702506643893070
  0.8309585910998778  0.6602000185582415  0.1286063650096120
  0.6698218902423945  0.8433752142336604  0.3793328891167683
 -0.0131052689217719  0.5104806388327653  0.3813135858251764
  0.8316767409903963  0.6483334402059716  0.6140689717902912
  0.6550505178452491  0.8417942282731736  0.8718032286083859
 -0.0058923239237551  0.4961227209078325  0.8717474575028465
 -0.0010585749975735  0.8326859642558574  0.3798095458046283
  0.0025327070602867  0.8378128156889246  0.8736264387369477
  0.0858472888980230 -0.0015669622821362  0.2587355117714393
  0.0823408128421558 -0.0023058127670057  0.7373481540768662
  0.0838510227230012  0.3177069673315786  0.2569001754823959
  0.4154497016122012  0.0067403628463192  0.2343941953090398
  0.2477946716180360  0.1672666449334178  0.4934757079255936
  0.0836390176197823  0.3299865701901369  0.7422534666013856
  0.4213027741332199  0.0047465949652469  0.7678404391668211
  0.2513269254351429  0.1673445549226260  0.0032856163752451
  0.0812503790672039  0.6773568169917774  0.2655695241241466
  0.4167958557178710  0.3258675718083335  0.2380386269520015
  0.2554765207616443  0.5021245208849734  0.4942075781683511
  0.0821540752260188  0.6722147074172212  0.7358857991419417
  0.7497378459744481  0.0042118813618194  0.2505776868398328
  0.5830249752689796  0.1656123760773363  0.5095597239627839
  0.4184265205656175  0.3296962903541104  0.7649167391949185
  0.2533947930009195  0.4988805228221392  0.0064459225760501
  0.7499397567146253  0.0031953801847297  0.7479540054628330
  0.5831902144121619  0.1551961954797139 -0.0083749625077243
  0.4137246103581103  0.6715461659943830  0.2608240429540045
  0.2513859247631025  0.8281875376920239  0.4904889058836753
  0.7491122589988586  0.3353606409362353  0.2615457161647671
  0.5888048595429501  0.4997915029615300  0.4999377308624206
  0.4159354937898675  0.6636412084907305  0.7435304851784220
  0.2523585530994738  0.8388897944217862  0.0114656428466775
  0.9201670004024930  0.1573750349863876  0.4758831278933505
  0.7456954042333253  0.3306529042078429  0.7403734032627197
  0.5879083933418588  0.4972549485242909 -0.0044657669254158
  0.9190295237544270  0.1667083715541745  0.0273243644708204
  0.7498042330352512  0.6613242424729375  0.2551809838662525
  0.5802873204942829  0.8322128754581931  0.5184530479498430
  0.9143796559256633  0.5037802664792543  0.4931317475913339
  0.7495712922938831  0.6602652698532256  0.7445541875781803
  0.5834642318541196  0.8439776099349995 -0.0215405853571980
  0.9138182558947837  0.4953747182424051  0.0043030971247596
  0.9227579614986137  0.8329595039345598  0.4929405272878008
  0.9136915451775214  0.8428422978501920 -0.0007179797839803
 -0.0117993772052442  0.1654911038663152  0.1266695118427735
 -0.0128600511698686  0.1571876585356995  0.6243201617895779
 -0.0087279765000971  0.4982955333615683  0.1227592475917467
  0.3378357668034301  0.1659085720752661  0.1229118593053818
  0.1631866421943150  0.3285092625864653  0.3742347413247265
 -0.0073275904121915  0.5068383366093379  0.6263583613761903
  0.3406524233023662  0.1641288573124671  0.6308332441547172
  0.1748368313076318  0.3285072632367599  0.8800075372934552
  0.0005841776579672  0.8378459597324299  0.1256236903161393
  0.3328780599322402  0.4935409432037804  0.1217259461389335
  0.1576594507509356  0.6716076897216003  0.3754495277274075
  0.0020953600115911  0.8295165125446275  0.6240591120775787
  0.6677488767610400  0.1542513120880349  0.1262528348630210
  0.5116327322163302  0.3250492534828978  0.3711589934724573
  0.3354325396519858  0.5079225319284124  0.6241579489955420
  0.1702236998355674  0.6687110645945601  0.8770489285386575
  0.6654768950605540  0.1620035423453820  0.6256342626372206
  0.4936278936445537  0.3285431735255420  0.8747651988700040
  0.3298447494892754  0.8416436624598802  0.1245707567871071
  0.1613190633105256 -0.0034368415973165  0.3721997118830295
  0.6758760341257487  0.4987309207579882  0.1226811071497309
  0.5038668996307061  0.6735789024158567  0.3799535354899623
  0.3421907339229888  0.8270854432877648  0.6280075900474362
  0.1811068834410370 -0.0003303845867350  0.8776018879046797
  0.8212312086707082  0.3326164003991609  0.3699819436476940
  0.6719706337213279  0.4985937091177257  0.6259448141657037
  0.4989019243952655  0.6745830467611603  0.8725183379402026
  0.8334402964447749  0.3322993024309361  0.8796642994666438
  0.6690268270019065  0.8467236632087347  0.1203876270589206
  0.5138654388386585  0.0061496037832218  0.3788663379512790
  0.8389441854194981  0.6630267278353893  0.3736225106099639
  0.6563767686178034  0.8363457656643387  0.6239462458616023
  0.4972975795397919 -0.0000924189835768  0.8698777914361746
  0.8282175425577335  0.6507084840840484  0.8730202269607886
  0.8343292237104988  0.0070293729091150  0.3728220464364849
  0.8293864786448361  0.0211923190722338  0.8755747468247951
  0.0049784234116838  0.0831482300616728  0.2573701660015203
 -0.0158400957146847  0.0845411320112459  0.7366735574695562
 -0.0086874868485361  0.4169708738619330  0.2478500908277870
  0.3320209330520172  0.0866841764924323  0.2405071010253536
  0.1664989476872301  0.2488038504527081  0.4942661603592595
 -0.0125314379467753  0.4172397617541505  0.7549869287849550
  0.3412037202255562  0.0849707337895041  0.7566634593911594
  0.1774044053051294  0.2504849216739633  0.0060044892904129
  0.0037865030039609  0.7474888916153214  0.2608382958367986
  0.3336729304178861  0.4151841309266216  0.2413556112747594
  0.1675935276575788  0.5874166295934524  0.4965624711315488
  0.0062802243577819  0.7483844250479845  0.7324263484951481
  0.6653288210914931  0.0892146975526076  0.2593883361321498
  0.5131223892369614  0.2442138364864780  0.4935421373045984
  0.3389398849164949  0.4149814098368396  0.7553877361023693
  0.1669731191114479  0.5868646579689284  0.0024671712527552
  0.6683349392511385  0.0854039848505489  0.7426942857553207
  0.4958696140867333  0.2491269676822864  0.0114266681514019
  0.3281998915204475  0.7482128797067950  0.2605000307243514
  0.1576882456814715  0.9121682903358068  0.4897418858820626
  0.6756215064005584  0.4156590181159911  0.2540074061714644
  0.5004484763502427  0.5877287102649529  0.4968632565006742
  0.3365716681188565  0.7497444109095694  0.7434636855739032
  0.1629570062882990  0.9137195100496625  0.0133784197366202
  0.8179510041713736  0.2410954177817261  0.5019976060251777
  0.6748207475035405  0.4185634252798898  0.7399313305233390
  0.5010256947424977  0.5847887360799363  0.0017579420722656
  0.8283450646453357  0.2460716502566315  0.0039184088983431
  0.6659835827204303  0.7468900563583893  0.2589392585400023
  0.5053042815925669  0.9192566003396030  0.5194227342474625
  0.8314436599964595  0.5847489279298028  0.5162080152995508
  0.6570637850240242  0.7458690220995953  0.7408887421066445
  0.5026557174422971  0.9207629760510538 -0.0086601457132543
  0.8301995823730748  0.5853318378397763 -0.0144546401752913
  0.8350066566097912  0.9211526329621058  0.5017070207392953
  0.8354841513058431  0.9176321705653298 -0.0077270579030892
 
  0.00000000E+00  0.00000000E+00  0.00000000E+00
  0.00000000E+00  0.00000000E+00  0.00000000E+00
  0.00000000E+00  0.00000000E+00  0.00000000E+00
  0.00000000E+00  0.00000000E+00  0.00000000E+00
  0.00000000E+00  0.00000000E+00  0.00000000E+00
  0.00000000E+00  0.00000000E+00  0.00000000E+00
  0.00000000E+00  0.00000000E+00  0.00000000E+00
  0.00000000E+00  0.00000000E+00  0.00000000E+00
  0.00000000E+00  0.00000000E+00  0.00000000E+00
  0.00000000E+00  0.00000000E+00  0.00000000E+00
  0.00000000E+00  0.00000000E+00  0.00000000E+00
  0.00000000E+00  0.00000000E+00  0.00000000E+00
  0.00000000E+00  0.00000000E+00  0.00000000E+00
  0.00000000E+00  0.00000000E+00  0.00000000E+00
  0.00000000E+00  0.00000000E+00  0.00000000E+00
  0.00000000E+00  0.00000000E+00  0.00000000E+00
  0.00000000E+00  0.00000000E+00  0.00000000E+00
  0.00000000E+00  0.00000000E+00  0.00000000E+00
  0.00000000E+00  0.00000000E+00  0.00000000E+00
  0.00000000E+00  0.00000000E+00  0.00000000E+00
  0.00000000E+00  0.00000000E+00  0.00000000E+00
  0.00000000E+00  0.00000000E+00  0.00000000E+00
  0.00000000E+00  0.00000000E+00  0.00000000E+00
  0.00000000E+00  0.00000000E+00  0.00000000E+00
  0.00000000E+00  0.00000000E+00  0.00000000E+00
  0.00000000E+00  0.00000000E+00  0.00000000E+00
  0.00000000E+00  0.00000000E+00  0.00000000E+00
  0.00000000E+00  0.00000000E+00  0.00000000E+00
  0.00000000E+00  0.00000000E+00  0.00000000E+00
  0.00000000E+00  0.00000000E+00  0.00000000E+00
  0.00000000E+00  0.00000000E+00  0.00000000E+00
  0.00000000E+00  0.00000000E+00  0.00000000E+00
  0.00000000E+00  0.00000000E+00  0.00000000E+00
  0.00000000E+00  0.00000000E+00  0.00000000E+00
  0.00000000E+00  0.00000000E+00  0.00000000E+00
  0.00000000E+00  0.00000000E+00  0.00000000E+00
  0.00000000E+00  0.00000000E+00  0.00000000E+00
  0.00000000E+00  0.00000000E+00  0.00000000E+00
  0.00000000E+00  0.00000000E+00  0.00000000E+00
  0.00000000E+00  0.00000000E+00  0.00000000E+00
  0.00000000E+00  0.00000000E+00  0.00000000E+00
  0.00000000E+00  0.00000000E+00  0.00000000E+00
  0.00000000E+00  0.00000000E+00  0.00000000E+00
  0.00000000E+00  0.00000000E+00  0.00000000E+00
  0.00000000E+00  0.00000000E+00  0.00000000E+00
  0.00000000E+00  0.00000000E+00  0.00000000E+00
  0.00000000E+00  0.00000000E+00  0.00000000E+00
  0.00000000E+00  0.00000000E+00  0.00000000E+00
  0.00000000E+00  0.00000000E+00  0.00000000E+00
  0.00000000E+00  0.00000000E+00  0.00000000E+00
  0.00000000E+00  0.00000000E+00  0.00000000E+00
  0.00000000E+00  0.00000000E+00  0.00000000E+00
  0.00000000E+00  0.00000000E+00  0.00000000E+00
  0.00000000E+00  0.00000000E+00  0.00000000E+00
  0.00000000E+00  0.00000000E+00  0.00000000E+00
  0.00000000E+00  0.00000000E+00  0.00000000E+00
  0.00000000E+00  0.00000000E+00  0.00000000E+00
  0.00000000E+00  0.00000000E+00  0.00000000E+00
  0.00000000E+00  0.00000000E+00  0.00000000E+00
  0.00000000E+00  0.00000000E+00  0.00000000E+00
  0.00000000E+00  0.00000000E+00  0.00000000E+00
  0.00000000E+00  0.00000000E+00  0.00000000E+00
  0.00000000E+00  0.00000000E+00  0.00000000E+00
  0.00000000E+00  0.00000000E+00  0.00000000E+00
  0.00000000E+00  0.00000000E+00  0.00000000E+00
  0.00000000E+00  0.00000000E+00  0.00000000E+00
  0.00000000E+00  0.00000000E+00  0.00000000E+00
  0.00000000E+00  0.00000000E+00  0.00000000E+00
  0.00000000E+00  0.00000000E+00  0.00000000E+00
  0.00000000E+00  0.00000000E+00  0.00000000E+00
  0.00000000E+00  0.00000000E+00  0.00000000E+00
  0.00000000E+00  0.00000000E+00  0.00000000E+00
  0.00000000E+00  0.00000000E+00  0.00000000E+00
  0.00000000E+00  0.00000000E+00  0.00000000E+00
  0.00000000E+00  0.00000000E+00  0.00000000E+00
  0.00000000E+00  0.00000000E+00  0.00000000E+00
  0.00000000E+00  0.00000000E+00  0.00000000E+00
  0.00000000E+00  0.00000000E+00  0.00000000E+00
  0.00000000E+00  0.00000000E+00  0.00000000E+00
  0.00000000E+00  0.00000000E+00  0.00000000E+00
  0.00000000E+00  0.00000000E+00  0.00000000E+00
  0.00000000E+00  0.00000000E+00  0.00000000E+00
  0.00000000E+00  0.00000000E+00  0.00000000E+00
  0.00000000E+00  0.00000000E+00  0.00000000E+00
  0.00000000E+00  0.00000000E+00  0.00000000E+00
  0.00000000E+00  0.00000000E+00  0.00000000E+00
  0.00000000E+00  0.00000000E+00  0.00000000E+00
  0.00000000E+00  0.00000000E+00  0.00000000E+00
  0.00000000E+00  0.00000000E+00  0.00000000E+00
  0.00000000E+00  0.00000000E+00  0.00000000E+00
  0.00000000E+00  0.00000000E+00  0.00000000E+00
  0.00000000E+00  0.00000000E+00  0.00000000E+00
  0.00000000E+00  0.00000000E+00  0.00000000E+00
  0.00000000E+00  0.00000000E+00  0.00000000E+00
  0.00000000E+00  0.00000000E+00  0.00000000E+00
  0.00000000E+00  0.00000000E+00  0.00000000E+00
  0.00000000E+00  0.00000000E+00  0.00000000E+00
  0.00000000E+00  0.00000000E+00  0.00000000E+00
  0.00000000E+00  0.00000000E+00  0.00000000E+00
  0.00000000E+00  0.00000000E+00  0.00000000E+00
  0.00000000E+00  0.00000000E+00  0.00000000E+00
  0.00000000E+00  0.00000000E+00  0.00000000E+00
  0.00000000E+00  0.00000000E+00  0.00000000E+00
  0.00000000E+00  0.00000000E+00  0.00000000E+00
  0.00000000E+00  0.00000000E+00  0.00000000E+00
  0.00000000E+00  0.00000000E+00  0.00000000E+00
  0.00000000E+00  0.00000000E+00  0.00000000E+00
  0.00000000E+00  0.00000000E+00  0.00000000E+00
  0.00000000E+00  0.00000000E+00  0.00000000E+00
  0.00000000E+00  0.00000000E+00  0.00000000E+00
  0.00000000E+00  0.00000000E+00  0.00000000E+00
  0.00000000E+00  0.00000000E+00  0.00000000E+00
  0.00000000E+00  0.00000000E+00  0.00000000E+00
  0.00000000E+00  0.00000000E+00  0.00000000E+00
  0.00000000E+00  0.00000000E+00  0.00000000E+00
  0.00000000E+00  0.00000000E+00  0.00000000E+00
  0.00000000E+00  0.00000000E+00  0.00000000E+00
  0.00000000E+00  0.00000000E+00  0.00000000E+00
  0.00000000E+00  0.00000000E+00  0.00000000E+00
  0.00000000E+00  0.00000000E+00  0.00000000E+00
  0.00000000E+00  0.00000000E+00  0.00000000E+00
  0.00000000E+00  0.00000000E+00  0.00000000E+00
  0.00000000E+00  0.00000000E+00  0.00000000E+00
  0.00000000E+00  0.00000000E+00  0.00000000E+00
  0.00000000E+00  0.00000000E+00  0.00000000E+00
  0.00000000E+00  0.00000000E+00  0.00000000E+00
  0.00000000E+00  0.00000000E+00  0.00000000E+00
  0.00000000E+00  0.00000000E+00  0.00000000E+00
  0.00000000E+00  0.00000000E+00  0.00000000E+00
  0.00000000E+00  0.00000000E+00  0.00000000E+00
  0.00000000E+00  0.00000000E+00  0.00000000E+00
  0.00000000E+00  0.00000000E+00  0.00000000E+00
  0.00000000E+00  0.00000000E+00  0.00000000E+00
  0.00000000E+00  0.00000000E+00  0.00000000E+00
  0.00000000E+00  0.00000000E+00  0.00000000E+00
  0.00000000E+00  0.00000000E+00  0.00000000E+00
  0.00000000E+00  0.00000000E+00  0.00000000E+00
  0.00000000E+00  0.00000000E+00  0.00000000E+00
  0.00000000E+00  0.00000000E+00  0.00000000E+00
  0.00000000E+00  0.00000000E+00  0.00000000E+00
  0.00000000E+00  0.00000000E+00  0.00000000E+00
  0.00000000E+00  0.00000000E+00  0.00000000E+00
  0.00000000E+00  0.00000000E+00  0.00000000E+00
  0.00000000E+00  0.00000000E+00  0.00000000E+00
  0.00000000E+00  0.00000000E+00  0.00000000E+00
  0.00000000E+00  0.00000000E+00  0.00000000E+00
  0.00000000E+00  0.00000000E+00  0.00000000E+00
  0.00000000E+00  0.00000000E+00  0.00000000E+00
  0.00000000E+00  0.00000000E+00  0.00000000E+00
  0.00000000E+00  0.00000000E+00  0.00000000E+00
  0.00000000E+00  0.00000000E+00  0.00000000E+00
  0.00000000E+00  0.00000000E+00  0.00000000E+00
  0.00000000E+00  0.00000000E+00  0.00000000E+00
  0.00000000E+00  0.00000000E+00  0.00000000E+00
  0.00000000E+00  0.00000000E+00  0.00000000E+00
  0.00000000E+00  0.00000000E+00  0.00000000E+00
  0.00000000E+00  0.00000000E+00  0.00000000E+00
  0.00000000E+00  0.00000000E+00  0.00000000E+00
  0.00000000E+00  0.00000000E+00  0.00000000E+00
  0.00000000E+00  0.00000000E+00  0.00000000E+00
  0.00000000E+00  0.00000000E+00  0.00000000E+00
  0.00000000E+00  0.00000000E+00  0.00000000E+00
  0.00000000E+00  0.00000000E+00  0.00000000E+00
  0.00000000E+00  0.00000000E+00  0.00000000E+00
  0.00000000E+00  0.00000000E+00  0.00000000E+00
  0.00000000E+00  0.00000000E+00  0.00000000E+00
  0.00000000E+00  0.00000000E+00  0.00000000E+00
  0.00000000E+00  0.00000000E+00  0.00000000E+00
  0.00000000E+00  0.00000000E+00  0.00000000E+00
  0.00000000E+00  0.00000000E+00  0.00000000E+00
  0.00000000E+00  0.00000000E+00  0.00000000E+00
  0.00000000E+00  0.00000000E+00  0.00000000E+00
  0.00000000E+00  0.00000000E+00  0.00000000E+00
  0.00000000E+00  0.00000000E+00  0.00000000E+00
  0.00000000E+00  0.00000000E+00  0.00000000E+00
  0.00000000E+00  0.00000000E+00  0.00000000E+00
  0.00000000E+00  0.00000000E+00  0.00000000E+00
  0.00000000E+00  0.00000000E+00  0.00000000E+00
  0.00000000E+00  0.00000000E+00  0.00000000E+00
  0.00000000E+00  0.00000000E+00  0.00000000E+00
  0.00000000E+00  0.00000000E+00  0.00000000E+00
  0.00000000E+00  0.00000000E+00  0.00000000E+00
  0.00000000E+00  0.00000000E+00  0.00000000E+00
  0.00000000E+00  0.00000000E+00  0.00000000E+00
  0.00000000E+00  0.00000000E+00  0.00000000E+00
  0.00000000E+00  0.00000000E+00  0.00000000E+00
  0.00000000E+00  0.00000000E+00  0.00000000E+00
  0.00000000E+00  0.00000000E+00  0.00000000E+00
  0.00000000E+00  0.00000000E+00  0.00000000E+00
  0.00000000E+00  0.00000000E+00  0.00000000E+00
  0.00000000E+00  0.00000000E+00  0.00000000E+00
  0.00000000E+00  0.00000000E+00  0.00000000E+00
  0.00000000E+00  0.00000000E+00  0.00000000E+00
  0.00000000E+00  0.00000000E+00  0.00000000E+00
  0.00000000E+00  0.00000000E+00  0.00000000E+00
  0.00000000E+00  0.00000000E+00  0.00000000E+00
  0.00000000E+00  0.00000000E+00  0.00000000E+00
  0.00000000E+00  0.00000000E+00  0.00000000E+00
  0.00000000E+00  0.00000000E+00  0.00000000E+00
  0.00000000E+00  0.00000000E+00  0.00000000E+00
  0.00000000E+00  0.00000000E+00  0.00000000E+00
  0.00000000E+00  0.00000000E+00  0.00000000E+00
  0.00000000E+00  0.00000000E+00  0.00000000E+00
  0.00000000E+00  0.00000000E+00  0.00000000E+00
  0.00000000E+00  0.00000000E+00  0.00000000E+00
  0.00000000E+00  0.00000000E+00  0.00000000E+00
  0.00000000E+00  0.00000000E+00  0.00000000E+00
  0.00000000E+00  0.00000000E+00  0.00000000E+00
  0.00000000E+00  0.00000000E+00  0.00000000E+00
  0.00000000E+00  0.00000000E+00  0.00000000E+00
  0.00000000E+00  0.00000000E+00  0.00000000E+00
  0.00000000E+00  0.00000000E+00  0.00000000E+00
  0.00000000E+00  0.00000000E+00  0.00000000E+00
  0.00000000E+00  0.00000000E+00  0.00000000E+00
  0.00000000E+00  0.00000000E+00  0.00000000E+00
  0.00000000E+00  0.00000000E+00  0.00000000E+00
  0.00000000E+00  0.00000000E+00  0.00000000E+00
  0.00000000E+00  0.00000000E+00  0.00000000E+00
  0.00000000E+00  0.00000000E+00  0.00000000E+00
  0.00000000E+00  0.00000000E+00  0.00000000E+00
  0.00000000E+00  0.00000000E+00  0.00000000E+00
  0.00000000E+00  0.00000000E+00  0.00000000E+00
  0.00000000E+00  0.00000000E+00  0.00000000E+00
  0.00000000E+00  0.00000000E+00  0.00000000E+00
  0.00000000E+00  0.00000000E+00  0.00000000E+00
  0.00000000E+00  0.00000000E+00  0.00000000E+00
  0.00000000E+00  0.00000000E+00  0.00000000E+00
  0.00000000E+00  0.00000000E+00  0.00000000E+00
  0.00000000E+00  0.00000000E+00  0.00000000E+00
  0.00000000E+00  0.00000000E+00  0.00000000E+00
  0.00000000E+00  0.00000000E+00  0.00000000E+00
  0.00000000E+00  0.00000000E+00  0.00000000E+00
  0.00000000E+00  0.00000000E+00  0.00000000E+00
  0.00000000E+00  0.00000000E+00  0.00000000E+00
  0.00000000E+00  0.00000000E+00  0.00000000E+00
  0.00000000E+00  0.00000000E+00  0.00000000E+00
  0.00000000E+00  0.00000000E+00  0.00000000E+00
  0.00000000E+00  0.00000000E+00  0.00000000E+00
  0.00000000E+00  0.00000000E+00  0.00000000E+00
  0.00000000E+00  0.00000000E+00  0.00000000E+00
  0.00000000E+00  0.00000000E+00  0.00000000E+00
  0.00000000E+00  0.00000000E+00  0.00000000E+00
  0.00000000E+00  0.00000000E+00  0.00000000E+00
  0.00000000E+00  0.00000000E+00  0.00000000E+00
  0.00000000E+00  0.00000000E+00  0.00000000E+00
  0.00000000E+00  0.00000000E+00  0.00000000E+00
  0.00000000E+00  0.00000000E+00  0.00000000E+00
  0.00000000E+00  0.00000000E+00  0.00000000E+00
  0.00000000E+00  0.00000000E+00  0.00000000E+00
  0.00000000E+00  0.00000000E+00  0.00000000E+00
  0.00000000E+00  0.00000000E+00  0.00000000E+00
  0.00000000E+00  0.00000000E+00  0.00000000E+00
