POSCAR                                  
   1.00000000000000     
    10.0310183781797768   -0.0016971405730212    0.0104727823287753
    -0.0017003088649641   10.0212967746358501    0.0028294065172542
     0.0069115604954943    0.0018671645057575    6.6494798032627855
   Mg   Ca   Zr   Na   H 
     9     9     9     9   216
Direct
  0.1723830970714459  0.1645240491284738  0.2498728463621305
  0.1637890415520786  0.8340160873763551  0.2507608389990281
  0.3342817354274459  0.6685827119265610  0.5010249552516015
  0.8259525085996842  0.1745835708360772  0.7509878291543544
  0.8323596330492933  0.4977984422858270  0.2482964934458423
  0.4972108643170046  0.8338442242794883  0.7503553624764692
  0.3347437104102511  0.0029606841122600  0.0002809957677741
  0.6724612050883394  0.0005371162666492  0.5066715293878374
  0.6685714771339164  0.0025432098289926  0.9906776378184716
  0.1623866340596152  0.1623496141705445  0.7540785515037811
  0.1719110770212922  0.8363945599187304  0.7496405506986150
  0.5077134650142057  0.4986392628887586  0.7485707057533659
  0.3351754098547559  0.6680087426356209  0.0029840785883053
  0.6664984826980103  0.3248189776122885  0.9991122312036254
  0.6657172197316115  0.6697953298985837  0.9988203398789040
  0.9980325391275713  0.3273396271010043  0.0007897088734197
  0.8347362946173149  0.8397573411241410  0.2508516064819020
  0.0022358126983448  0.0065722962495300  0.0036263516417705
  0.1612683755510673  0.4985175974385498  0.2528291631423301
  0.3413320206359671  0.3295412075650859  0.4998140940310734
  0.1648920039501860  0.5011284587472247  0.7474330790373500
  0.5071065974223501  0.4953332880262238  0.2474088058884405
  0.5046855402495112  0.8413185263786289  0.2496763645693463
  0.3353668760546995  0.9995226756709883  0.4978122508838325
  0.9864233671064468  0.3291301065494565  0.5015702543875520
  0.8324977476056006  0.8348045592420235  0.7410853407083451
  0.9965227738783184  0.6701814792382166  0.9998625311423126
  0.5017635620710763  0.1622653852155906  0.2519748251008593
  0.5022717983718792  0.1645198704214792  0.7530631066375690
  0.3343095266546001  0.3309721999774169  0.9998198613370235
  0.8229649886375299  0.1698046134630715  0.2566497524237121
  0.6666774144556413  0.3344242896653711  0.5002558526920069
  0.6685605855921750  0.6641069084033902  0.5005136948208673
  0.8297946707767991  0.4988652014114265  0.7494841498739646
  0.9981620694232873  0.6679813082366550  0.5012292020985853
  0.9973054115322668  0.9967830962674213  0.4973140151939077
  0.1764391889884607  0.0859739077231936  0.0183730564401898
  0.1541832925637721  0.0849441636151198  0.4846698025279395
  0.1678601171057537  0.4132898676061600  0.0016819966728221
  0.5033845325863027  0.0885861604320581  0.9994228157101688
  0.3365135311865544  0.2489722154870293  0.2359233493808617
  0.1703129715210707  0.4143102135475800  0.5000219665426826
  0.5136473353210533  0.0833020184080411  0.5047874526748259
  0.3355061030201867  0.2473973424485223  0.7611539974676234
  0.1681193639075573  0.7504098650374331  0.0067280804221284
  0.4993226368516019  0.4130136693285138  0.9985800935790508
  0.3356192388360313  0.5870530751352092  0.2635734758105528
  0.1711638087733505  0.7467205265146220  0.4969831979399615
  0.8308545382388246  0.0825370675671877  0.9794455051551409
  0.6588031183887182  0.2507649273653243  0.2600567661752891
  0.5088331597413358  0.4148011665099887  0.4995840016513924
  0.3448200638609649  0.5870981025893798  0.7426848931798204
  0.8310572304368264  0.0826725846770913  0.5165599786295445
  0.6615233524417263  0.2516606949556319  0.7413027572339317
  0.4986250653120550  0.7510515909439093  0.9896895549915428
  0.3208260746364360  0.9159527660266988  0.2403806922035372
  0.8315048990787872  0.4140412783940519  0.9807917937808028
  0.6691003320427100  0.5857544629703710  0.2562472401045000
  0.5022177252202198  0.7478042569785401  0.5050567707318834
  0.3398783660410487  0.9162546534901210  0.7518783351624663
  0.0066989050008530  0.2492070398009290  0.2511393805081426
  0.8242339436392427  0.4129236716767295  0.5214508993236819
  0.6736294649802730  0.5828333097717717  0.7376834034769431
  0.9900366509902270  0.2447497149535636  0.7556960299111779
  0.8303690130207499  0.7536228543077783  0.9986609780727491
  0.6721374500491351  0.9219564903234385  0.2752059627370542
  0.9946774866238002  0.5844725311516328  0.2586453148946006
  0.8306327673823546  0.7504142928478998  0.4947998161110760
  0.6639146864224514  0.9170361042068080  0.7380045385750833
  0.9856421757337728  0.5839552125247209  0.7352081297171722
  0.0114918741859285  0.9185373267878347  0.2525794924833917
  0.0010571166813023  0.9220422271763482  0.7488319575012099
  0.0865263255619055  0.1661263362819412  0.0212631647401977
  0.0866485639586543  0.1578253385471271  0.4881705200271540
  0.0791907252085551  0.4970224840051216  0.0052842306527552
  0.4132981226894543  0.1598161551123525  0.0045123663075799
  0.2520029811666049  0.3267627485936231  0.2465384373426218
  0.0757305667637596  0.5004628691591293  0.4964906737592187
  0.4195783851846002  0.1621303563352043  0.5073382446411969
  0.2511871539629169  0.3287907631471327  0.7568626139685293
  0.0880292005934322  0.8432103611393273  0.0055852716512916
  0.4143398268240830  0.4936822606080327  0.9967638054066441
  0.2497630523928294  0.6765325956932742  0.2562754663754490
  0.0866148543909020  0.8394714852733642  0.4951787988852416
  0.7430313839929781  0.1618444326520461  0.0234660898844581
  0.5907102692018853  0.3152329282470632  0.2614501374137532
  0.4194014188179978  0.5069939877725318  0.5007986498525412
  0.2492100630542566  0.6683201336276596  0.7480823790552762
  0.7477308921994279  0.1795228025430404  0.5056746215364996
  0.5837615075245992  0.3179368357864618  0.7332837458195556
  0.4161199207711306  0.8428641797273073  0.9964787161119375
  0.2504707194754516  0.9934206124821117  0.2370868083941531
  0.7510316970297737  0.4995013078749722  0.0167662651073996
  0.5865676177037500  0.6683956503384465  0.2649640593363358
  0.4169172617959234  0.8287848964550335  0.5023466716524325
  0.2504751459181591  0.0010905885137475  0.7650799388585057
  0.9091250872477232  0.3312504436418280  0.2399144619213516
  0.7509686208395223  0.4994089416716108  0.4804930421610365
  0.5846066853698559  0.6790801554761785  0.7367324090261036
  0.9151283850128138  0.3354233746655098  0.7531155463058923
  0.7474426459326295  0.8418683706493937  0.9956883384316626
  0.5855060726215129  0.0083236139994582  0.2219834509876009
  0.9120304677776900  0.6635318308290294  0.2714228679364723
  0.7477637494500087  0.8233317954518853  0.4983033602515761
  0.5842027109971184  0.0002198359956864  0.7582657018047243
  0.9189500646984072  0.6635374075567881  0.7416964632293102
  0.9143716223407949  0.0117963929576419  0.2608548387314258
  0.9183349564777856  0.0010245150334924  0.7456377655395841
  0.1738657544959210  0.0055067286965240  0.1251267094148361
  0.1646000220369075  0.9995274210387919  0.6219951455536332
  0.1707660656168173  0.3250648561853140  0.1240396384456801
  0.5091764742580267  0.0086402365732852  0.1206075833436415
  0.3383877744564501  0.1645498502239278  0.3706041379472538
  0.1692342380534555  0.3290456398901185  0.6247307801733371
  0.5056099543892358  0.9940789519398194  0.6275133880795281
  0.3393450164278917  0.1650125903210693  0.8762614076558961
  0.1661720912533369  0.6714383803990884  0.1286387824321409
  0.4945793410487056  0.3155577689863591  0.1154396417567725
  0.3308333754931141  0.5025606116793071  0.3767178549353218
  0.1665947309602203  0.6722328895305338  0.6180516630217312
  0.8196458833887590  0.0100443969192412  0.1277927399801726
  0.6676317882644227  0.1495595969113594  0.3781800555410584
  0.5099332430471932  0.3289576431792440  0.6287947276229389
  0.3360644126211696  0.4945024915124137  0.8759418981148031
  0.8350603600337863  0.0265943486537878  0.6200295207312791
  0.6652984785240861  0.1588636553476874  0.8727167536124369
  0.5002549563294565  0.6693987598915427  0.1260865190899665
  0.3281411513771673  0.8324649323515274  0.3711194039090628
  0.8352281168911446  0.3312091928060781  0.1280741410640260
  0.6853836580997026  0.4999146890142896  0.3828981683796044
  0.4976941174618545  0.6721273135212869  0.6206795640485794
  0.3417389492389233  0.8427385724214460  0.8781147951544312
  0.9811776830837715  0.1542803108949045  0.3713479538706324
  0.8193297967134825  0.3452174153329963  0.6266463375964122
  0.6693360564754940  0.4946762962262525  0.8735013825819919
  0.9853639040101001  0.1682131015966917  0.8693370519217112
  0.8309981494627579  0.6607394428053297  0.1289455464640810
  0.6705188156462896  0.8472072413127805  0.3786042309731599
  0.9838462995629627  0.5111432594704297  0.3811693770427809
  0.8312143673740451  0.6472225060240930  0.6130390190185793
  0.6551725763264713  0.8406244265046752  0.8726914480963472
  0.9940070250752413  0.4946933028653362  0.8709182728356808
  0.0001290971418371  0.8296511381401643  0.3778079958385305
  0.0033916290536098  0.8388473243499490  0.8733425399780899
  0.0845899034687818  0.9980303891170834  0.2588275386504932
  0.0816509053577832  0.9972138664529595  0.7347199590914073
  0.0822122903273907  0.3149652685258033  0.2545090296473660
  0.4178704798835540  0.0047417412666206  0.2303385243082019
  0.2493429843133796  0.1659496648823051  0.4972788418246665
  0.0817833116019244  0.3291231890802635  0.7437236436933645
  0.4222154669884830  0.0047645594672545  0.7677027851622498
  0.2504906743973976  0.1671876295212016  0.0010373179107503
  0.0823062701046808  0.6760852989177408  0.2680587742811724
  0.4166749486041326  0.3267339749250908  0.2368760518557522
  0.2555152340573059  0.5032513013947693  0.4943726486800983
  0.0833360360734545  0.6725878316141234  0.7340273453462842
  0.7490769062406031  0.0049719733598153  0.2328421443921656
  0.5783898079594749  0.1731119402767547  0.5067598421548070
  0.4203153414027199  0.3287324728715930  0.7685724956031947
  0.2525589912772119  0.4977543076707391  0.0054200180274364
  0.7512633125157180  0.0004335429457569  0.7530015438081037
  0.5778842685939125  0.1525114391872648  0.9914258987859839
  0.4132328497335536  0.6716330625476061  0.2606744661207898
  0.2510698868254764  0.8289840977329632  0.4888310766910209
  0.7498684967366529  0.3386294373351006  0.2654395572137815
  0.5879722342347904  0.4977211788542846  0.4976147143433565
  0.4156687095896245  0.6615946132991084  0.7456991755364655
  0.2511911739932629  0.8388564940570120  0.0118546490155040
  0.9225387945782799  0.1584772559885721  0.4692165818389711
  0.7451376333083388  0.3308577741784333  0.7424435802902636
  0.5879997151766148  0.4968853297207687  0.9960932935677533
  0.9161533434847371  0.1657636622238172  0.0383872597993857
  0.7496428612204156  0.6627792738067768  0.2557373660970157
  0.5813400544909584  0.8268604936471178  0.5140672637569779
  0.9120482804282943  0.5025520695384955  0.4853543010891244
  0.7493948767417535  0.6657897809528777  0.7448068511262349
  0.5837928646152619  0.8455507435510441  0.9764047989305027
  0.9137628790990391  0.4977291652079856  0.0103795742074198
  0.9225234165859391  0.8312401476912470  0.4928317619017619
  0.9155209606667682  0.8431873883547709  0.9973755540820548
  0.9769298941148179  0.1647932305404964  0.1288668480276982
  0.9874551990148319  0.1573567924271515  0.6240433792535427
  0.9890663620117266  0.4975964887178321  0.1221186025002154
  0.3403459545087486  0.1667214382796161  0.1240734071376792
  0.1614411992808016  0.3290625668107836  0.3761804943199962
  0.9931476308338887  0.5073384477670544  0.6273194466112884
  0.3436632126404362  0.1636736683449058  0.6300827787932590
  0.1754725338374641  0.3289853824648290  0.8796426898671896
  0.0024477467139050  0.8369553900780957  0.1241862864893122
  0.3307307075722079  0.4931802001874246  0.1219701810808829
  0.1550397149802905  0.6736209438585519  0.3748233061700859
  0.0037697043704128  0.8293533746383090  0.6241126563195181
  0.6735827987301235  0.1526789745444077  0.1239809771209508
  0.5091513429903500  0.3268879592746359  0.3707320883684844
  0.3357874136235637  0.5074457700850274  0.6240014231121691
  0.1710005455577530  0.6694575249113655  0.8760927610901064
  0.6655967373996248  0.1548626355177163  0.6240096653025091
  0.4920475323278595  0.3276511567829843  0.8740275288756578
  0.3339633200775154  0.8394198882656312  0.1251213052110103
  0.1649799378009433  0.9970807701065283  0.3741895616621136
  0.6813979213817731  0.4988218903432298  0.1199009075767705
  0.5059853551417461  0.6725375510904712  0.3775423280572454
  0.3419217466761069  0.8276815827468695  0.6262283431965656
  0.1818185287690568  0.9992690728246814  0.8768570192887566
  0.8205032772796770  0.3356653712122650  0.3709586004492635
  0.6714275896866155  0.5007274152095604  0.6269658023768443
  0.4980617678709436  0.6740721545557591  0.8723990978127603
  0.8313592032685122  0.3426412331865976  0.8835009356379118
  0.6680241252081132  0.8487298603950606  0.1203382792267078
  0.5174717664110560  0.0056135021802035  0.3791568848248872
  0.8392170423926970  0.6656009993334138  0.3714911839998365
  0.6600313620756850  0.8393390011420010  0.6256270339602992
  0.4951667897448573  0.9997274162248573  0.8688571114695520
  0.8281986266226937  0.6491871127387299  0.8747746624668267
  0.8367408321517615  0.0088006703804595  0.3707852272922878
  0.8309546910038819  0.0254739311517440  0.8765346145294686
  0.0158615152100836  0.0836931574821023  0.2580609917825285
  0.9839096319086238  0.0846017144682634  0.7336054056655428
  0.9952042037437963  0.4161932415379184  0.2484137714436301
  0.3315780212491433  0.0854168326347775  0.2384159791574945
  0.1642071443926767  0.2493049153544504  0.4951140101424159
  0.9859537974544068  0.4169104440087281  0.7551868350402344
  0.3397991267898135  0.0856676271405448  0.7569798467488837
  0.1771539951537378  0.2501012917777814  0.0080445209726179
  0.0024406035409754  0.7491434544920352  0.2620247857353064
  0.3335838435590546  0.4144529537198096  0.2396754799258076
  0.1688989852144331  0.5863634744408799  0.4965818948161882
  0.0077317641374037  0.7496897292188294  0.7318544251265422
  0.6643336209452286  0.0880448601422472  0.2813185276765324
  0.5167490198941422  0.2430071709288910  0.4936976525114005
  0.3379101138482099  0.4144815132246507  0.7556282919804502
  0.1663998503071298  0.5863294546986140  0.0035827902057832
  0.6675404512981231  0.0875822488820930  0.7333995941902316
  0.4964323715712879  0.2479299673207009  0.0136134292778038
  0.3281330745830644  0.7485299569826722  0.2603417747602634
  0.1559979674309560  0.9110155325291274  0.4882672610316092
  0.6703891700199875  0.4164790363023769  0.2508921543045872
  0.4981700248404692  0.5871417163064052  0.4971657535406848
  0.3370604719837118  0.7488250740954854  0.7426842679310397
  0.1640254406995894  0.9126362086966608  0.0127392302895046
  0.8185654945483165  0.2409437062458863  0.5056504131975856
  0.6756369496662487  0.4188070842449108  0.7460181383445033
  0.5010980707963029  0.5851884678804424  0.0005500433167143
  0.8270068852700447  0.2430173184334734  0.9935432348011233
  0.6692306328247213  0.7462947534359330  0.2629417823057238
  0.5071549610856394  0.9182522815057936  0.5215380611661189
  0.8327145694296902  0.5869745613962962  0.5191606624509291
  0.6545078752356943  0.7451170521267798  0.7390056974315797
  0.4984658287193326  0.9191627052898781  0.9924810442226999
  0.8302929285682268  0.5861873755394669  0.9775883016986668
  0.8325002417680594  0.9213910420472970  0.5018688677980023
  0.8379278766658800  0.9188383027818858  0.9921268966268642
 
  0.00000000E+00  0.00000000E+00  0.00000000E+00
  0.00000000E+00  0.00000000E+00  0.00000000E+00
  0.00000000E+00  0.00000000E+00  0.00000000E+00
  0.00000000E+00  0.00000000E+00  0.00000000E+00
  0.00000000E+00  0.00000000E+00  0.00000000E+00
  0.00000000E+00  0.00000000E+00  0.00000000E+00
  0.00000000E+00  0.00000000E+00  0.00000000E+00
  0.00000000E+00  0.00000000E+00  0.00000000E+00
  0.00000000E+00  0.00000000E+00  0.00000000E+00
  0.00000000E+00  0.00000000E+00  0.00000000E+00
  0.00000000E+00  0.00000000E+00  0.00000000E+00
  0.00000000E+00  0.00000000E+00  0.00000000E+00
  0.00000000E+00  0.00000000E+00  0.00000000E+00
  0.00000000E+00  0.00000000E+00  0.00000000E+00
  0.00000000E+00  0.00000000E+00  0.00000000E+00
  0.00000000E+00  0.00000000E+00  0.00000000E+00
  0.00000000E+00  0.00000000E+00  0.00000000E+00
  0.00000000E+00  0.00000000E+00  0.00000000E+00
  0.00000000E+00  0.00000000E+00  0.00000000E+00
  0.00000000E+00  0.00000000E+00  0.00000000E+00
  0.00000000E+00  0.00000000E+00  0.00000000E+00
  0.00000000E+00  0.00000000E+00  0.00000000E+00
  0.00000000E+00  0.00000000E+00  0.00000000E+00
  0.00000000E+00  0.00000000E+00  0.00000000E+00
  0.00000000E+00  0.00000000E+00  0.00000000E+00
  0.00000000E+00  0.00000000E+00  0.00000000E+00
  0.00000000E+00  0.00000000E+00  0.00000000E+00
  0.00000000E+00  0.00000000E+00  0.00000000E+00
  0.00000000E+00  0.00000000E+00  0.00000000E+00
  0.00000000E+00  0.00000000E+00  0.00000000E+00
  0.00000000E+00  0.00000000E+00  0.00000000E+00
  0.00000000E+00  0.00000000E+00  0.00000000E+00
  0.00000000E+00  0.00000000E+00  0.00000000E+00
  0.00000000E+00  0.00000000E+00  0.00000000E+00
  0.00000000E+00  0.00000000E+00  0.00000000E+00
  0.00000000E+00  0.00000000E+00  0.00000000E+00
  0.00000000E+00  0.00000000E+00  0.00000000E+00
  0.00000000E+00  0.00000000E+00  0.00000000E+00
  0.00000000E+00  0.00000000E+00  0.00000000E+00
  0.00000000E+00  0.00000000E+00  0.00000000E+00
  0.00000000E+00  0.00000000E+00  0.00000000E+00
  0.00000000E+00  0.00000000E+00  0.00000000E+00
  0.00000000E+00  0.00000000E+00  0.00000000E+00
  0.00000000E+00  0.00000000E+00  0.00000000E+00
  0.00000000E+00  0.00000000E+00  0.00000000E+00
  0.00000000E+00  0.00000000E+00  0.00000000E+00
  0.00000000E+00  0.00000000E+00  0.00000000E+00
  0.00000000E+00  0.00000000E+00  0.00000000E+00
  0.00000000E+00  0.00000000E+00  0.00000000E+00
  0.00000000E+00  0.00000000E+00  0.00000000E+00
  0.00000000E+00  0.00000000E+00  0.00000000E+00
  0.00000000E+00  0.00000000E+00  0.00000000E+00
  0.00000000E+00  0.00000000E+00  0.00000000E+00
  0.00000000E+00  0.00000000E+00  0.00000000E+00
  0.00000000E+00  0.00000000E+00  0.00000000E+00
  0.00000000E+00  0.00000000E+00  0.00000000E+00
  0.00000000E+00  0.00000000E+00  0.00000000E+00
  0.00000000E+00  0.00000000E+00  0.00000000E+00
  0.00000000E+00  0.00000000E+00  0.00000000E+00
  0.00000000E+00  0.00000000E+00  0.00000000E+00
  0.00000000E+00  0.00000000E+00  0.00000000E+00
  0.00000000E+00  0.00000000E+00  0.00000000E+00
  0.00000000E+00  0.00000000E+00  0.00000000E+00
  0.00000000E+00  0.00000000E+00  0.00000000E+00
  0.00000000E+00  0.00000000E+00  0.00000000E+00
  0.00000000E+00  0.00000000E+00  0.00000000E+00
  0.00000000E+00  0.00000000E+00  0.00000000E+00
  0.00000000E+00  0.00000000E+00  0.00000000E+00
  0.00000000E+00  0.00000000E+00  0.00000000E+00
  0.00000000E+00  0.00000000E+00  0.00000000E+00
  0.00000000E+00  0.00000000E+00  0.00000000E+00
  0.00000000E+00  0.00000000E+00  0.00000000E+00
  0.00000000E+00  0.00000000E+00  0.00000000E+00
  0.00000000E+00  0.00000000E+00  0.00000000E+00
  0.00000000E+00  0.00000000E+00  0.00000000E+00
  0.00000000E+00  0.00000000E+00  0.00000000E+00
  0.00000000E+00  0.00000000E+00  0.00000000E+00
  0.00000000E+00  0.00000000E+00  0.00000000E+00
  0.00000000E+00  0.00000000E+00  0.00000000E+00
  0.00000000E+00  0.00000000E+00  0.00000000E+00
  0.00000000E+00  0.00000000E+00  0.00000000E+00
  0.00000000E+00  0.00000000E+00  0.00000000E+00
  0.00000000E+00  0.00000000E+00  0.00000000E+00
  0.00000000E+00  0.00000000E+00  0.00000000E+00
  0.00000000E+00  0.00000000E+00  0.00000000E+00
  0.00000000E+00  0.00000000E+00  0.00000000E+00
  0.00000000E+00  0.00000000E+00  0.00000000E+00
  0.00000000E+00  0.00000000E+00  0.00000000E+00
  0.00000000E+00  0.00000000E+00  0.00000000E+00
  0.00000000E+00  0.00000000E+00  0.00000000E+00
  0.00000000E+00  0.00000000E+00  0.00000000E+00
  0.00000000E+00  0.00000000E+00  0.00000000E+00
  0.00000000E+00  0.00000000E+00  0.00000000E+00
  0.00000000E+00  0.00000000E+00  0.00000000E+00
  0.00000000E+00  0.00000000E+00  0.00000000E+00
  0.00000000E+00  0.00000000E+00  0.00000000E+00
  0.00000000E+00  0.00000000E+00  0.00000000E+00
  0.00000000E+00  0.00000000E+00  0.00000000E+00
  0.00000000E+00  0.00000000E+00  0.00000000E+00
  0.00000000E+00  0.00000000E+00  0.00000000E+00
  0.00000000E+00  0.00000000E+00  0.00000000E+00
  0.00000000E+00  0.00000000E+00  0.00000000E+00
  0.00000000E+00  0.00000000E+00  0.00000000E+00
  0.00000000E+00  0.00000000E+00  0.00000000E+00
  0.00000000E+00  0.00000000E+00  0.00000000E+00
  0.00000000E+00  0.00000000E+00  0.00000000E+00
  0.00000000E+00  0.00000000E+00  0.00000000E+00
  0.00000000E+00  0.00000000E+00  0.00000000E+00
  0.00000000E+00  0.00000000E+00  0.00000000E+00
  0.00000000E+00  0.00000000E+00  0.00000000E+00
  0.00000000E+00  0.00000000E+00  0.00000000E+00
  0.00000000E+00  0.00000000E+00  0.00000000E+00
  0.00000000E+00  0.00000000E+00  0.00000000E+00
  0.00000000E+00  0.00000000E+00  0.00000000E+00
  0.00000000E+00  0.00000000E+00  0.00000000E+00
  0.00000000E+00  0.00000000E+00  0.00000000E+00
  0.00000000E+00  0.00000000E+00  0.00000000E+00
  0.00000000E+00  0.00000000E+00  0.00000000E+00
  0.00000000E+00  0.00000000E+00  0.00000000E+00
  0.00000000E+00  0.00000000E+00  0.00000000E+00
  0.00000000E+00  0.00000000E+00  0.00000000E+00
  0.00000000E+00  0.00000000E+00  0.00000000E+00
  0.00000000E+00  0.00000000E+00  0.00000000E+00
  0.00000000E+00  0.00000000E+00  0.00000000E+00
  0.00000000E+00  0.00000000E+00  0.00000000E+00
  0.00000000E+00  0.00000000E+00  0.00000000E+00
  0.00000000E+00  0.00000000E+00  0.00000000E+00
  0.00000000E+00  0.00000000E+00  0.00000000E+00
  0.00000000E+00  0.00000000E+00  0.00000000E+00
  0.00000000E+00  0.00000000E+00  0.00000000E+00
  0.00000000E+00  0.00000000E+00  0.00000000E+00
  0.00000000E+00  0.00000000E+00  0.00000000E+00
  0.00000000E+00  0.00000000E+00  0.00000000E+00
  0.00000000E+00  0.00000000E+00  0.00000000E+00
  0.00000000E+00  0.00000000E+00  0.00000000E+00
  0.00000000E+00  0.00000000E+00  0.00000000E+00
  0.00000000E+00  0.00000000E+00  0.00000000E+00
  0.00000000E+00  0.00000000E+00  0.00000000E+00
  0.00000000E+00  0.00000000E+00  0.00000000E+00
  0.00000000E+00  0.00000000E+00  0.00000000E+00
  0.00000000E+00  0.00000000E+00  0.00000000E+00
  0.00000000E+00  0.00000000E+00  0.00000000E+00
  0.00000000E+00  0.00000000E+00  0.00000000E+00
  0.00000000E+00  0.00000000E+00  0.00000000E+00
  0.00000000E+00  0.00000000E+00  0.00000000E+00
  0.00000000E+00  0.00000000E+00  0.00000000E+00
  0.00000000E+00  0.00000000E+00  0.00000000E+00
  0.00000000E+00  0.00000000E+00  0.00000000E+00
  0.00000000E+00  0.00000000E+00  0.00000000E+00
  0.00000000E+00  0.00000000E+00  0.00000000E+00
  0.00000000E+00  0.00000000E+00  0.00000000E+00
  0.00000000E+00  0.00000000E+00  0.00000000E+00
  0.00000000E+00  0.00000000E+00  0.00000000E+00
  0.00000000E+00  0.00000000E+00  0.00000000E+00
  0.00000000E+00  0.00000000E+00  0.00000000E+00
  0.00000000E+00  0.00000000E+00  0.00000000E+00
  0.00000000E+00  0.00000000E+00  0.00000000E+00
  0.00000000E+00  0.00000000E+00  0.00000000E+00
  0.00000000E+00  0.00000000E+00  0.00000000E+00
  0.00000000E+00  0.00000000E+00  0.00000000E+00
  0.00000000E+00  0.00000000E+00  0.00000000E+00
  0.00000000E+00  0.00000000E+00  0.00000000E+00
  0.00000000E+00  0.00000000E+00  0.00000000E+00
  0.00000000E+00  0.00000000E+00  0.00000000E+00
  0.00000000E+00  0.00000000E+00  0.00000000E+00
  0.00000000E+00  0.00000000E+00  0.00000000E+00
  0.00000000E+00  0.00000000E+00  0.00000000E+00
  0.00000000E+00  0.00000000E+00  0.00000000E+00
  0.00000000E+00  0.00000000E+00  0.00000000E+00
  0.00000000E+00  0.00000000E+00  0.00000000E+00
  0.00000000E+00  0.00000000E+00  0.00000000E+00
  0.00000000E+00  0.00000000E+00  0.00000000E+00
  0.00000000E+00  0.00000000E+00  0.00000000E+00
  0.00000000E+00  0.00000000E+00  0.00000000E+00
  0.00000000E+00  0.00000000E+00  0.00000000E+00
  0.00000000E+00  0.00000000E+00  0.00000000E+00
  0.00000000E+00  0.00000000E+00  0.00000000E+00
  0.00000000E+00  0.00000000E+00  0.00000000E+00
  0.00000000E+00  0.00000000E+00  0.00000000E+00
  0.00000000E+00  0.00000000E+00  0.00000000E+00
  0.00000000E+00  0.00000000E+00  0.00000000E+00
  0.00000000E+00  0.00000000E+00  0.00000000E+00
  0.00000000E+00  0.00000000E+00  0.00000000E+00
  0.00000000E+00  0.00000000E+00  0.00000000E+00
  0.00000000E+00  0.00000000E+00  0.00000000E+00
  0.00000000E+00  0.00000000E+00  0.00000000E+00
  0.00000000E+00  0.00000000E+00  0.00000000E+00
  0.00000000E+00  0.00000000E+00  0.00000000E+00
  0.00000000E+00  0.00000000E+00  0.00000000E+00
  0.00000000E+00  0.00000000E+00  0.00000000E+00
  0.00000000E+00  0.00000000E+00  0.00000000E+00
  0.00000000E+00  0.00000000E+00  0.00000000E+00
  0.00000000E+00  0.00000000E+00  0.00000000E+00
  0.00000000E+00  0.00000000E+00  0.00000000E+00
  0.00000000E+00  0.00000000E+00  0.00000000E+00
  0.00000000E+00  0.00000000E+00  0.00000000E+00
  0.00000000E+00  0.00000000E+00  0.00000000E+00
  0.00000000E+00  0.00000000E+00  0.00000000E+00
  0.00000000E+00  0.00000000E+00  0.00000000E+00
  0.00000000E+00  0.00000000E+00  0.00000000E+00
  0.00000000E+00  0.00000000E+00  0.00000000E+00
  0.00000000E+00  0.00000000E+00  0.00000000E+00
  0.00000000E+00  0.00000000E+00  0.00000000E+00
  0.00000000E+00  0.00000000E+00  0.00000000E+00
  0.00000000E+00  0.00000000E+00  0.00000000E+00
  0.00000000E+00  0.00000000E+00  0.00000000E+00
  0.00000000E+00  0.00000000E+00  0.00000000E+00
  0.00000000E+00  0.00000000E+00  0.00000000E+00
  0.00000000E+00  0.00000000E+00  0.00000000E+00
  0.00000000E+00  0.00000000E+00  0.00000000E+00
  0.00000000E+00  0.00000000E+00  0.00000000E+00
  0.00000000E+00  0.00000000E+00  0.00000000E+00
  0.00000000E+00  0.00000000E+00  0.00000000E+00
  0.00000000E+00  0.00000000E+00  0.00000000E+00
  0.00000000E+00  0.00000000E+00  0.00000000E+00
  0.00000000E+00  0.00000000E+00  0.00000000E+00
  0.00000000E+00  0.00000000E+00  0.00000000E+00
  0.00000000E+00  0.00000000E+00  0.00000000E+00
  0.00000000E+00  0.00000000E+00  0.00000000E+00
  0.00000000E+00  0.00000000E+00  0.00000000E+00
  0.00000000E+00  0.00000000E+00  0.00000000E+00
  0.00000000E+00  0.00000000E+00  0.00000000E+00
  0.00000000E+00  0.00000000E+00  0.00000000E+00
  0.00000000E+00  0.00000000E+00  0.00000000E+00
  0.00000000E+00  0.00000000E+00  0.00000000E+00
  0.00000000E+00  0.00000000E+00  0.00000000E+00
  0.00000000E+00  0.00000000E+00  0.00000000E+00
  0.00000000E+00  0.00000000E+00  0.00000000E+00
  0.00000000E+00  0.00000000E+00  0.00000000E+00
  0.00000000E+00  0.00000000E+00  0.00000000E+00
  0.00000000E+00  0.00000000E+00  0.00000000E+00
  0.00000000E+00  0.00000000E+00  0.00000000E+00
  0.00000000E+00  0.00000000E+00  0.00000000E+00
  0.00000000E+00  0.00000000E+00  0.00000000E+00
  0.00000000E+00  0.00000000E+00  0.00000000E+00
  0.00000000E+00  0.00000000E+00  0.00000000E+00
  0.00000000E+00  0.00000000E+00  0.00000000E+00
  0.00000000E+00  0.00000000E+00  0.00000000E+00
  0.00000000E+00  0.00000000E+00  0.00000000E+00
  0.00000000E+00  0.00000000E+00  0.00000000E+00
  0.00000000E+00  0.00000000E+00  0.00000000E+00
  0.00000000E+00  0.00000000E+00  0.00000000E+00
  0.00000000E+00  0.00000000E+00  0.00000000E+00
  0.00000000E+00  0.00000000E+00  0.00000000E+00
  0.00000000E+00  0.00000000E+00  0.00000000E+00
  0.00000000E+00  0.00000000E+00  0.00000000E+00
  0.00000000E+00  0.00000000E+00  0.00000000E+00
  0.00000000E+00  0.00000000E+00  0.00000000E+00
  0.00000000E+00  0.00000000E+00  0.00000000E+00
  0.00000000E+00  0.00000000E+00  0.00000000E+00
  0.00000000E+00  0.00000000E+00  0.00000000E+00
  0.00000000E+00  0.00000000E+00  0.00000000E+00
