POSCAR                                  
   1.00000000000000     
    10.0319117701849212   -0.0033830940004106    0.0116838025486950
    -0.0033843969121791   10.0217287323848243    0.0030961259000559
     0.0077146279487711    0.0020433839976982    6.6493279927649578
   Mg   Ca   Zr   Na   H 
     9     9     9     9   216
Direct
  0.1727637965796657  0.1645782101474472  0.2499193241469221
  0.1640763260104268  0.8338673699520437  0.2509167575100172
  0.3343468158660868  0.6686305515741794  0.5010605019914046
  0.8257384643805651  0.1745509107448826  0.7512794795836867
  0.8325823905344546  0.4980487297256826  0.2476838000482869
  0.4973230093351972  0.8336487081562660  0.7506649432260937
  0.3346856712770942  0.0030663872172318  0.0005722599325692
  0.6723980267635399  0.0000904444016068  0.5072918808686716
  0.6689251067228669  0.0023108759873507  0.9903350255734138
  0.1620294342057866  0.1621410332351263  0.7542431221062657
  0.1720740398611482  0.8362413368708599  0.7497810298838631
  0.5078723640047396  0.4985597110767260  0.7483997206069136
  0.3352813504836714  0.6682061256018496  0.0029884202838334
  0.6661993489364640  0.3246338472441016  0.9992901666725165
  0.6657230528532131  0.6693721998280350  0.9990320860791275
  0.9978980449879431  0.3270363708408600  0.0005801515115821
  0.8349469073256122  0.8400375922932725  0.2508989117118723
  0.0021275321355215  0.0064909973530022  0.0035652698756838
  0.1611929821202019  0.4981911133542425  0.2529012979783853
  0.3412091317899717  0.3296215276499375  0.4999786919481526
  0.1648003454238978  0.5012495420936482  0.7471909839933831
  0.5068268182095387  0.4956487339375129  0.2475089107710593
  0.5051525641877116  0.8416505334938600  0.2496606584406061
  0.3353470976790022 -0.0004289552538712  0.4977403848285580
  0.9863533714397023  0.3291306123938988  0.5012508352428123
  0.8326085091571823  0.8348085652728815  0.7410263619607892
  0.9966463625646964  0.6702167723919557 -0.0002819152270683
  0.5014913729922730  0.1622141899861738  0.2521893350774020
  0.5020455319790134  0.1647360467205443  0.7532795902656333
  0.3341676647270493  0.3311279424596397  0.9998786466133281
  0.8220503460871480  0.1702484228821519  0.2567730975504079
  0.6667858075634668  0.3345307381289349  0.5002013620257032
  0.6688118392218746  0.6644239425626097  0.5005809740020123
  0.8298508467591138  0.4988825800077288  0.7497895162908683
  0.9981619963530435  0.6679064413142822  0.5010768170127213
  0.9976875081979513  0.9968460543733175  0.4971966546572257
  0.1760510711504306  0.0858917083677371  0.0187814054939521
  0.1541304711993133  0.0851178709873477  0.4845032825218543
  0.1679051498692821  0.4133406616484760  0.0011534916202464
  0.5034496040962736  0.0888147158604844 -0.0008108028767394
  0.3367876009513713  0.2490433835846287  0.2358381571471555
  0.1699256210656935  0.4141656986072774  0.5002601573860067
  0.5138035895734275  0.0832423208833382  0.5056955125015544
  0.3349274359661915  0.2474642661828936  0.7611655727394834
  0.1681052928767479  0.7502625812229597  0.0071659499092579
  0.4991573233512653  0.4130759227701822  0.9988440051087024
  0.3352721741149088  0.5871027792299123  0.2638790085813623
  0.1712772440980947  0.7465753454231273  0.4966504828485673
  0.8308607932527394  0.0820921834014450  0.9799993678437231
  0.6581928087472604  0.2503633771962612  0.2600243520669369
  0.5090981126773689  0.4147632585143424  0.4993015729007801
  0.3449463031382964  0.5871373812636766  0.7423490079915157
  0.8310314824085201  0.0829217192478916  0.5160622735697934
  0.6614077447902672  0.2515235115021830  0.7416737211876876
  0.4989581267078962  0.7510361863625957  0.9899016747223905
  0.3213867265418096  0.9158228358871717  0.2407549122445317
  0.8314158108994433  0.4136042034888912  0.9802280420375866
  0.6688043328489029  0.5857796602755297  0.2564753766664969
  0.5021434738505252  0.7480757911998220  0.5050074274038987
  0.3400003816817726  0.9162342410978809  0.7515581988192085
  0.0066007196670839  0.2489420534976352  0.2509098379582066
  0.8243835323133732  0.4126883032213244  0.5224955041777690
  0.6740130627375476  0.5827468942745524  0.7367626378919204
  0.9898947446743833  0.2445436774713983  0.7552625998202106
  0.8303032985500730  0.7536824502954317  0.9985626509012494
  0.6726006642664658  0.9228403121228921  0.2745910111014381
  0.9948245249249770  0.5845157688463400  0.2579587354913414
  0.8307072589057969  0.7505989224371602  0.4949045961159389
  0.6641922534087557  0.9171343930413607  0.7397765059506781
  0.9853818295425631  0.5839462065617744  0.7350564385280848
  0.0122467969676355  0.9185324736306246  0.2524194696486364
  0.0014324310897030  0.9221410537511455  0.7485056359430829
  0.0863366921420230  0.1660620809898634  0.0217693739753718
  0.0865789723343405  0.1576951667685103  0.4878783000822423
  0.0791047367633394  0.4968170453045154  0.0054107990214577
  0.4129433789374709  0.1602909478632184  0.0038148449097760
  0.2517746258290163  0.3269647843575985  0.2468983278651897
  0.0754676393772133  0.5007113598044163  0.4963505274476048
  0.4193332488651968  0.1623264121044191  0.5080197029235560
  0.2509171822309649  0.3287539906919594  0.7567498574797299
  0.0881922087691086  0.8434170718189926  0.0058163182374830
  0.4144049067975241  0.4940154108274134  0.9964348703399514
  0.2497485576187510  0.6764249886619284  0.2559100953045464
  0.0869601786199369  0.8394493587240103  0.4953058132448189
  0.7432177821778939  0.1619434414765518  0.0213015552399461
  0.5911151003969575  0.3145663444940930  0.2617874183842953
  0.4195616466552590  0.5068455574784247  0.5007816784092247
  0.2493374509950735  0.6682986183716551  0.7481612156868594
  0.7474869210431395  0.1797591110402681  0.5071282249432624
  0.5836437060621087  0.3181122198729387  0.7330647411414428
  0.4164144902925211  0.8430426266977618  0.9964034167789065
  0.2505391235298235  0.9927639039282459  0.2365229446042847
  0.7509078362607922  0.4993021015008451  0.0177466568218252
  0.5866957989867007  0.6685748347064009  0.2655792476722392
  0.4170038874052990  0.8288007271591791  0.5017072818147198
  0.2503721055691876  0.0011232852560314  0.7660790724624237
  0.9089332245313079  0.3312044629331435  0.2394819447484277
  0.7511989526580820  0.4996366253528693  0.4791684276060507
  0.5845426773189331  0.6788680241246957  0.7370822950750087
  0.9151427404754141  0.3348217157196607  0.7528661600503984
  0.7477013465658259  0.8411701028414511  0.9956731620829287
  0.5856048766578319  0.0085897055256104  0.2207768216055710
  0.9120748684648911  0.6637122973902408  0.2714194466392872
  0.7478612640827824  0.8239658292694907  0.4984103021974404
  0.5844267713929946  0.0001452171149400  0.7581719781964196
  0.9189971024376026  0.6636898877128022  0.7417133870809802
  0.9143098045507345  0.0123356263614961  0.2613850210883590
  0.9184633851222614  0.0011655569863054  0.7450059822122520
  0.1741927058207496  0.0054478393834882  0.1250392828413028
  0.1651656675016499  0.9994042148874676  0.6219363070365542
  0.1705657580536183  0.3248102720206612  0.1240465068829818
  0.5083940381237767  0.0086908810853782  0.1202699603915462
  0.3383600426598309  0.1646537050727063  0.3709273844360308
  0.1690775742273655  0.3288486303212951  0.6248245406200267
  0.5050346769333032  0.9938823846716609  0.6278167741330868
  0.3393112255214636  0.1652005474437006  0.8767421388461976
  0.1663790541165770  0.6713812178166835  0.1285766524866856
  0.4945350659260513  0.3157159741717558  0.1155671232769126
  0.3307305452328896  0.5025316411473383  0.3767943274512892
  0.1663592943717742  0.6722893991988482  0.6178931420459611
  0.8195352659335767  0.0104597951361561  0.1278985835887956
  0.6670906184555450  0.1487689905624565  0.3790569189215802
  0.5099449079656833  0.3290157390710491  0.6288137542472571
  0.3360712475359177  0.4947879854958372  0.8758494344331220
  0.8349663318398217  0.0270233747542840  0.6194430363264123
  0.6650507024314729  0.1589609091260595  0.8725744962742682
  0.5002878892711360  0.6696216411591346  0.1263610843986073
  0.3285944205568568  0.8324809008015748  0.3708606865361049
  0.8351250358337292  0.3311508600708292  0.1279409044959872
  0.6860798180605159  0.5001965075195441  0.3830266322887949
  0.4976586598519175  0.6723224492475106  0.6202289908997677
  0.3419939148072010  0.8431025617855833  0.8783806267208709
  0.9806538654062104  0.1541399202725850  0.3705869926019269
  0.8191637659962898  0.3457370620551022  0.6268167436559274
  0.6693582178086231  0.4943268231044887  0.8735596502700617
  0.9848971758060244  0.1680143161374284  0.8693479185998387
  0.8310833860311202  0.6614296045446157  0.1287255627707786
  0.6706121063666820  0.8476625723282927  0.3783017614820039
  0.9835671440584813  0.5110430450635248  0.3809643010013980
  0.8313980938823884  0.6469745591000503  0.6127843887217157
  0.6555801817323721  0.8399512507354668  0.8725728707993458
  0.9942742424626277  0.4943500383528042  0.8705119005989954
  0.0002602894772893  0.8295415127441456  0.3778187639631519
  0.0033974855103255  0.8388224072337336  0.8732227212858713
  0.0846299291137935  0.9979944883901219  0.2587358664706644
  0.0816149165676566  0.9968552784747891  0.7350207257086697
  0.0819157575349106  0.3144461069114535  0.2540684738407648
  0.4180103839881269  0.0047484872038198  0.2300948463087740
  0.2492717481067244  0.1659377811785545  0.4980014533137714
  0.0816637355210392  0.3289524160363010  0.7436003934431256
  0.4222760884527361  0.0051256108796897  0.7685551857081306
  0.2503292146133080  0.1671187378030140  0.0007743825842587
  0.0822832992963643  0.6760498936677423  0.2676167921403456
  0.4164418174868930  0.3267965139640961  0.2370866189833103
  0.2555198658684060  0.5031988780005637  0.4943260992305156
  0.0833590115752163  0.6726119698868641  0.7337781176896040
  0.7490981052592944  0.0050573151952732  0.2343153860847771
  0.5780084487517386  0.1735314870493324  0.5069601612989378
  0.4200894218882625  0.3290555043292789  0.7686006069127174
  0.2526395132301744  0.4978401510151745  0.0056631461347494
  0.7517454611142670  0.0008659208590500  0.7521004050656767
  0.5776473722974684  0.1516068982526518  0.9916853387420284
  0.4133637167776051  0.6722080275554592  0.2610819915864251
  0.2512344253734818  0.8289430079776285  0.4891052057518713
  0.7498567777329921  0.3398357825113266  0.2653219622138959
  0.5881459260625413  0.4975101271572592  0.4971493184933113
  0.4157673147182342  0.6614720202348486  0.7454723770081053
  0.2515771671288140  0.8390845901821183  0.0121590842494317
  0.9223395847471680  0.1583145714694864  0.4681285505902297
  0.7449717249078556  0.3306288577736043  0.7426339277799293
  0.5880102568160128  0.4967834934562406  0.9962917992198144
  0.9158068747055303  0.1654852807937644  0.0389461289434279
  0.7497629552731275  0.6628424403554832  0.2556771911811760
  0.5815412744356484  0.8275064984027416  0.5144049163968348
  0.9118262612333388  0.5022705398725039  0.4843945667055633
  0.7495030876637040  0.6659590800107745  0.7451512522135364
  0.5841108543573424  0.8452173839091460  0.9763230396727626
  0.9137565068901912  0.4975669601511480  0.0103498500329014
  0.9230916138540247  0.8313168482087991  0.4926175772980442
  0.9155742851504121  0.8429665121112512  0.9974999518193806
  0.9759850009417245  0.1645324259562447  0.1293799298487111
  0.9872170751386425  0.1576503240751030  0.6236863210053211
  0.9893443435981994  0.4973071514331014  0.1215229203997445
  0.3401016466807674  0.1668322059431511  0.1244888725236934
  0.1610554287527974  0.3284844180974830  0.3762867095459986
  0.9930080882491114  0.5073044448481100  0.6271909191277055
  0.3436901745674740  0.1636602943936602  0.6304059623186042
  0.1752114567537855  0.3290539421141465  0.8797736636943139
  0.0024250167821639  0.8368346541491668  0.1241125556475909
  0.3305546848565054  0.4933545298931218  0.1218565501433893
  0.1549822061022731  0.6733875559936729  0.3746275913052995
  0.0038298921027178  0.8294364314446790  0.6240707621895352
  0.6729845982656050  0.1518225165993640  0.1237322639796696
  0.5089277094798198  0.3272177772575361  0.3704324643862292
  0.3356948029179964  0.5074683297344618  0.6240799845364561
  0.1711472221147091  0.6692131944602143  0.8758404270870460
  0.6654598337669504  0.1547072464860935  0.6239578200135356
  0.4918960889728758  0.3276456801921979  0.8741049821430135
  0.3346450192820383  0.8394321557222797  0.1251102406310682
  0.1654026076548679  0.9970989267983456  0.3741500333939557
  0.6812468703963432  0.4985142267205369  0.1202479339900650
  0.5065242588061173  0.6728339448614856  0.3774765691704839
  0.3423104443504362  0.8278271638741856  0.6262413984268486
  0.1818916089054473  0.9990717940183336  0.8770713635463162
  0.8204015005466775  0.3361183007307254  0.3707369098265059
  0.6716730707177555  0.5011875724850139  0.6270693697365747
  0.4981722600846660  0.6735547061461854  0.8725059615008012
  0.8310999538134343  0.3432160391117703  0.8834709427328367
  0.6684264507951428  0.8486772184486714  0.1203307828059538
  0.5177557483671897  0.0058240247805559  0.3795231820089581
  0.8393187681332299  0.6656913259487546  0.3712730088757989
  0.6602406937640859  0.8382530525504632  0.6257160727648223
  0.4943099594342679  0.9998283390763477  0.8687097095891586
  0.8282480535597391  0.6491549874097733  0.8748748758019020
  0.8375958458510792  0.0091769913051850  0.3704143124466287
  0.8314954350473707  0.0254775734264802  0.8762784846704305
  0.0169922042097263  0.0837236914198874  0.2578186510342789
  0.9832770509358384  0.0845767412506113  0.7330428744467669
  0.9952666447725004  0.4159719705511755  0.2479951302437831
  0.3316159753125211  0.0855292894883636  0.2386520098059152
  0.1639912608603810  0.2493033851675138  0.4956911666767169
  0.9860115550264341  0.4168029582565709  0.7550744997994958
  0.3394907316009622  0.0855622462669286  0.7565677962897362
  0.1769716539484620  0.2500885299556034  0.0077939562569655
  0.0026313238741706  0.7492522027098893  0.2619008327526790
  0.3336933956368395  0.4143709253171723  0.2395499708076777
  0.1690859489782902  0.5862978648493612  0.4963635345784220
  0.0077574103277963  0.7497982222847612  0.7318655727823984
  0.6641535683560343  0.0883570241498729  0.2816286844889854
  0.5168445159545408  0.2430164298062973  0.4935520623780942
  0.3377622809670717  0.4146087012943386  0.7558831535536525
  0.1664751058780415  0.5862633102961001  0.0039042454895528
  0.6668055562019370  0.0873487634193674  0.7331595024650575
  0.4959424175156942  0.2481353441096347  0.0138957295872555
  0.3278114135724841  0.7483852697949294  0.2604952882210410
  0.1559726654269247  0.9108131976445120  0.4883000761849224
  0.6695319137188099  0.4163113009723586  0.2508865546065616
  0.4984614768663961  0.5873054260082182  0.4972146694663805
  0.3372781391986369  0.7489039066169761  0.7427985915417399
  0.1636728004436069  0.9123310689754864  0.0130029389585962
  0.8184390690979731  0.2408803344636470  0.5058654535924415
  0.6756333841542081  0.4187842116750952  0.7462541353859378
  0.5008842455802249  0.5851648395253120  0.0002758343575860
  0.8265742868722661  0.2426543380197360 -0.0057074643898211
  0.6694119262086036  0.7465262594972399  0.2627401064741126
  0.5068587065349547  0.9182530997481417  0.5224343121130934
  0.8328313492003648  0.5869367628621883  0.5196407265910041
  0.6543633274898997  0.7448757944603309  0.7392437279115299
  0.4994125852786155  0.9193780886397173  0.9921661020530319
  0.8305457572161188  0.5861690460990630  0.9774976396749840
  0.8329739604011234  0.9215694476266535  0.5019183812143337
  0.8376486952210060  0.9188047848261678  0.9922161022580163
 
  0.00000000E+00  0.00000000E+00  0.00000000E+00
  0.00000000E+00  0.00000000E+00  0.00000000E+00
  0.00000000E+00  0.00000000E+00  0.00000000E+00
  0.00000000E+00  0.00000000E+00  0.00000000E+00
  0.00000000E+00  0.00000000E+00  0.00000000E+00
  0.00000000E+00  0.00000000E+00  0.00000000E+00
  0.00000000E+00  0.00000000E+00  0.00000000E+00
  0.00000000E+00  0.00000000E+00  0.00000000E+00
  0.00000000E+00  0.00000000E+00  0.00000000E+00
  0.00000000E+00  0.00000000E+00  0.00000000E+00
  0.00000000E+00  0.00000000E+00  0.00000000E+00
  0.00000000E+00  0.00000000E+00  0.00000000E+00
  0.00000000E+00  0.00000000E+00  0.00000000E+00
  0.00000000E+00  0.00000000E+00  0.00000000E+00
  0.00000000E+00  0.00000000E+00  0.00000000E+00
  0.00000000E+00  0.00000000E+00  0.00000000E+00
  0.00000000E+00  0.00000000E+00  0.00000000E+00
  0.00000000E+00  0.00000000E+00  0.00000000E+00
  0.00000000E+00  0.00000000E+00  0.00000000E+00
  0.00000000E+00  0.00000000E+00  0.00000000E+00
  0.00000000E+00  0.00000000E+00  0.00000000E+00
  0.00000000E+00  0.00000000E+00  0.00000000E+00
  0.00000000E+00  0.00000000E+00  0.00000000E+00
  0.00000000E+00  0.00000000E+00  0.00000000E+00
  0.00000000E+00  0.00000000E+00  0.00000000E+00
  0.00000000E+00  0.00000000E+00  0.00000000E+00
  0.00000000E+00  0.00000000E+00  0.00000000E+00
  0.00000000E+00  0.00000000E+00  0.00000000E+00
  0.00000000E+00  0.00000000E+00  0.00000000E+00
  0.00000000E+00  0.00000000E+00  0.00000000E+00
  0.00000000E+00  0.00000000E+00  0.00000000E+00
  0.00000000E+00  0.00000000E+00  0.00000000E+00
  0.00000000E+00  0.00000000E+00  0.00000000E+00
  0.00000000E+00  0.00000000E+00  0.00000000E+00
  0.00000000E+00  0.00000000E+00  0.00000000E+00
  0.00000000E+00  0.00000000E+00  0.00000000E+00
  0.00000000E+00  0.00000000E+00  0.00000000E+00
  0.00000000E+00  0.00000000E+00  0.00000000E+00
  0.00000000E+00  0.00000000E+00  0.00000000E+00
  0.00000000E+00  0.00000000E+00  0.00000000E+00
  0.00000000E+00  0.00000000E+00  0.00000000E+00
  0.00000000E+00  0.00000000E+00  0.00000000E+00
  0.00000000E+00  0.00000000E+00  0.00000000E+00
  0.00000000E+00  0.00000000E+00  0.00000000E+00
  0.00000000E+00  0.00000000E+00  0.00000000E+00
  0.00000000E+00  0.00000000E+00  0.00000000E+00
  0.00000000E+00  0.00000000E+00  0.00000000E+00
  0.00000000E+00  0.00000000E+00  0.00000000E+00
  0.00000000E+00  0.00000000E+00  0.00000000E+00
  0.00000000E+00  0.00000000E+00  0.00000000E+00
  0.00000000E+00  0.00000000E+00  0.00000000E+00
  0.00000000E+00  0.00000000E+00  0.00000000E+00
  0.00000000E+00  0.00000000E+00  0.00000000E+00
  0.00000000E+00  0.00000000E+00  0.00000000E+00
  0.00000000E+00  0.00000000E+00  0.00000000E+00
  0.00000000E+00  0.00000000E+00  0.00000000E+00
  0.00000000E+00  0.00000000E+00  0.00000000E+00
  0.00000000E+00  0.00000000E+00  0.00000000E+00
  0.00000000E+00  0.00000000E+00  0.00000000E+00
  0.00000000E+00  0.00000000E+00  0.00000000E+00
  0.00000000E+00  0.00000000E+00  0.00000000E+00
  0.00000000E+00  0.00000000E+00  0.00000000E+00
  0.00000000E+00  0.00000000E+00  0.00000000E+00
  0.00000000E+00  0.00000000E+00  0.00000000E+00
  0.00000000E+00  0.00000000E+00  0.00000000E+00
  0.00000000E+00  0.00000000E+00  0.00000000E+00
  0.00000000E+00  0.00000000E+00  0.00000000E+00
  0.00000000E+00  0.00000000E+00  0.00000000E+00
  0.00000000E+00  0.00000000E+00  0.00000000E+00
  0.00000000E+00  0.00000000E+00  0.00000000E+00
  0.00000000E+00  0.00000000E+00  0.00000000E+00
  0.00000000E+00  0.00000000E+00  0.00000000E+00
  0.00000000E+00  0.00000000E+00  0.00000000E+00
  0.00000000E+00  0.00000000E+00  0.00000000E+00
  0.00000000E+00  0.00000000E+00  0.00000000E+00
  0.00000000E+00  0.00000000E+00  0.00000000E+00
  0.00000000E+00  0.00000000E+00  0.00000000E+00
  0.00000000E+00  0.00000000E+00  0.00000000E+00
  0.00000000E+00  0.00000000E+00  0.00000000E+00
  0.00000000E+00  0.00000000E+00  0.00000000E+00
  0.00000000E+00  0.00000000E+00  0.00000000E+00
  0.00000000E+00  0.00000000E+00  0.00000000E+00
  0.00000000E+00  0.00000000E+00  0.00000000E+00
  0.00000000E+00  0.00000000E+00  0.00000000E+00
  0.00000000E+00  0.00000000E+00  0.00000000E+00
  0.00000000E+00  0.00000000E+00  0.00000000E+00
  0.00000000E+00  0.00000000E+00  0.00000000E+00
  0.00000000E+00  0.00000000E+00  0.00000000E+00
  0.00000000E+00  0.00000000E+00  0.00000000E+00
  0.00000000E+00  0.00000000E+00  0.00000000E+00
  0.00000000E+00  0.00000000E+00  0.00000000E+00
  0.00000000E+00  0.00000000E+00  0.00000000E+00
  0.00000000E+00  0.00000000E+00  0.00000000E+00
  0.00000000E+00  0.00000000E+00  0.00000000E+00
  0.00000000E+00  0.00000000E+00  0.00000000E+00
  0.00000000E+00  0.00000000E+00  0.00000000E+00
  0.00000000E+00  0.00000000E+00  0.00000000E+00
  0.00000000E+00  0.00000000E+00  0.00000000E+00
  0.00000000E+00  0.00000000E+00  0.00000000E+00
  0.00000000E+00  0.00000000E+00  0.00000000E+00
  0.00000000E+00  0.00000000E+00  0.00000000E+00
  0.00000000E+00  0.00000000E+00  0.00000000E+00
  0.00000000E+00  0.00000000E+00  0.00000000E+00
  0.00000000E+00  0.00000000E+00  0.00000000E+00
  0.00000000E+00  0.00000000E+00  0.00000000E+00
  0.00000000E+00  0.00000000E+00  0.00000000E+00
  0.00000000E+00  0.00000000E+00  0.00000000E+00
  0.00000000E+00  0.00000000E+00  0.00000000E+00
  0.00000000E+00  0.00000000E+00  0.00000000E+00
  0.00000000E+00  0.00000000E+00  0.00000000E+00
  0.00000000E+00  0.00000000E+00  0.00000000E+00
  0.00000000E+00  0.00000000E+00  0.00000000E+00
  0.00000000E+00  0.00000000E+00  0.00000000E+00
  0.00000000E+00  0.00000000E+00  0.00000000E+00
  0.00000000E+00  0.00000000E+00  0.00000000E+00
  0.00000000E+00  0.00000000E+00  0.00000000E+00
  0.00000000E+00  0.00000000E+00  0.00000000E+00
  0.00000000E+00  0.00000000E+00  0.00000000E+00
  0.00000000E+00  0.00000000E+00  0.00000000E+00
  0.00000000E+00  0.00000000E+00  0.00000000E+00
  0.00000000E+00  0.00000000E+00  0.00000000E+00
  0.00000000E+00  0.00000000E+00  0.00000000E+00
  0.00000000E+00  0.00000000E+00  0.00000000E+00
  0.00000000E+00  0.00000000E+00  0.00000000E+00
  0.00000000E+00  0.00000000E+00  0.00000000E+00
  0.00000000E+00  0.00000000E+00  0.00000000E+00
  0.00000000E+00  0.00000000E+00  0.00000000E+00
  0.00000000E+00  0.00000000E+00  0.00000000E+00
  0.00000000E+00  0.00000000E+00  0.00000000E+00
  0.00000000E+00  0.00000000E+00  0.00000000E+00
  0.00000000E+00  0.00000000E+00  0.00000000E+00
  0.00000000E+00  0.00000000E+00  0.00000000E+00
  0.00000000E+00  0.00000000E+00  0.00000000E+00
  0.00000000E+00  0.00000000E+00  0.00000000E+00
  0.00000000E+00  0.00000000E+00  0.00000000E+00
  0.00000000E+00  0.00000000E+00  0.00000000E+00
  0.00000000E+00  0.00000000E+00  0.00000000E+00
  0.00000000E+00  0.00000000E+00  0.00000000E+00
  0.00000000E+00  0.00000000E+00  0.00000000E+00
  0.00000000E+00  0.00000000E+00  0.00000000E+00
  0.00000000E+00  0.00000000E+00  0.00000000E+00
  0.00000000E+00  0.00000000E+00  0.00000000E+00
  0.00000000E+00  0.00000000E+00  0.00000000E+00
  0.00000000E+00  0.00000000E+00  0.00000000E+00
  0.00000000E+00  0.00000000E+00  0.00000000E+00
  0.00000000E+00  0.00000000E+00  0.00000000E+00
  0.00000000E+00  0.00000000E+00  0.00000000E+00
  0.00000000E+00  0.00000000E+00  0.00000000E+00
  0.00000000E+00  0.00000000E+00  0.00000000E+00
  0.00000000E+00  0.00000000E+00  0.00000000E+00
  0.00000000E+00  0.00000000E+00  0.00000000E+00
  0.00000000E+00  0.00000000E+00  0.00000000E+00
  0.00000000E+00  0.00000000E+00  0.00000000E+00
  0.00000000E+00  0.00000000E+00  0.00000000E+00
  0.00000000E+00  0.00000000E+00  0.00000000E+00
  0.00000000E+00  0.00000000E+00  0.00000000E+00
  0.00000000E+00  0.00000000E+00  0.00000000E+00
  0.00000000E+00  0.00000000E+00  0.00000000E+00
  0.00000000E+00  0.00000000E+00  0.00000000E+00
  0.00000000E+00  0.00000000E+00  0.00000000E+00
  0.00000000E+00  0.00000000E+00  0.00000000E+00
  0.00000000E+00  0.00000000E+00  0.00000000E+00
  0.00000000E+00  0.00000000E+00  0.00000000E+00
  0.00000000E+00  0.00000000E+00  0.00000000E+00
  0.00000000E+00  0.00000000E+00  0.00000000E+00
  0.00000000E+00  0.00000000E+00  0.00000000E+00
  0.00000000E+00  0.00000000E+00  0.00000000E+00
  0.00000000E+00  0.00000000E+00  0.00000000E+00
  0.00000000E+00  0.00000000E+00  0.00000000E+00
  0.00000000E+00  0.00000000E+00  0.00000000E+00
  0.00000000E+00  0.00000000E+00  0.00000000E+00
  0.00000000E+00  0.00000000E+00  0.00000000E+00
  0.00000000E+00  0.00000000E+00  0.00000000E+00
  0.00000000E+00  0.00000000E+00  0.00000000E+00
  0.00000000E+00  0.00000000E+00  0.00000000E+00
  0.00000000E+00  0.00000000E+00  0.00000000E+00
  0.00000000E+00  0.00000000E+00  0.00000000E+00
  0.00000000E+00  0.00000000E+00  0.00000000E+00
  0.00000000E+00  0.00000000E+00  0.00000000E+00
  0.00000000E+00  0.00000000E+00  0.00000000E+00
  0.00000000E+00  0.00000000E+00  0.00000000E+00
  0.00000000E+00  0.00000000E+00  0.00000000E+00
  0.00000000E+00  0.00000000E+00  0.00000000E+00
  0.00000000E+00  0.00000000E+00  0.00000000E+00
  0.00000000E+00  0.00000000E+00  0.00000000E+00
  0.00000000E+00  0.00000000E+00  0.00000000E+00
  0.00000000E+00  0.00000000E+00  0.00000000E+00
  0.00000000E+00  0.00000000E+00  0.00000000E+00
  0.00000000E+00  0.00000000E+00  0.00000000E+00
  0.00000000E+00  0.00000000E+00  0.00000000E+00
  0.00000000E+00  0.00000000E+00  0.00000000E+00
  0.00000000E+00  0.00000000E+00  0.00000000E+00
  0.00000000E+00  0.00000000E+00  0.00000000E+00
  0.00000000E+00  0.00000000E+00  0.00000000E+00
  0.00000000E+00  0.00000000E+00  0.00000000E+00
  0.00000000E+00  0.00000000E+00  0.00000000E+00
  0.00000000E+00  0.00000000E+00  0.00000000E+00
  0.00000000E+00  0.00000000E+00  0.00000000E+00
  0.00000000E+00  0.00000000E+00  0.00000000E+00
  0.00000000E+00  0.00000000E+00  0.00000000E+00
  0.00000000E+00  0.00000000E+00  0.00000000E+00
  0.00000000E+00  0.00000000E+00  0.00000000E+00
  0.00000000E+00  0.00000000E+00  0.00000000E+00
  0.00000000E+00  0.00000000E+00  0.00000000E+00
  0.00000000E+00  0.00000000E+00  0.00000000E+00
  0.00000000E+00  0.00000000E+00  0.00000000E+00
  0.00000000E+00  0.00000000E+00  0.00000000E+00
  0.00000000E+00  0.00000000E+00  0.00000000E+00
  0.00000000E+00  0.00000000E+00  0.00000000E+00
  0.00000000E+00  0.00000000E+00  0.00000000E+00
  0.00000000E+00  0.00000000E+00  0.00000000E+00
  0.00000000E+00  0.00000000E+00  0.00000000E+00
  0.00000000E+00  0.00000000E+00  0.00000000E+00
  0.00000000E+00  0.00000000E+00  0.00000000E+00
  0.00000000E+00  0.00000000E+00  0.00000000E+00
  0.00000000E+00  0.00000000E+00  0.00000000E+00
  0.00000000E+00  0.00000000E+00  0.00000000E+00
  0.00000000E+00  0.00000000E+00  0.00000000E+00
  0.00000000E+00  0.00000000E+00  0.00000000E+00
  0.00000000E+00  0.00000000E+00  0.00000000E+00
  0.00000000E+00  0.00000000E+00  0.00000000E+00
  0.00000000E+00  0.00000000E+00  0.00000000E+00
  0.00000000E+00  0.00000000E+00  0.00000000E+00
  0.00000000E+00  0.00000000E+00  0.00000000E+00
  0.00000000E+00  0.00000000E+00  0.00000000E+00
  0.00000000E+00  0.00000000E+00  0.00000000E+00
  0.00000000E+00  0.00000000E+00  0.00000000E+00
  0.00000000E+00  0.00000000E+00  0.00000000E+00
  0.00000000E+00  0.00000000E+00  0.00000000E+00
  0.00000000E+00  0.00000000E+00  0.00000000E+00
  0.00000000E+00  0.00000000E+00  0.00000000E+00
  0.00000000E+00  0.00000000E+00  0.00000000E+00
  0.00000000E+00  0.00000000E+00  0.00000000E+00
  0.00000000E+00  0.00000000E+00  0.00000000E+00
  0.00000000E+00  0.00000000E+00  0.00000000E+00
  0.00000000E+00  0.00000000E+00  0.00000000E+00
  0.00000000E+00  0.00000000E+00  0.00000000E+00
  0.00000000E+00  0.00000000E+00  0.00000000E+00
  0.00000000E+00  0.00000000E+00  0.00000000E+00
  0.00000000E+00  0.00000000E+00  0.00000000E+00
  0.00000000E+00  0.00000000E+00  0.00000000E+00
  0.00000000E+00  0.00000000E+00  0.00000000E+00
  0.00000000E+00  0.00000000E+00  0.00000000E+00
  0.00000000E+00  0.00000000E+00  0.00000000E+00
  0.00000000E+00  0.00000000E+00  0.00000000E+00
  0.00000000E+00  0.00000000E+00  0.00000000E+00
  0.00000000E+00  0.00000000E+00  0.00000000E+00
  0.00000000E+00  0.00000000E+00  0.00000000E+00
  0.00000000E+00  0.00000000E+00  0.00000000E+00
  0.00000000E+00  0.00000000E+00  0.00000000E+00
  0.00000000E+00  0.00000000E+00  0.00000000E+00
  0.00000000E+00  0.00000000E+00  0.00000000E+00
