       N       E                     dE             d eps       ncg     rms          rms(c)
DAV:   1     0.134625684841E+05    0.13463E+05   -0.25224E+05 15960   0.239E+03
DAV:   2     0.227051422696E+04   -0.11192E+05   -0.10500E+05 15960   0.794E+02
DAV:   3    -0.469416753885E+03   -0.27399E+04   -0.25069E+04 20640   0.409E+02
DAV:   4    -0.871716620075E+03   -0.40230E+03   -0.38012E+03 26824   0.215E+02
DAV:   5    -0.897638828773E+03   -0.25922E+02   -0.25194E+02 26632   0.679E+01    0.203E+02
DAV:   6    -0.697142942688E+03    0.20050E+03   -0.26957E+02 29240   0.830E+01    0.820E+01
DAV:   7    -0.694431175049E+03    0.27118E+01   -0.25955E+02 27136   0.405E+01    0.456E+01
DAV:   8    -0.693016867861E+03    0.14143E+01   -0.33973E+01 27160   0.193E+01    0.170E+01
DAV:   9    -0.692577099252E+03    0.43977E+00   -0.40479E+00 25656   0.811E+00    0.814E+00
DAV:  10    -0.692491329919E+03    0.85769E-01   -0.72633E-01 26664   0.384E+00    0.642E+00
DAV:  11    -0.692464465374E+03    0.26865E-01   -0.14238E-01 26080   0.148E+00    0.331E+00
DAV:  12    -0.692461253692E+03    0.32117E-02   -0.59548E-02 27032   0.802E-01    0.606E-01
DAV:  13    -0.692460318716E+03    0.93498E-03   -0.10770E-02 25832   0.402E-01    0.183E-01
DAV:  14    -0.692460306019E+03    0.12697E-04   -0.11001E-03 26912   0.124E-01    0.145E-01
DAV:  15    -0.692460319417E+03   -0.13398E-04   -0.13133E-04 29808   0.517E-02    0.677E-02
DAV:  16    -0.692460310527E+03    0.88898E-05   -0.22928E-05 26128   0.215E-02    0.281E-02
DAV:  17    -0.692460305107E+03    0.54207E-05   -0.50445E-06 16776   0.114E-02    0.132E-02
DAV:  18    -0.692460304555E+03    0.55189E-06   -0.15242E-06 14392   0.553E-03
   1 F= 0.14194204E+03 E0= 0.14194324E+03  d E =0.141942E+03
