opt                                     
           1
    10.031018   -0.001697    0.010473
    -0.001700   10.021297    0.002829
     0.006912    0.001867    6.649480
   Mg   Ca   Zr   Na   H 
   9   9   9   9 216
Direct configuration=     1
   0.17238310  0.16452405  0.24987285
   0.16378904  0.83401609  0.25076084
   0.33428174  0.66858271  0.50102496
   0.82595251  0.17458357  0.75098783
   0.83235963  0.49779844  0.24829649
   0.49721086  0.83384422  0.75035536
   0.33474371  0.00296068  0.00028100
   0.67246121  0.00053712  0.50667153
   0.66857148  0.00254321  0.99067764
   0.16238663  0.16234961  0.75407855
   0.17191108  0.83639456  0.74964055
   0.50771347  0.49863926  0.74857071
   0.33517541  0.66800874  0.00298408
   0.66649848  0.32481898  0.99911223
   0.66571722  0.66979533  0.99882034
   0.99803254  0.32733963  0.00078971
   0.83473629  0.83975734  0.25085161
   0.00223581  0.00657230  0.00362635
   0.16126838  0.49851760  0.25282916
   0.34133202  0.32954121  0.49981409
   0.16489200  0.50112846  0.74743308
   0.50710660  0.49533329  0.24740881
   0.50468554  0.84131853  0.24967636
   0.33536688  0.99952268  0.49781225
   0.98642337  0.32913011  0.50157025
   0.83249775  0.83480456  0.74108534
   0.99652277  0.67018148  0.99986253
   0.50176356  0.16226539  0.25197483
   0.50227180  0.16451987  0.75306311
   0.33430953  0.33097220  0.99981986
   0.82296499  0.16980461  0.25664975
   0.66667741  0.33442429  0.50025585
   0.66856059  0.66410691  0.50051369
   0.82979467  0.49886520  0.74948415
   0.99816207  0.66798131  0.50122920
   0.99730541  0.99678310  0.49731402
   0.17643919  0.08597391  0.01837306
   0.15418329  0.08494416  0.48466980
   0.16786012  0.41328987  0.00168200
   0.50338453  0.08858616  0.99942282
   0.33651353  0.24897222  0.23592335
   0.17031297  0.41431021  0.50002197
   0.51364734  0.08330202  0.50478745
   0.33550610  0.24739734  0.76115400
   0.16811936  0.75040987  0.00672808
   0.49932264  0.41301367  0.99858009
   0.33561924  0.58705308  0.26357348
   0.17116381  0.74672053  0.49698320
   0.83085454  0.08253707  0.97944551
   0.65880312  0.25076493  0.26005677
   0.50883316  0.41480117  0.49958400
   0.34482006  0.58709810  0.74268489
   0.83105723  0.08267258  0.51655998
   0.66152335  0.25166069  0.74130276
   0.49862507  0.75105159  0.98968955
   0.32082607  0.91595277  0.24038069
   0.83150490  0.41404128  0.98079179
   0.66910033  0.58575446  0.25624724
   0.50221773  0.74780426  0.50505677
   0.33987837  0.91625465  0.75187834
   0.00669891  0.24920704  0.25113938
   0.82423394  0.41292367  0.52145090
   0.67362946  0.58283331  0.73768340
   0.99003665  0.24474971  0.75569603
   0.83036901  0.75362285  0.99866098
   0.67213745  0.92195649  0.27520596
   0.99467749  0.58447253  0.25864531
   0.83063277  0.75041429  0.49479982
   0.66391469  0.91703610  0.73800454
   0.98564218  0.58395521  0.73520813
   0.01149187  0.91853733  0.25257949
   0.00105712  0.92204223  0.74883196
   0.08652633  0.16612634  0.02126316
   0.08664856  0.15782534  0.48817052
   0.07919073  0.49702248  0.00528423
   0.41329812  0.15981616  0.00451237
   0.25200298  0.32676275  0.24653844
   0.07573057  0.50046287  0.49649067
   0.41957839  0.16213036  0.50733824
   0.25118715  0.32879076  0.75686261
   0.08802920  0.84321036  0.00558527
   0.41433983  0.49368226  0.99676381
   0.24976305  0.67653260  0.25627547
   0.08661485  0.83947149  0.49517880
   0.74303138  0.16184443  0.02346609
   0.59071027  0.31523293  0.26145014
   0.41940142  0.50699399  0.50079865
   0.24921006  0.66832013  0.74808238
   0.74773089  0.17952280  0.50567462
   0.58376151  0.31793684  0.73328375
   0.41611992  0.84286418  0.99647872
   0.25047072  0.99342061  0.23708681
   0.75103170  0.49950131  0.01676627
   0.58656762  0.66839565  0.26496406
   0.41691726  0.82878490  0.50234667
   0.25047515  0.00109059  0.76507994
   0.90912509  0.33125044  0.23991446
   0.75096862  0.49940894  0.48049304
   0.58460669  0.67908016  0.73673241
   0.91512839  0.33542337  0.75311555
   0.74744265  0.84186837  0.99568834
   0.58550607  0.00832361  0.22198345
   0.91203047  0.66353183  0.27142287
   0.74776375  0.82333180  0.49830336
   0.58420271  0.00021984  0.75826570
   0.91895006  0.66353741  0.74169646
   0.91437162  0.01179639  0.26085484
   0.91833496  0.00102452  0.74563777
   0.17386575  0.00550673  0.12512671
   0.16460002  0.99952742  0.62199515
   0.17076607  0.32506486  0.12403964
   0.50917647  0.00864024  0.12060758
   0.33838777  0.16454985  0.37060414
   0.16923424  0.32904564  0.62473078
   0.50560995  0.99407895  0.62751339
   0.33934502  0.16501259  0.87626141
   0.16617209  0.67143838  0.12863878
   0.49457934  0.31555777  0.11543964
   0.33083338  0.50256061  0.37671785
   0.16659473  0.67223289  0.61805166
   0.81964588  0.01004440  0.12779274
   0.66763179  0.14955960  0.37818006
   0.50993324  0.32895764  0.62879473
   0.33606441  0.49450249  0.87594190
   0.83506036  0.02659435  0.62002952
   0.66529848  0.15886366  0.87271675
   0.50025496  0.66939876  0.12608652
   0.32814115  0.83246493  0.37111940
   0.83522812  0.33120919  0.12807414
   0.68538366  0.49991469  0.38289817
   0.49769412  0.67212731  0.62067956
   0.34173895  0.84273857  0.87811480
   0.98117768  0.15428031  0.37134795
   0.81932980  0.34521742  0.62664634
   0.66933606  0.49467630  0.87350138
   0.98536390  0.16821310  0.86933705
   0.83099815  0.66073944  0.12894555
   0.67051882  0.84720724  0.37860423
   0.98384630  0.51114326  0.38116938
   0.83121437  0.64722251  0.61303902
   0.65517258  0.84062443  0.87269145
   0.99400703  0.49469330  0.87091827
   0.00012910  0.82965114  0.37780800
   0.00339163  0.83884732  0.87334254
   0.08458990  0.99803039  0.25882754
   0.08165091  0.99721387  0.73471996
   0.08221229  0.31496527  0.25450903
   0.41787048  0.00474174  0.23033852
   0.24934298  0.16594966  0.49727884
   0.08178331  0.32912319  0.74372364
   0.42221547  0.00476456  0.76770279
   0.25049067  0.16718763  0.00103732
   0.08230627  0.67608530  0.26805877
   0.41667495  0.32673397  0.23687605
   0.25551523  0.50325130  0.49437265
   0.08333604  0.67258783  0.73402735
   0.74907691  0.00497197  0.23284214
   0.57838981  0.17311194  0.50675984
   0.42031534  0.32873247  0.76857250
   0.25255899  0.49775431  0.00542002
   0.75126331  0.00043354  0.75300154
   0.57788427  0.15251144  0.99142590
   0.41323285  0.67163306  0.26067447
   0.25106989  0.82898410  0.48883108
   0.74986850  0.33862944  0.26543956
   0.58797223  0.49772118  0.49761471
   0.41566871  0.66159461  0.74569918
   0.25119117  0.83885649  0.01185465
   0.92253879  0.15847726  0.46921658
   0.74513763  0.33085777  0.74244358
   0.58799972  0.49688533  0.99609329
   0.91615334  0.16576366  0.03838726
   0.74964286  0.66277927  0.25573737
   0.58134005  0.82686049  0.51406726
   0.91204828  0.50255207  0.48535430
   0.74939488  0.66578978  0.74480685
   0.58379286  0.84555074  0.97640480
   0.91376288  0.49772917  0.01037957
   0.92252342  0.83124015  0.49283176
   0.91552096  0.84318739  0.99737555
   0.97692989  0.16479323  0.12886685
   0.98745520  0.15735679  0.62404338
   0.98906636  0.49759649  0.12211860
   0.34034595  0.16672144  0.12407341
   0.16144120  0.32906257  0.37618049
   0.99314763  0.50733845  0.62731945
   0.34366321  0.16367367  0.63008278
   0.17547253  0.32898538  0.87964269
   0.00244775  0.83695539  0.12418629
   0.33073071  0.49318020  0.12197018
   0.15503971  0.67362094  0.37482331
   0.00376970  0.82935337  0.62411266
   0.67358280  0.15267897  0.12398098
   0.50915134  0.32688796  0.37073209
   0.33578741  0.50744577  0.62400142
   0.17100055  0.66945752  0.87609276
   0.66559674  0.15486264  0.62400967
   0.49204753  0.32765116  0.87402753
   0.33396332  0.83941989  0.12512131
   0.16497994  0.99708077  0.37418956
   0.68139792  0.49882189  0.11990091
   0.50598536  0.67253755  0.37754233
   0.34192175  0.82768158  0.62622834
   0.18181853  0.99926907  0.87685702
   0.82050328  0.33566537  0.37095860
   0.67142759  0.50072742  0.62696580
   0.49806177  0.67407215  0.87239910
   0.83135920  0.34264123  0.88350094
   0.66802413  0.84872986  0.12033828
   0.51747177  0.00561350  0.37915688
   0.83921704  0.66560100  0.37149118
   0.66003136  0.83933900  0.62562703
   0.49516679  0.99972742  0.86885711
   0.82819863  0.64918711  0.87477466
   0.83674083  0.00880067  0.37078523
   0.83095469  0.02547393  0.87653461
   0.01586152  0.08369316  0.25806099
   0.98390963  0.08460171  0.73360541
   0.99520420  0.41619324  0.24841377
   0.33157802  0.08541683  0.23841598
   0.16420714  0.24930492  0.49511401
   0.98595380  0.41691044  0.75518684
   0.33979913  0.08566763  0.75697985
   0.17715400  0.25010129  0.00804452
   0.00244060  0.74914345  0.26202479
   0.33358384  0.41445295  0.23967548
   0.16889899  0.58636347  0.49658189
   0.00773176  0.74968973  0.73185443
   0.66433362  0.08804486  0.28131853
   0.51674902  0.24300717  0.49369765
   0.33791011  0.41448151  0.75562829
   0.16639985  0.58632945  0.00358279
   0.66754045  0.08758225  0.73339959
   0.49643237  0.24792997  0.01361343
   0.32813307  0.74852996  0.26034177
   0.15599797  0.91101553  0.48826726
   0.67038917  0.41647904  0.25089215
   0.49817002  0.58714172  0.49716575
   0.33706047  0.74882507  0.74268427
   0.16402544  0.91263621  0.01273923
   0.81856549  0.24094371  0.50565041
   0.67563695  0.41880708  0.74601814
   0.50109807  0.58518847  0.00055004
   0.82700689  0.24301732  0.99354323
   0.66923063  0.74629475  0.26294178
   0.50715496  0.91825228  0.52153806
   0.83271457  0.58697456  0.51916066
   0.65450788  0.74511705  0.73900570
   0.49846583  0.91916271  0.99248104
   0.83029293  0.58618738  0.97758830
   0.83250024  0.92139104  0.50186887
   0.83792788  0.91883830  0.99212690
