generated by phonopy                    
   1.00000000000000     
     0.0000000000000000    3.2790890806197552    3.2790890806198538
     3.2790890806197961    0.0000000000000000    3.2790890806198538
     3.2790890806197961    3.2790890806197552    0.0000000000000000
   Na   Zr   Ca   Sc   H 
     1     1     1     1    24
Direct
  0.2500000000000000  0.2500000000000000  0.2500000000000000
  0.7500000000000000  0.7500000000000000  0.7500000000000000
  0.0000000000000000  0.0000000000000000  0.0000000000000000
  0.5000000000000000  0.5000000000000000  0.5000000000000000
  0.1368941659661473  0.8863899261628490  0.6135348581023266
  0.8863899261628490  0.1368941659661473  0.3631810497686701
  0.6135348581023266  0.3631810497686701  0.1368941659661473
  0.3631810497686701  0.6135348581023266  0.8863899261628490
  0.6135348581023266  0.1368941659661473  0.8863899261628490
  0.3631810497686701  0.8863899261628490  0.1368941659661473
  0.1368941659661473  0.6135348581023266  0.3631810497686701
  0.8863899261628490  0.3631810497686701  0.6135348581023266
  0.8863899261628490  0.6135348581023266  0.1368941659661473
  0.1368941659661473  0.3631810497686701  0.8863899261628490
  0.3631810497686701  0.1368941659661473  0.6135348581023266
  0.6135348581023266  0.8863899261628490  0.3631810497686701
  0.1368941659661473  0.3631810497686701  0.6135348581023266
  0.3631810497686701  0.1368941659661473  0.8863899261628490
  0.6135348581023266  0.8863899261628490  0.1368941659661473
  0.8863899261628490  0.6135348581023266  0.3631810497686701
  0.6135348581023266  0.1368941659661473  0.3631810497686701
  0.8863899261628490  0.3631810497686701  0.1368941659661473
  0.1368941659661473  0.6135348581023266  0.8863899261628490
  0.3631810497686701  0.8863899261628490  0.6135348581023266
  0.3631810497686701  0.6135348581023266  0.1368941659661473
  0.1368941659661473  0.8863899261628490  0.3631810497686701
  0.8863899261628490  0.1368941659661473  0.6135348581023266
  0.6135348581023266  0.3631810497686701  0.8863899261628490
 
  0.00000000E+00  0.00000000E+00  0.00000000E+00
  0.00000000E+00  0.00000000E+00  0.00000000E+00
  0.00000000E+00  0.00000000E+00  0.00000000E+00
  0.00000000E+00  0.00000000E+00  0.00000000E+00
  0.00000000E+00  0.00000000E+00  0.00000000E+00
  0.00000000E+00  0.00000000E+00  0.00000000E+00
  0.00000000E+00  0.00000000E+00  0.00000000E+00
  0.00000000E+00  0.00000000E+00  0.00000000E+00
  0.00000000E+00  0.00000000E+00  0.00000000E+00
  0.00000000E+00  0.00000000E+00  0.00000000E+00
  0.00000000E+00  0.00000000E+00  0.00000000E+00
  0.00000000E+00  0.00000000E+00  0.00000000E+00
  0.00000000E+00  0.00000000E+00  0.00000000E+00
  0.00000000E+00  0.00000000E+00  0.00000000E+00
  0.00000000E+00  0.00000000E+00  0.00000000E+00
  0.00000000E+00  0.00000000E+00  0.00000000E+00
  0.00000000E+00  0.00000000E+00  0.00000000E+00
  0.00000000E+00  0.00000000E+00  0.00000000E+00
  0.00000000E+00  0.00000000E+00  0.00000000E+00
  0.00000000E+00  0.00000000E+00  0.00000000E+00
  0.00000000E+00  0.00000000E+00  0.00000000E+00
  0.00000000E+00  0.00000000E+00  0.00000000E+00
  0.00000000E+00  0.00000000E+00  0.00000000E+00
  0.00000000E+00  0.00000000E+00  0.00000000E+00
  0.00000000E+00  0.00000000E+00  0.00000000E+00
  0.00000000E+00  0.00000000E+00  0.00000000E+00
  0.00000000E+00  0.00000000E+00  0.00000000E+00
  0.00000000E+00  0.00000000E+00  0.00000000E+00
