POSCAR                                  
   1.00000000000000     
     9.8532124147329885   -0.0199244555753544    0.0032161294169827
    -0.0198031753799321    9.8710619701570295    0.0103900892814527
     0.0021716451423805    0.0069374480297635    6.5628603851091611
   Mg   Hf   Ca   Sc   H 
     9     9     9     9   216
Direct
  0.1678628849896739  0.1677278376987417  0.2458870977513214
  0.1639654501403314  0.8344415576360404  0.7519103920923484
  0.8312423984713391  0.1661424540993721  0.2463445317779431
  0.6658841153676320  0.3307844121738057  0.4992629057965488
  0.5021045208607688  0.8311553133153495  0.7535867637223816
  0.9959976554292851  0.3356162112243553  0.0059301630569948
  0.8336627758518560  0.8325655279227604  0.7514143484698153
  0.9984640383892867  0.6659625707742975  0.9997170137947364
  0.0003897626836604  0.9979409225451121  0.9997217135194489
  0.1590622783697242  0.1577499127603659  0.7502345036544682
  0.1634671060533748  0.5088710318340546  0.7553536632614524
  0.5040768119693197  0.1660660953936528  0.7509832259975582
  0.3286802453471154  0.3307246067335257  0.0018119859845385
  0.3300529055348420  0.6662720905050818  0.5006118507779149
  0.8379001742046697  0.1623001018585697  0.7537832767666615
  0.3323019142038959  0.9996114885493839  0.4982455650226072
  0.6709538258860519  0.6707874452153533  0.5013726822802269
  0.9972908773474458  0.3331865989623140  0.4933201465215333
  0.1646855247829819  0.4979900690228689  0.2468282626214915
  0.5009525926342135  0.1669325567026050  0.2515247548849473
  0.3368245537711090  0.3363171472677777  0.4994223353100509
  0.4992581518558765  0.8337761902338343  0.2491928740432527
  0.8341027571205188  0.4984075155775329  0.2489557736717884
  0.6703466201407338  0.6667135738035839  0.0011095300970183
  0.8378228335615958  0.8364751157859587  0.2472123352692535
  0.6689180831720947  0.0022210810106813  0.4986889733591013
  0.9976471379134395  0.9977870307241616  0.4932901313315341
  0.1620180302447878  0.8333294878142894  0.2436076878675664
  0.5023989032949245  0.4993683713068791  0.2493387995161740
  0.5050130332940910  0.5027648667775324  0.7516590091554036
  0.3329662129816242  0.6737571948242831  0.9979655503411280
  0.6755506457336935  0.3336381463061642  0.0023879144943351
  0.3295034097765139  0.9957103278719615  0.0002361686634913
  0.8330641446833624  0.5038925309763940  0.7533819076857142
  0.9987536818997569  0.6718201372988730  0.5024641882573277
  0.6687550983778081  0.9954011502543736  0.0013765168627984
  0.1605214919175708  0.0780622794468613  0.0147836608122489
  0.1608396369981335  0.0834566648760102  0.4789970726092818
  0.1567414253920703  0.4148809839754009  0.9991191669756461
  0.5019553870045428  0.0826957283513465  0.0016352053447903
  0.3319472235158898  0.2473108811176630  0.2527383785677060
  0.1663341012406860  0.4174613178893267  0.5036307092683145
  0.5028434919130191  0.0821586965559646  0.4993654789706952
  0.3285950629546548  0.2500082647239310  0.7459515989095209
  0.1605450116061462  0.7523403834489955  0.9965197722390471
  0.5024917280424361  0.4165772403448500  0.9987212581915443
  0.3336154460867888  0.5832866733519921  0.2365721123478437
  0.1634692367290853  0.7523172480609119  0.4947228550087743
  0.8357052501059741  0.0788137465813605  0.0128078951346211
  0.6687518285232272  0.2512991788861854  0.2465240358261624
  0.5095350058626522  0.4172508916755433  0.5051331111044703
  0.3399017037279961  0.5840401851088401  0.7637468345635412
  0.8347283242769379  0.0841495851310370  0.4879020061918098
  0.6714279116201638  0.2557790668842799  0.7491424498153805
  0.4997600063538599  0.7504188426347014  0.9943556826095659
  0.3257902744251240  0.9129776172062236  0.2423345427082211
  0.8389782967963910  0.4150692869136350  0.9969641563198053
  0.6658119112143694  0.5800647294954260  0.2520150647166091
  0.4973525545531245  0.7531158983201962  0.5086991761917048
  0.3417372637848786  0.9126144917553276  0.7527519930007216
  0.9962199430335801  0.2442497440213032  0.2267313206282253
  0.8244366665692766  0.4175213982424992  0.5053725345639748
  0.6686165549454799  0.5811142586750506  0.7522297856229088
  0.9990135688377890  0.2550330608682643  0.7773349059568915
  0.8405659080448089  0.7510633613516191  0.9889954814174402
  0.6699763759616957  0.9161999555715070  0.2494143777558548
  0.0002291247318666  0.5832266816537839  0.2395248107798835
  0.8391953065775013  0.7522620134157876  0.5083876728800405
  0.6704334023946146  0.9155364072778980  0.7500543035788283
  0.9928935177643581  0.5871947177809673  0.7643555510978999
  0.0045241202112507  0.9176422051099635  0.2319081162040746
  0.9910384963699528  0.9135028226707789  0.7537275999526472
  0.0801213962480674  0.1573308995758467  0.0126431642728306
  0.0845669329723293  0.1632608335754355  0.4702303480771661
  0.0802995450269677  0.5023275738660828  0.0009324025819666
  0.4173731482648861  0.1625048439295043  0.0035263590537937
  0.2475691121054524  0.3306389559775837  0.2541037420274250
  0.0807967193620556  0.5080255268082681  0.4976393467426234
  0.4153455525668193  0.1682001521823722  0.4986735551022150
  0.2470140380831438  0.3342103831418939  0.7463117865203017
  0.0803700768887623  0.8413408764584958  0.9828346279952882
  0.4205065826177758  0.4984693151851403  0.9981925135939989
  0.2475879642655698  0.6665947844447686  0.2428928033357423
  0.0818548352101089  0.8331172524098136  0.5184060803086581
  0.7503764363717096  0.1603168916945990  0.0107783437697933
  0.5854400468271947  0.3329180259645810  0.2438987774377281
  0.4207795914897474  0.5028909306874070  0.5032781057587812
  0.2499454795194893  0.6790298492483089  0.7574842596365343
  0.7494409202050463  0.1728917196680229  0.4960454721013150
  0.5867806069011436  0.3375144465703315  0.7556321171045681
  0.4161018051630023  0.8357053591706531  0.9922893648519491
  0.2454948418433176  0.9989661758859540  0.2414180638339687
  0.7498924835726584  0.4983544126441686  0.9985902458807985
  0.5800674095588150  0.6653386825365715  0.2469589440176776
  0.4195441414973260  0.8311435926598847  0.5101322870277158
  0.2500591307427555  0.9886834600533945  0.7576896318127879
  0.9131628425375311  0.3244035298797812  0.2456301063483934
  0.7497979979418687  0.4935585163526497  0.5026003884165462
  0.5814844627866336  0.6727570406990466  0.7537179160475844
  0.9175611977906755  0.3382262885060427  0.7537561267353112
  0.7526610023374474  0.8352612128647579  0.9887606153322110
  0.5811701895712460  0.0006491454885307  0.2452857888308486
  0.9177144650005360  0.6688305547687889  0.2529476097486452
  0.7532361509683412  0.8378578478858714  0.5100495573758295
  0.5830432826712126  0.9880462162382599  0.7525294160033056
  0.9170470041115308  0.6708862298190468  0.7513402729333620
  0.9186365486559183  0.0093483133555807  0.2317330680858944
  0.9186680636892675  0.9850339457247230  0.7591152006167405
  0.1653604006103819  0.9992638647423107  0.1244071447870496
  0.1630198492240282  0.9918485472611636  0.6215486646680262
  0.1535204877157597  0.3265627537396227  0.1246747892564386
  0.4978429517374181  0.9995507055864934  0.1233013665685192
  0.3265442542247072  0.1691861367775758  0.3721885811345018
  0.1648999019137918  0.3299861087644516  0.6262742178656779
  0.5013182984083286  0.9934702704739564  0.6280750349942821
  0.3303993160298049  0.1582389020090744  0.8759163770251561
  0.1602990092328014  0.6686837091892031  0.1236511995196281
  0.5102880872710642  0.3354723672412590  0.1253465871179671
  0.3349022512976276  0.5006123538323024  0.3691002589870820
  0.1596025359452895  0.6810625949077860  0.6277263645103019
  0.8350641082897852  0.0030739216046385  0.1237767702812107
  0.6742542379553811  0.1722400044862908  0.3720581425637661
  0.5071186185397210  0.3399884848981287  0.6252367282361462
  0.3425026191955638  0.5061276707644993  0.8784255013857276
  0.8339171198519892  0.9969072245794095  0.6236815633384936
  0.6705933605803409  0.1676689798952182  0.8834319660047001
  0.4989988851724547  0.6647317411596845  0.1251211747455230
  0.3268301161084182  0.8321943278737507  0.3680988150110025
  0.8369318964749084  0.3275950000916410  0.1262566467767172
  0.6663433468912032  0.4884523401878553  0.3754444386056761
  0.4989197204981508  0.6649651865698374  0.6291461185203389
  0.3256167204064582  0.8354635815126201  0.8753706936398231
  0.9963192089551285  0.1649896582210886  0.3661639834259631
  0.8288818172845609  0.3354231127651772  0.6269218420171612
  0.6669186917502969  0.4968954363790985  0.8763279408401914
  0.9987118063565319  0.1766329459939016  0.8892319210963819
  0.8423371349434348  0.6670098676054934  0.1239749150905638
  0.6685581041821322  0.8393069207803094  0.3717847246252717
  0.9995326656170533  0.5073071868503902  0.3749249892065762
  0.8406774213324795  0.6704479665297995  0.6315940961983273
  0.6672575322266709  0.8324092323017709  0.8759818580341872
  0.9932626716964776  0.4985372143765900  0.8788387324764955
  0.0045961882217824  0.8291448853070591  0.3713184300387340
  0.0043508102673613  0.8250492179579894  0.8779237494613668
  0.0834812120361264  0.0092127327458087  0.2399494179842989
  0.0796666873660996  0.9848828274744079  0.7545636825154602
  0.0835390926171300  0.3229839657345721  0.2417868051002543
  0.4175045443816998  0.9989277510417907  0.2385040512708230
  0.2477201883431093  0.1716123444650677  0.4954397730024382
  0.0799483509706462  0.3352991782098442  0.7567648156894506
  0.4197307627761617  0.9918335450082481  0.7601947796415018
  0.2467514811449192  0.1589558414275061  0.0081710664822907
  0.0844799542893142  0.6683899728839009  0.2485413950995508
  0.4211986048678327  0.3354836907552112  0.2478190101315931
  0.2485928507455384  0.4981224213034565  0.4983400731552265
  0.0804169666476255  0.6768534339726529  0.7553667774475556
  0.7496922587418808  0.0034205836353749  0.2452861821302221
  0.5872980654262676  0.1691168709517825  0.4974521233144742
  0.4185773166333036  0.3369654461075271  0.7528015892441786
  0.2528018697528012  0.5050378997619092  0.0035910360380385
  0.7483837412878529  0.9893126432595380  0.7542895771908391
  0.5873789932278157  0.1671490069010915  0.0060099686965955
  0.4169592561423698  0.6667310917798943  0.2456336688709371
  0.2448522384724825  0.8324293759962416  0.5152650786787660
  0.7488288884634215  0.3308331484884235  0.2572662986493199
  0.5838684944184180  0.5019829119635730  0.5030756744542444
  0.4208678209635082  0.6689698150473120  0.7542733524302463
  0.2471801811434204  0.8348544364197181  0.9848387432798233
  0.9142634830467955  0.1648510499737981  0.4719033641411983
  0.7503599671844867  0.3363764930191238  0.7439787408667087
  0.5830031967121556  0.4964033007247011  0.9999278956817292
  0.9178616451883315  0.1529933725439392  0.0126249139974632
  0.7536248795196840  0.6669643773333291  0.2506132067968565
  0.5812004435807765  0.8375058725866396  0.5144597480604602
  0.9140897729714936  0.5058236904055917  0.5056606607562131
  0.7530904044653468  0.6730780695854719  0.7539523870006946
  0.5822516864608644  0.8342502734712554  0.9897287715173846
  0.9168386379268227  0.4978316782322949  0.9961540559026432
  0.9174225498380437  0.8308691818596756  0.5117784467434277
  0.9189026914031757  0.8438751333160610  0.9914835416792940
  0.9984092046584294  0.1753378999841857  0.1276278255129881
  0.9986886651955018  0.1684979240643472  0.6159851059928840
  0.9985952316682827  0.5045119454959561  0.1282714258057496
  0.3303205832583203  0.1582811916307634  0.1259433837818378
  0.1688884569623497  0.3264180213833754  0.3707103226634842
  0.9940638479628419  0.5028803789305840  0.6256826505263788
  0.3295598470411534  0.1693254225461160  0.6263434743909784
  0.1544514557048444  0.3294636182987887  0.8773727776059914
  0.0013937054149196  0.8206695958278871  0.1224787875075890
  0.3366354430020309  0.5095856594952934  0.1255112754998038
  0.1589488237296592  0.6694514624662560  0.3680819329978391
  0.0067381843618861  0.8314298209128950  0.6239822131059469
  0.6709721361201986  0.1674320229790851  0.1258930125272073
  0.5081568845992948  0.3350775441180005  0.3736061329835394
  0.3387249048899221  0.4990592062399841  0.6297937791080557
  0.1611623003942171  0.6808262011973980  0.8795223348210968
  0.6720600339022624  0.1722951588999777  0.6216332831773030
  0.5107031755448261  0.3405096083481709  0.8783159074967912
  0.3280523253391436  0.8341015112061569  0.1270437416552284
  0.1645045352135384  0.0004684538617070  0.3666987164719231
  0.6658559207405901  0.4963760552117265  0.1267101564552391
  0.4986885380059576  0.6640436067550795  0.3723114853262928
  0.3245071774091315  0.8341477697380526  0.6299869064015908
  0.1671702099124346  0.9912145646351789  0.8780788489795839
  0.8234945580499939  0.3260220319388623  0.3724004169900610
  0.6669041421261426  0.4922141911515254  0.6245665999914323
  0.4998054626963508  0.6666723436884041  0.8766841014187818
  0.8369230315599978  0.3360695045314230  0.8762946139705861
  0.6686849086728301  0.8332061995215270  0.1265074652891798
  0.5026379060591353  0.9999125179650932  0.3709068376391045
  0.8412486425512213  0.6672379620806552  0.3711959020515323
  0.6701885890574957  0.8381438835485042  0.6276005900047892
  0.4975455912942550  0.9930348243996292  0.8783847351276677
  0.8388711264650368  0.6715912120950236  0.8760756056075962
  0.8317053400968533  0.0087874083155342  0.3681095870944873
  0.8331343990893103  0.9948625274725771  0.8801395331209605
  0.0073084242765731  0.0835651793435090  0.2391945876178880
  0.9957766184928474  0.0736496821419053  0.7652204521024615
  0.9984684017497401  0.4181674638147186  0.2345030321648522
  0.3241966305569619  0.0830076612431299  0.2410959728867894
  0.1707352528037163  0.2507629984394697  0.5002426251007819
  0.9968418723016441  0.4179104772200333  0.7671737872783666
  0.3345439217838262  0.0799436131053426  0.7594044895307448
  0.1557830964823452  0.2473985919147594  0.0019525692821531
  0.0006580710040183  0.7501942245969744  0.2275199258373064
  0.3362817901688828  0.4208342569052590  0.2500359084661881
  0.1572417371358057  0.5859459376565894  0.4927917541450313
  0.9922243396687946  0.7530946475232909  0.7663865558726428
  0.6725724919611551  0.0841034681964956  0.2441238711438913
  0.5044153899093118  0.2553479294065468  0.4977616637332929
  0.3350623770671746  0.4179780424787367  0.7503489213299233
  0.1651837527200257  0.5899569301294534  0.0068422846409959
  0.6701726156661607  0.0781707782719039  0.7557180081834218
  0.5067597894509106  0.2525807901565429  0.0052297582878253
  0.3302547957294379  0.7511860023961390  0.2437071771320234
  0.1634356918314452  0.9128577441414407  0.4946353638820753
  0.6669073214574013  0.4159086079250258  0.2653200317323794
  0.5049352103493518  0.5804978418497129  0.5001675249534756
  0.3431013831544476  0.7539916788244199  0.7544822135651259
  0.1563779942979693  0.9148689774056749  0.0004820647291979
  0.8270333229940690  0.2523408336060697  0.5001075087686502
  0.6681752461951689  0.4165981222080148  0.7357268462208779
  0.4981992026688786  0.5822372368294921  0.9995150489782247
  0.8376632499206522  0.2493541953784444  0.0061461918944090
  0.6672574927329222  0.7522832499062773  0.2437248679716078
  0.5027006708963881  0.9129696411666330  0.5121477932939129
  0.8374380968037869  0.5817458247937850  0.5018949237212311
  0.6676946109301127  0.7534313956413641  0.7578536250448167
  0.4988957812790531  0.9168338970455636  0.9927272043884159
  0.8404031015937861  0.5842076694091887  0.9984321190346890
  0.8326934190570654  0.9159219115978630  0.5098470741935444
  0.8451144987972512  0.9147704267309109  0.9909941512243137
 
  0.00000000E+00  0.00000000E+00  0.00000000E+00
  0.00000000E+00  0.00000000E+00  0.00000000E+00
  0.00000000E+00  0.00000000E+00  0.00000000E+00
  0.00000000E+00  0.00000000E+00  0.00000000E+00
  0.00000000E+00  0.00000000E+00  0.00000000E+00
  0.00000000E+00  0.00000000E+00  0.00000000E+00
  0.00000000E+00  0.00000000E+00  0.00000000E+00
  0.00000000E+00  0.00000000E+00  0.00000000E+00
  0.00000000E+00  0.00000000E+00  0.00000000E+00
  0.00000000E+00  0.00000000E+00  0.00000000E+00
  0.00000000E+00  0.00000000E+00  0.00000000E+00
  0.00000000E+00  0.00000000E+00  0.00000000E+00
  0.00000000E+00  0.00000000E+00  0.00000000E+00
  0.00000000E+00  0.00000000E+00  0.00000000E+00
  0.00000000E+00  0.00000000E+00  0.00000000E+00
  0.00000000E+00  0.00000000E+00  0.00000000E+00
  0.00000000E+00  0.00000000E+00  0.00000000E+00
  0.00000000E+00  0.00000000E+00  0.00000000E+00
  0.00000000E+00  0.00000000E+00  0.00000000E+00
  0.00000000E+00  0.00000000E+00  0.00000000E+00
  0.00000000E+00  0.00000000E+00  0.00000000E+00
  0.00000000E+00  0.00000000E+00  0.00000000E+00
  0.00000000E+00  0.00000000E+00  0.00000000E+00
  0.00000000E+00  0.00000000E+00  0.00000000E+00
  0.00000000E+00  0.00000000E+00  0.00000000E+00
  0.00000000E+00  0.00000000E+00  0.00000000E+00
  0.00000000E+00  0.00000000E+00  0.00000000E+00
  0.00000000E+00  0.00000000E+00  0.00000000E+00
  0.00000000E+00  0.00000000E+00  0.00000000E+00
  0.00000000E+00  0.00000000E+00  0.00000000E+00
  0.00000000E+00  0.00000000E+00  0.00000000E+00
  0.00000000E+00  0.00000000E+00  0.00000000E+00
  0.00000000E+00  0.00000000E+00  0.00000000E+00
  0.00000000E+00  0.00000000E+00  0.00000000E+00
  0.00000000E+00  0.00000000E+00  0.00000000E+00
  0.00000000E+00  0.00000000E+00  0.00000000E+00
  0.00000000E+00  0.00000000E+00  0.00000000E+00
  0.00000000E+00  0.00000000E+00  0.00000000E+00
  0.00000000E+00  0.00000000E+00  0.00000000E+00
  0.00000000E+00  0.00000000E+00  0.00000000E+00
  0.00000000E+00  0.00000000E+00  0.00000000E+00
  0.00000000E+00  0.00000000E+00  0.00000000E+00
  0.00000000E+00  0.00000000E+00  0.00000000E+00
  0.00000000E+00  0.00000000E+00  0.00000000E+00
  0.00000000E+00  0.00000000E+00  0.00000000E+00
  0.00000000E+00  0.00000000E+00  0.00000000E+00
  0.00000000E+00  0.00000000E+00  0.00000000E+00
  0.00000000E+00  0.00000000E+00  0.00000000E+00
  0.00000000E+00  0.00000000E+00  0.00000000E+00
  0.00000000E+00  0.00000000E+00  0.00000000E+00
  0.00000000E+00  0.00000000E+00  0.00000000E+00
  0.00000000E+00  0.00000000E+00  0.00000000E+00
  0.00000000E+00  0.00000000E+00  0.00000000E+00
  0.00000000E+00  0.00000000E+00  0.00000000E+00
  0.00000000E+00  0.00000000E+00  0.00000000E+00
  0.00000000E+00  0.00000000E+00  0.00000000E+00
  0.00000000E+00  0.00000000E+00  0.00000000E+00
  0.00000000E+00  0.00000000E+00  0.00000000E+00
  0.00000000E+00  0.00000000E+00  0.00000000E+00
  0.00000000E+00  0.00000000E+00  0.00000000E+00
  0.00000000E+00  0.00000000E+00  0.00000000E+00
  0.00000000E+00  0.00000000E+00  0.00000000E+00
  0.00000000E+00  0.00000000E+00  0.00000000E+00
  0.00000000E+00  0.00000000E+00  0.00000000E+00
  0.00000000E+00  0.00000000E+00  0.00000000E+00
  0.00000000E+00  0.00000000E+00  0.00000000E+00
  0.00000000E+00  0.00000000E+00  0.00000000E+00
  0.00000000E+00  0.00000000E+00  0.00000000E+00
  0.00000000E+00  0.00000000E+00  0.00000000E+00
  0.00000000E+00  0.00000000E+00  0.00000000E+00
  0.00000000E+00  0.00000000E+00  0.00000000E+00
  0.00000000E+00  0.00000000E+00  0.00000000E+00
  0.00000000E+00  0.00000000E+00  0.00000000E+00
  0.00000000E+00  0.00000000E+00  0.00000000E+00
  0.00000000E+00  0.00000000E+00  0.00000000E+00
  0.00000000E+00  0.00000000E+00  0.00000000E+00
  0.00000000E+00  0.00000000E+00  0.00000000E+00
  0.00000000E+00  0.00000000E+00  0.00000000E+00
  0.00000000E+00  0.00000000E+00  0.00000000E+00
  0.00000000E+00  0.00000000E+00  0.00000000E+00
  0.00000000E+00  0.00000000E+00  0.00000000E+00
  0.00000000E+00  0.00000000E+00  0.00000000E+00
  0.00000000E+00  0.00000000E+00  0.00000000E+00
  0.00000000E+00  0.00000000E+00  0.00000000E+00
  0.00000000E+00  0.00000000E+00  0.00000000E+00
  0.00000000E+00  0.00000000E+00  0.00000000E+00
  0.00000000E+00  0.00000000E+00  0.00000000E+00
  0.00000000E+00  0.00000000E+00  0.00000000E+00
  0.00000000E+00  0.00000000E+00  0.00000000E+00
  0.00000000E+00  0.00000000E+00  0.00000000E+00
  0.00000000E+00  0.00000000E+00  0.00000000E+00
  0.00000000E+00  0.00000000E+00  0.00000000E+00
  0.00000000E+00  0.00000000E+00  0.00000000E+00
  0.00000000E+00  0.00000000E+00  0.00000000E+00
  0.00000000E+00  0.00000000E+00  0.00000000E+00
  0.00000000E+00  0.00000000E+00  0.00000000E+00
  0.00000000E+00  0.00000000E+00  0.00000000E+00
  0.00000000E+00  0.00000000E+00  0.00000000E+00
  0.00000000E+00  0.00000000E+00  0.00000000E+00
  0.00000000E+00  0.00000000E+00  0.00000000E+00
  0.00000000E+00  0.00000000E+00  0.00000000E+00
  0.00000000E+00  0.00000000E+00  0.00000000E+00
  0.00000000E+00  0.00000000E+00  0.00000000E+00
  0.00000000E+00  0.00000000E+00  0.00000000E+00
  0.00000000E+00  0.00000000E+00  0.00000000E+00
  0.00000000E+00  0.00000000E+00  0.00000000E+00
  0.00000000E+00  0.00000000E+00  0.00000000E+00
  0.00000000E+00  0.00000000E+00  0.00000000E+00
  0.00000000E+00  0.00000000E+00  0.00000000E+00
  0.00000000E+00  0.00000000E+00  0.00000000E+00
  0.00000000E+00  0.00000000E+00  0.00000000E+00
  0.00000000E+00  0.00000000E+00  0.00000000E+00
  0.00000000E+00  0.00000000E+00  0.00000000E+00
  0.00000000E+00  0.00000000E+00  0.00000000E+00
  0.00000000E+00  0.00000000E+00  0.00000000E+00
  0.00000000E+00  0.00000000E+00  0.00000000E+00
  0.00000000E+00  0.00000000E+00  0.00000000E+00
  0.00000000E+00  0.00000000E+00  0.00000000E+00
  0.00000000E+00  0.00000000E+00  0.00000000E+00
  0.00000000E+00  0.00000000E+00  0.00000000E+00
  0.00000000E+00  0.00000000E+00  0.00000000E+00
  0.00000000E+00  0.00000000E+00  0.00000000E+00
  0.00000000E+00  0.00000000E+00  0.00000000E+00
  0.00000000E+00  0.00000000E+00  0.00000000E+00
  0.00000000E+00  0.00000000E+00  0.00000000E+00
  0.00000000E+00  0.00000000E+00  0.00000000E+00
  0.00000000E+00  0.00000000E+00  0.00000000E+00
  0.00000000E+00  0.00000000E+00  0.00000000E+00
  0.00000000E+00  0.00000000E+00  0.00000000E+00
  0.00000000E+00  0.00000000E+00  0.00000000E+00
  0.00000000E+00  0.00000000E+00  0.00000000E+00
  0.00000000E+00  0.00000000E+00  0.00000000E+00
  0.00000000E+00  0.00000000E+00  0.00000000E+00
  0.00000000E+00  0.00000000E+00  0.00000000E+00
  0.00000000E+00  0.00000000E+00  0.00000000E+00
  0.00000000E+00  0.00000000E+00  0.00000000E+00
  0.00000000E+00  0.00000000E+00  0.00000000E+00
  0.00000000E+00  0.00000000E+00  0.00000000E+00
  0.00000000E+00  0.00000000E+00  0.00000000E+00
  0.00000000E+00  0.00000000E+00  0.00000000E+00
  0.00000000E+00  0.00000000E+00  0.00000000E+00
  0.00000000E+00  0.00000000E+00  0.00000000E+00
  0.00000000E+00  0.00000000E+00  0.00000000E+00
  0.00000000E+00  0.00000000E+00  0.00000000E+00
  0.00000000E+00  0.00000000E+00  0.00000000E+00
  0.00000000E+00  0.00000000E+00  0.00000000E+00
  0.00000000E+00  0.00000000E+00  0.00000000E+00
  0.00000000E+00  0.00000000E+00  0.00000000E+00
  0.00000000E+00  0.00000000E+00  0.00000000E+00
  0.00000000E+00  0.00000000E+00  0.00000000E+00
  0.00000000E+00  0.00000000E+00  0.00000000E+00
  0.00000000E+00  0.00000000E+00  0.00000000E+00
  0.00000000E+00  0.00000000E+00  0.00000000E+00
  0.00000000E+00  0.00000000E+00  0.00000000E+00
  0.00000000E+00  0.00000000E+00  0.00000000E+00
  0.00000000E+00  0.00000000E+00  0.00000000E+00
  0.00000000E+00  0.00000000E+00  0.00000000E+00
  0.00000000E+00  0.00000000E+00  0.00000000E+00
  0.00000000E+00  0.00000000E+00  0.00000000E+00
  0.00000000E+00  0.00000000E+00  0.00000000E+00
  0.00000000E+00  0.00000000E+00  0.00000000E+00
  0.00000000E+00  0.00000000E+00  0.00000000E+00
  0.00000000E+00  0.00000000E+00  0.00000000E+00
  0.00000000E+00  0.00000000E+00  0.00000000E+00
  0.00000000E+00  0.00000000E+00  0.00000000E+00
  0.00000000E+00  0.00000000E+00  0.00000000E+00
  0.00000000E+00  0.00000000E+00  0.00000000E+00
  0.00000000E+00  0.00000000E+00  0.00000000E+00
  0.00000000E+00  0.00000000E+00  0.00000000E+00
  0.00000000E+00  0.00000000E+00  0.00000000E+00
  0.00000000E+00  0.00000000E+00  0.00000000E+00
  0.00000000E+00  0.00000000E+00  0.00000000E+00
  0.00000000E+00  0.00000000E+00  0.00000000E+00
  0.00000000E+00  0.00000000E+00  0.00000000E+00
  0.00000000E+00  0.00000000E+00  0.00000000E+00
  0.00000000E+00  0.00000000E+00  0.00000000E+00
  0.00000000E+00  0.00000000E+00  0.00000000E+00
  0.00000000E+00  0.00000000E+00  0.00000000E+00
  0.00000000E+00  0.00000000E+00  0.00000000E+00
  0.00000000E+00  0.00000000E+00  0.00000000E+00
  0.00000000E+00  0.00000000E+00  0.00000000E+00
  0.00000000E+00  0.00000000E+00  0.00000000E+00
  0.00000000E+00  0.00000000E+00  0.00000000E+00
  0.00000000E+00  0.00000000E+00  0.00000000E+00
  0.00000000E+00  0.00000000E+00  0.00000000E+00
  0.00000000E+00  0.00000000E+00  0.00000000E+00
  0.00000000E+00  0.00000000E+00  0.00000000E+00
  0.00000000E+00  0.00000000E+00  0.00000000E+00
  0.00000000E+00  0.00000000E+00  0.00000000E+00
  0.00000000E+00  0.00000000E+00  0.00000000E+00
  0.00000000E+00  0.00000000E+00  0.00000000E+00
  0.00000000E+00  0.00000000E+00  0.00000000E+00
  0.00000000E+00  0.00000000E+00  0.00000000E+00
  0.00000000E+00  0.00000000E+00  0.00000000E+00
  0.00000000E+00  0.00000000E+00  0.00000000E+00
  0.00000000E+00  0.00000000E+00  0.00000000E+00
  0.00000000E+00  0.00000000E+00  0.00000000E+00
  0.00000000E+00  0.00000000E+00  0.00000000E+00
  0.00000000E+00  0.00000000E+00  0.00000000E+00
  0.00000000E+00  0.00000000E+00  0.00000000E+00
  0.00000000E+00  0.00000000E+00  0.00000000E+00
  0.00000000E+00  0.00000000E+00  0.00000000E+00
  0.00000000E+00  0.00000000E+00  0.00000000E+00
  0.00000000E+00  0.00000000E+00  0.00000000E+00
  0.00000000E+00  0.00000000E+00  0.00000000E+00
  0.00000000E+00  0.00000000E+00  0.00000000E+00
  0.00000000E+00  0.00000000E+00  0.00000000E+00
  0.00000000E+00  0.00000000E+00  0.00000000E+00
  0.00000000E+00  0.00000000E+00  0.00000000E+00
  0.00000000E+00  0.00000000E+00  0.00000000E+00
  0.00000000E+00  0.00000000E+00  0.00000000E+00
  0.00000000E+00  0.00000000E+00  0.00000000E+00
  0.00000000E+00  0.00000000E+00  0.00000000E+00
  0.00000000E+00  0.00000000E+00  0.00000000E+00
  0.00000000E+00  0.00000000E+00  0.00000000E+00
  0.00000000E+00  0.00000000E+00  0.00000000E+00
  0.00000000E+00  0.00000000E+00  0.00000000E+00
  0.00000000E+00  0.00000000E+00  0.00000000E+00
  0.00000000E+00  0.00000000E+00  0.00000000E+00
  0.00000000E+00  0.00000000E+00  0.00000000E+00
  0.00000000E+00  0.00000000E+00  0.00000000E+00
  0.00000000E+00  0.00000000E+00  0.00000000E+00
  0.00000000E+00  0.00000000E+00  0.00000000E+00
  0.00000000E+00  0.00000000E+00  0.00000000E+00
  0.00000000E+00  0.00000000E+00  0.00000000E+00
  0.00000000E+00  0.00000000E+00  0.00000000E+00
  0.00000000E+00  0.00000000E+00  0.00000000E+00
  0.00000000E+00  0.00000000E+00  0.00000000E+00
  0.00000000E+00  0.00000000E+00  0.00000000E+00
  0.00000000E+00  0.00000000E+00  0.00000000E+00
  0.00000000E+00  0.00000000E+00  0.00000000E+00
  0.00000000E+00  0.00000000E+00  0.00000000E+00
  0.00000000E+00  0.00000000E+00  0.00000000E+00
  0.00000000E+00  0.00000000E+00  0.00000000E+00
  0.00000000E+00  0.00000000E+00  0.00000000E+00
  0.00000000E+00  0.00000000E+00  0.00000000E+00
  0.00000000E+00  0.00000000E+00  0.00000000E+00
  0.00000000E+00  0.00000000E+00  0.00000000E+00
  0.00000000E+00  0.00000000E+00  0.00000000E+00
  0.00000000E+00  0.00000000E+00  0.00000000E+00
  0.00000000E+00  0.00000000E+00  0.00000000E+00
  0.00000000E+00  0.00000000E+00  0.00000000E+00
  0.00000000E+00  0.00000000E+00  0.00000000E+00
  0.00000000E+00  0.00000000E+00  0.00000000E+00
  0.00000000E+00  0.00000000E+00  0.00000000E+00
  0.00000000E+00  0.00000000E+00  0.00000000E+00
  0.00000000E+00  0.00000000E+00  0.00000000E+00
  0.00000000E+00  0.00000000E+00  0.00000000E+00
  0.00000000E+00  0.00000000E+00  0.00000000E+00
  0.00000000E+00  0.00000000E+00  0.00000000E+00
  0.00000000E+00  0.00000000E+00  0.00000000E+00
  0.00000000E+00  0.00000000E+00  0.00000000E+00
