POSCAR                                  
   1.00000000000000     
     9.7495993464243469   -0.0013427955235006    0.0077846099225244
    -0.0013238531221019    9.7546957839930037    0.0026817495334558
     0.0051855051408034    0.0017828533786141    6.5260316450771336
   Zr   Hf   Mg   Ca   H 
     9     9     9     9   216
Direct
  0.1662526569205980  0.1650142915512376  0.2531931732955286
  0.1752355219197952  0.5020050956574522  0.2527996823235554
  0.4994885892762682  0.1652883812330188  0.2505325215297916
  0.4973124920562810  0.1728127660791188  0.7451657804056637
  0.6626081900054288  0.3422477987513943  0.9989639701807036
  0.3299406852705573  0.9937423644417080  0.4980136656657308
  0.0020857246415460  0.3324775828934605  0.9973276501313393
  0.8292571435703238  0.8341048913795106  0.2574162687403359
  0.0029740281635000  0.9986852754166549  0.0030732423074937
  0.1687500389307033  0.1610227492964711  0.7465602166515950
  0.1724700042873266  0.5037513902759088  0.7494406716832813
  0.8325860423539737  0.1707227427078308  0.7440921379061791
  0.8281712080873262  0.4989786444214346  0.2534188240005761
  0.4951640661917551  0.8240541785013420  0.7486766034758290
  0.9999685085897738  0.6645167440739428  0.5014840029158805
  0.8353581005825035  0.8298941860922824  0.7441354713050146
  0.6637803107066347  0.9975901691748703  0.9975835752484699
  0.0029380408601654  0.6735837098044613  0.0061444629450378
  0.3363296121643060  0.3387391380833122  0.4993033013285455
  0.1708196290114401  0.8324098731957505  0.2508293158194732
  0.4993881312682902  0.5041808546398912  0.2521527146909364
  0.3378606058605556  0.6642056583182381  0.4991373450895935
  0.6668391460018128  0.3349274197413266  0.4982303362217095
  0.6607924266195795  0.6650529444606690  0.5001263912923548
  0.3312916873884504  0.9977142777931931  0.0011650785268813
  0.8297798821197375  0.5011799886216153  0.7499030764162740
  0.9985641092691750  0.0020543570685518  0.4967912836248871
  0.3380884622769926  0.3309833134231397  0.0015005443488292
  0.1668223290711950  0.8339108785626266  0.7493752154299358
  0.8325547605527106  0.1703323356212039  0.2541589472416206
  0.5050898088049962  0.5001732519569728  0.7396751806234150
  0.3372642982274954  0.6662119365206607  0.0048672627250994
  0.4960872477649687  0.8281965070044919  0.2481839979988720
  0.0010297510420543  0.3363546382686238  0.5011552815751941
  0.6643314655286616  0.6627689085748827  0.0003277964105095
  0.6640173979106692  0.0010760359624626  0.4992524175520714
  0.1729783762565660  0.0802765720274223  0.0059249225200588
  0.1617311327448974  0.0772231306457130  0.4937958333437606
  0.1721826116213663  0.4137902613126343  0.0009074901653179
  0.4952248693309045  0.0811097894919186  0.9958593418635147
  0.3340050906830996  0.2539278205869451  0.2617663481143211
  0.1785194489224295  0.4133382958461098  0.5008843093291446
  0.4942316305123740  0.0802835164178859  0.5019338138444098
  0.3289527014889231  0.2543916006171045  0.7393014713186759
  0.1746369968354244  0.7543577246157653  0.0073739300867786
  0.4966052913680770  0.4203391408485118  0.0060827346691568
  0.3426265546242817  0.5850629936698937  0.2615468345024397
  0.1745743144062359  0.7509655497704060  0.4932045427025571
  0.8320007450184121  0.0842607091550818  0.0044685749622104
  0.6651393773286713  0.2541032754241215  0.2517931419937014
  0.5024565292429983  0.4186636949599603  0.4878408158019809
  0.3419226379025062  0.5842088578066580  0.7414782838455736
  0.8347689733022463  0.0817560795125445  0.4968373569398921
  0.6682128789588120  0.2545843880132352  0.7416932017943410
  0.5017534286648484  0.7460678130340952  0.0058643063205608
  0.3264394266746464  0.9128747088220095  0.2426704398848756
  0.8351199962047957  0.4191151531139852  0.9843474952406623
  0.6577459271492287  0.5837456557378857  0.2623568593596630
  0.4921969330632621  0.7462819107891647  0.4897124970656677
  0.3314779936258248  0.9159289116507736  0.7623403400427620
  0.9983749606533294  0.2523098282002891  0.2556351292650376
  0.8271769373291633  0.4201974097486456  0.5166076769606534
  0.6714875658625701  0.5826972013432155  0.7375591342586674
  0.0019628668600902  0.2531224246691508  0.7424361572965239
  0.8291619589052317  0.7490985838160995  0.0005843392594045
  0.6587551626655781  0.9158744428177741  0.2559733382877667
  0.0038348682061056  0.5820066728416506  0.2474641149719901
  0.8231162310253382  0.7418857267439236  0.5021315444924497
  0.6632113838510918  0.9177498582843100  0.7423279426411895
  0.9928596531817249  0.5810866583089123  0.7572699211848075
  0.0075357412311945  0.9155314716783138  0.2675399516073185
  0.0015674598568651  0.9188622144933092  0.7294520754453373
  0.0843377013862465  0.1652673791621169  0.9990766897119698
  0.0826322833927193  0.1650550081846873  0.5007295355209322
  0.0857899589261351  0.5001621165617607  0.0008884135282017
  0.4131415350908583  0.1592089017277729  0.0007631619509851
  0.2563220926059344  0.3321935434946255  0.2546720878466644
  0.0856840385894344  0.5005240157269810  0.5028860056856814
  0.4113450550246469  0.1821211732751422  0.4971876984574592
  0.2537810044889639  0.3322235996923766  0.7499310259467578
  0.0896562472113374  0.8371566759940237  0.0129191563101116
  0.4168732518746410  0.4984367736921982  0.9995527434365385
  0.2532150672102915  0.6735570443474330  0.2593155937180143
  0.0866619480664212  0.8344405482701802  0.4931671261518247
  0.7497672889322189  0.1683209879851759  0.0040080125246504
  0.5813666975637446  0.3462911081269624  0.2668229548271199
  0.4186105816447210  0.5011782575244226  0.4907005110187086
  0.2534115220000714  0.6726650478852392  0.7476621844831257
  0.7457171635373854  0.1723806976410671  0.4965820288632798
  0.5857472908461290  0.3364548725458150  0.7281830404727856
  0.4114041432208211  0.8385161462433075  0.0064865641502010
  0.2507431093140937  0.9940717491429112  0.2412670641439192
  0.7530513109190835  0.5044381398240603  0.9915858863070639
  0.5831156830164304  0.6610127589830910  0.2644077289004159
  0.4130623094694954  0.8182267850881146  0.4894385593655173
  0.2536625867537623  0.9944377671931619  0.7595779323638752
  0.9176220312454717  0.3337206867788822  0.2536500248630560
  0.7460411999334582  0.5026509992344117  0.5057611028059128
  0.5883144474249065  0.6630549583691234  0.7350846750572657
  0.9161031408627878  0.3418570240630245  0.7456143018126866
  0.7481676586299599  0.8292876720996532  0.9992801782682079
  0.5788193026638737  0.9937881193476699  0.2525408672855889
  0.9149996956391391  0.6671748365701688  0.2592899999868408
  0.7412821522227020  0.8260719700659678  0.5030922160101952
  0.5785828814326948  0.9977179569195727  0.7451902903297380
  0.9139452081621044  0.6544403502013978  0.7462209329093525
  0.9171974912264957  0.0013648482043109  0.2573056734483998
  0.9178482010614317  0.0032307545019492  0.7421983926916624
  0.1728760927853514  0.9937313328332920  0.1285565155766335
  0.1575024563576051  0.9939695405391262  0.6177199005954819
  0.1724935245347297  0.3335972436162606  0.1232809487462774
  0.4877397683824611  0.9955390141086937  0.1226646788661512
  0.3336368175150000  0.1692872923085318  0.3791590048899849
  0.1732513774849807  0.3336450224388585  0.6218265621411163
  0.4975391819620896  0.9980815427062808  0.6267904094492636
  0.3338805461988272  0.1599572795158082  0.8802327820841782
  0.1723100618615447  0.6736176330926043  0.1303890481970811
  0.4994663302772722  0.3445252967544263  0.1293829008066396
  0.3414706960650307  0.5003194627265373  0.3776498704782085
  0.1772447282624299  0.6700958938528530  0.6215509450727552
  0.8353950081164143  0.0035918750799127  0.1297087921992244
  0.6664333119428747  0.1757582941337361  0.3781585634369335
  0.5052031457342565  0.3377348895747474  0.6144090245764176
  0.3423674394535041  0.4988085409985956  0.8786287493407769
  0.8348329772043783  0.9991884466308036  0.6204748884373927
  0.6642395589744581  0.1715119218550072  0.8745197520923114
  0.5006219792448974  0.6594369234474158  0.1273662501502102
  0.3314911729018704  0.8252894956334274  0.3745774555244239
  0.8312630095912397  0.3342001069004255  0.1236772660192074
  0.6633055399284871  0.4974593191120817  0.3813413948447177
  0.4996405594496380  0.6609294478286714  0.6174974795187325
  0.3282573396671111  0.8356923640630001  0.8787316919340640
  0.9975438416058040  0.1647148681370041  0.3797451857241612
  0.8291093074922458  0.3466058091215771  0.6234711330689109
  0.6731585392912010  0.5029690868530352  0.8675016994307541
  0.9998446246312085  0.1625025078876874  0.8732925415239592
  0.8297560141849019  0.6661834262527222  0.1267829969117003
  0.6590073821842495  0.8273835353114407  0.3798035599258185
  0.9984680690824561  0.4983360962102523  0.3724451015727439
  0.8243968194530780  0.6564471237425380  0.6233360035266173
  0.6677199969179881  0.8278629589374731  0.8744276635328845
  0.9959696234731297  0.5035652972974205  0.8756541273756895
  0.0046457283167456  0.8400710886918503  0.3766607090635148
  0.0014695623782117  0.8378224850678109  0.8719000498314315
  0.0854827345026976  0.9897607062074201  0.2588588793386961
  0.0813899331498931  0.9969367991391991  0.7409834819536627
  0.0847343581824589  0.3371214817392669  0.2556695079095306
  0.4134301843760113  0.9947788970611100  0.2355780806493186
  0.2539910005248132  0.1703083228331295  0.4969905219620685
  0.0832271202899975  0.3349592280108453  0.7442450584545099
  0.4146640080360342  0.0000712007615107  0.7634864103746679
  0.2530172232026686  0.1594918512125005  0.0031294349585380
  0.0894592709060760  0.6741544362491680  0.2607310572106911
  0.4197527696500103  0.3426529018063960  0.2619217264500833
  0.2583901405948197  0.5045820294681747  0.4978115981932021
  0.0861627540395915  0.6688108312533245  0.7458057548244454
  0.7487374881770990  0.0048431309121142  0.2531940613681698
  0.5829628125067075  0.1756425697135953  0.4997300743046367
  0.4148898143801532  0.3399356846487578  0.7351027876149345
  0.2577564433689616  0.4982341330757407  0.0009596671750387
  0.7467318333006006  0.9995603525877641  0.7445452893279167
  0.5835869488810843  0.1676992315130761  0.9972403923063453
  0.4171698207298746  0.6601848135255821  0.2624802843081397
  0.2484508499936240  0.8204653608200374  0.4938838712590794
  0.7455067411482474  0.3336010988415907  0.2587374290666133
  0.5820898772672081  0.5035673679430843  0.4886518536180375
  0.4127742128086496  0.6573261280495828  0.7403797889170320
  0.2506201336832419  0.8358996199386368  0.0014345057431413
  0.9200446870626280  0.1675433943764020  0.4969088483899071
  0.7484963886962532  0.3384401228035188  0.7405219216699024
  0.5775356911545018  0.5045086180988960  0.0078387425585404
  0.9135355506586151  0.1647000867199537  0.0024714165022104
  0.7444597946568905  0.6652132673271254  0.2603003554393410
  0.5824197916019287  0.8244468857011853  0.4961293850331145
  0.9154718015938528  0.5009260756628819  0.5102859911274749
  0.7490194504205618  0.6615728237721612  0.7459978118098078
  0.5824093317599619  0.8284310083595940  0.0023994210361167
  0.9182113880332565  0.5008223915074694  0.9937034049717113
  0.9197380078304391  0.8330906349839964  0.4949700586965307
  0.9130259915318462  0.8382744557262214  0.0097504541014857
  0.9967529711351872  0.1650244788638489  0.1267412974351458
  0.0011069055927635  0.1638837380033706  0.6181944881211336
  0.0011852197396109  0.5033367496335828  0.1260545601710703
  0.3332326097591576  0.1597199116644177  0.1243746934527366
  0.1732333325017592  0.3341002328538920  0.3798714504914784
  0.9912188914039177  0.4985837195476961  0.6294222864095929
  0.3341092074005303  0.1694376401582645  0.6157664151454654
  0.1727697449751560  0.3330419712014603  0.8769412105602044
  0.0048986145401955  0.8359696100790757  0.1369857827750423
  0.3461935587569869  0.4985786083631751  0.1248684818735839
  0.1736704932649147  0.6713445372555285  0.3756529852519321
  0.0051512426958027  0.8438959463828652  0.6181954732823911
  0.6688227789096928  0.1708599902192134  0.1239834373099455
  0.5047145601963976  0.3346041558961801  0.3766410990977178
  0.3392643092721102  0.5003545124252540  0.6194871367664376
  0.1718869406239136  0.6712317362672025  0.8781942741636399
  0.6635104158357521  0.1736366534309255  0.6200640379146449
  0.5000101530490895  0.3384108432178863  0.8719442748307031
  0.3300540678888808  0.8354193350135546  0.1260870789968820
  0.1605039190948219  0.9924374881692515  0.3728256819189610
  0.6578509563359631  0.5031393868841150  0.1304879534363010
  0.5001325391007114  0.6654305063659649  0.3753063678897774
  0.3286460269469629  0.8242269993996416  0.6218797502635240
  0.1720654428619852  0.9960282512749643  0.8789949358763565
  0.8265671780139741  0.3339661314402562  0.3820288812334098
  0.6695772042601860  0.4968912746322687  0.6182093484603328
  0.5001141470834156  0.6575690862224022  0.8770071592816748
  0.8301283010163445  0.3448496296102519  0.8715257291594867
  0.6619329524307602  0.8285610944244723  0.1237910937630957
  0.4976903821689973  0.9929164521161908  0.3744396007118667
  0.8215405497438297  0.6644632160007689  0.3813883384701597
  0.6651945267826207  0.8300731573052360  0.6229164500671089
  0.4897400157579099  0.0024966036690159  0.8769775627959859
  0.8310320223090315  0.6594389539084062  0.8745325349427588
  0.8367361128120834  0.0043562926696836  0.3803845576743967
  0.8356852240246369  0.9982412462388908  0.8747723578099738
  0.9986072512233619  0.0815167172960685  0.2628249230503670
  0.9968316986871955  0.0790270135259092  0.7351947914763457
  0.0041523057032720  0.4181713871026247  0.2523333341261846
  0.3316979603621704  0.0791528040182712  0.2489884535488756
  0.1771194153837783  0.2555236345615199  0.5023996980326473
  0.9923021684294042  0.4199385800299069  0.7480506965396074
  0.3369987644056280  0.0793080653409248  0.7505261218435422
  0.1715563510725318  0.2504224740502536  0.9968446693268618
  0.0096153237117989  0.7556005479321826  0.2596682194077289
  0.3448934127655576  0.4153692467009051  0.2617419489235786
  0.1857781746873428  0.5878409399036926  0.4965258396508290
  0.0039392086911576  0.7514194604668134  0.7463531860572985
  0.6695190485341769  0.0851355973592263  0.2520806077056506
  0.4931021640100113  0.2558169593995885  0.4910016987713774
  0.3386462066406892  0.4147947515460686  0.7398410382991756
  0.1707955970652648  0.5848739210330862  0.0053520395786180
  0.6641261551320881  0.0826567962374085  0.7449439233332811
  0.5014227050942992  0.2515614337604148  0.0068835730323684
  0.3283802712522572  0.7496527699031361  0.2558094112572675
  0.1599850726631189  0.9109781018831811  0.4897107884998562
  0.6522198470045879  0.4174645570357214  0.2705588798685383
  0.5019353903533457  0.5830363236901590  0.4920543373953450
  0.3267948990156242  0.7462381766827306  0.7470315505870104
  0.1741898507729047  0.9151645001193316  0.0088345758748503
  0.8304816389966589  0.2575053280106374  0.4980623063327911
  0.6719382227514075  0.4177589073600885  0.7292164007244395
  0.5012155459834773  0.5812493945222243  0.9982336845664364
  0.8299595451112367  0.2506314611009657  0.0004007965150308
  0.6620730520168294  0.7469470315328834  0.2537089781526660
  0.4991250559376894  0.9148532867144965  0.4967808884700347
  0.8154647195054068  0.5816041300378956  0.5140615698963131
  0.6683271583563126  0.7454428839591998  0.7455784472568538
  0.4899603580302951  0.9163131002846399  0.9994224103785072
  0.8321625263112225  0.5834133964332651  0.9911139279903978
  0.8373573883257208  0.9203244588896169  0.5023146336483535
  0.8336395056698649  0.9170347140989392  0.0003039268188800
 
  0.00000000E+00  0.00000000E+00  0.00000000E+00
  0.00000000E+00  0.00000000E+00  0.00000000E+00
  0.00000000E+00  0.00000000E+00  0.00000000E+00
  0.00000000E+00  0.00000000E+00  0.00000000E+00
  0.00000000E+00  0.00000000E+00  0.00000000E+00
  0.00000000E+00  0.00000000E+00  0.00000000E+00
  0.00000000E+00  0.00000000E+00  0.00000000E+00
  0.00000000E+00  0.00000000E+00  0.00000000E+00
  0.00000000E+00  0.00000000E+00  0.00000000E+00
  0.00000000E+00  0.00000000E+00  0.00000000E+00
  0.00000000E+00  0.00000000E+00  0.00000000E+00
  0.00000000E+00  0.00000000E+00  0.00000000E+00
  0.00000000E+00  0.00000000E+00  0.00000000E+00
  0.00000000E+00  0.00000000E+00  0.00000000E+00
  0.00000000E+00  0.00000000E+00  0.00000000E+00
  0.00000000E+00  0.00000000E+00  0.00000000E+00
  0.00000000E+00  0.00000000E+00  0.00000000E+00
  0.00000000E+00  0.00000000E+00  0.00000000E+00
  0.00000000E+00  0.00000000E+00  0.00000000E+00
  0.00000000E+00  0.00000000E+00  0.00000000E+00
  0.00000000E+00  0.00000000E+00  0.00000000E+00
  0.00000000E+00  0.00000000E+00  0.00000000E+00
  0.00000000E+00  0.00000000E+00  0.00000000E+00
  0.00000000E+00  0.00000000E+00  0.00000000E+00
  0.00000000E+00  0.00000000E+00  0.00000000E+00
  0.00000000E+00  0.00000000E+00  0.00000000E+00
  0.00000000E+00  0.00000000E+00  0.00000000E+00
  0.00000000E+00  0.00000000E+00  0.00000000E+00
  0.00000000E+00  0.00000000E+00  0.00000000E+00
  0.00000000E+00  0.00000000E+00  0.00000000E+00
  0.00000000E+00  0.00000000E+00  0.00000000E+00
  0.00000000E+00  0.00000000E+00  0.00000000E+00
  0.00000000E+00  0.00000000E+00  0.00000000E+00
  0.00000000E+00  0.00000000E+00  0.00000000E+00
  0.00000000E+00  0.00000000E+00  0.00000000E+00
  0.00000000E+00  0.00000000E+00  0.00000000E+00
  0.00000000E+00  0.00000000E+00  0.00000000E+00
  0.00000000E+00  0.00000000E+00  0.00000000E+00
  0.00000000E+00  0.00000000E+00  0.00000000E+00
  0.00000000E+00  0.00000000E+00  0.00000000E+00
  0.00000000E+00  0.00000000E+00  0.00000000E+00
  0.00000000E+00  0.00000000E+00  0.00000000E+00
  0.00000000E+00  0.00000000E+00  0.00000000E+00
  0.00000000E+00  0.00000000E+00  0.00000000E+00
  0.00000000E+00  0.00000000E+00  0.00000000E+00
  0.00000000E+00  0.00000000E+00  0.00000000E+00
  0.00000000E+00  0.00000000E+00  0.00000000E+00
  0.00000000E+00  0.00000000E+00  0.00000000E+00
  0.00000000E+00  0.00000000E+00  0.00000000E+00
  0.00000000E+00  0.00000000E+00  0.00000000E+00
  0.00000000E+00  0.00000000E+00  0.00000000E+00
  0.00000000E+00  0.00000000E+00  0.00000000E+00
  0.00000000E+00  0.00000000E+00  0.00000000E+00
  0.00000000E+00  0.00000000E+00  0.00000000E+00
  0.00000000E+00  0.00000000E+00  0.00000000E+00
  0.00000000E+00  0.00000000E+00  0.00000000E+00
  0.00000000E+00  0.00000000E+00  0.00000000E+00
  0.00000000E+00  0.00000000E+00  0.00000000E+00
  0.00000000E+00  0.00000000E+00  0.00000000E+00
  0.00000000E+00  0.00000000E+00  0.00000000E+00
  0.00000000E+00  0.00000000E+00  0.00000000E+00
  0.00000000E+00  0.00000000E+00  0.00000000E+00
  0.00000000E+00  0.00000000E+00  0.00000000E+00
  0.00000000E+00  0.00000000E+00  0.00000000E+00
  0.00000000E+00  0.00000000E+00  0.00000000E+00
  0.00000000E+00  0.00000000E+00  0.00000000E+00
  0.00000000E+00  0.00000000E+00  0.00000000E+00
  0.00000000E+00  0.00000000E+00  0.00000000E+00
  0.00000000E+00  0.00000000E+00  0.00000000E+00
  0.00000000E+00  0.00000000E+00  0.00000000E+00
  0.00000000E+00  0.00000000E+00  0.00000000E+00
  0.00000000E+00  0.00000000E+00  0.00000000E+00
  0.00000000E+00  0.00000000E+00  0.00000000E+00
  0.00000000E+00  0.00000000E+00  0.00000000E+00
  0.00000000E+00  0.00000000E+00  0.00000000E+00
  0.00000000E+00  0.00000000E+00  0.00000000E+00
  0.00000000E+00  0.00000000E+00  0.00000000E+00
  0.00000000E+00  0.00000000E+00  0.00000000E+00
  0.00000000E+00  0.00000000E+00  0.00000000E+00
  0.00000000E+00  0.00000000E+00  0.00000000E+00
  0.00000000E+00  0.00000000E+00  0.00000000E+00
  0.00000000E+00  0.00000000E+00  0.00000000E+00
  0.00000000E+00  0.00000000E+00  0.00000000E+00
  0.00000000E+00  0.00000000E+00  0.00000000E+00
  0.00000000E+00  0.00000000E+00  0.00000000E+00
  0.00000000E+00  0.00000000E+00  0.00000000E+00
  0.00000000E+00  0.00000000E+00  0.00000000E+00
  0.00000000E+00  0.00000000E+00  0.00000000E+00
  0.00000000E+00  0.00000000E+00  0.00000000E+00
  0.00000000E+00  0.00000000E+00  0.00000000E+00
  0.00000000E+00  0.00000000E+00  0.00000000E+00
  0.00000000E+00  0.00000000E+00  0.00000000E+00
  0.00000000E+00  0.00000000E+00  0.00000000E+00
  0.00000000E+00  0.00000000E+00  0.00000000E+00
  0.00000000E+00  0.00000000E+00  0.00000000E+00
  0.00000000E+00  0.00000000E+00  0.00000000E+00
  0.00000000E+00  0.00000000E+00  0.00000000E+00
  0.00000000E+00  0.00000000E+00  0.00000000E+00
  0.00000000E+00  0.00000000E+00  0.00000000E+00
  0.00000000E+00  0.00000000E+00  0.00000000E+00
  0.00000000E+00  0.00000000E+00  0.00000000E+00
  0.00000000E+00  0.00000000E+00  0.00000000E+00
  0.00000000E+00  0.00000000E+00  0.00000000E+00
  0.00000000E+00  0.00000000E+00  0.00000000E+00
  0.00000000E+00  0.00000000E+00  0.00000000E+00
  0.00000000E+00  0.00000000E+00  0.00000000E+00
  0.00000000E+00  0.00000000E+00  0.00000000E+00
  0.00000000E+00  0.00000000E+00  0.00000000E+00
  0.00000000E+00  0.00000000E+00  0.00000000E+00
  0.00000000E+00  0.00000000E+00  0.00000000E+00
  0.00000000E+00  0.00000000E+00  0.00000000E+00
  0.00000000E+00  0.00000000E+00  0.00000000E+00
  0.00000000E+00  0.00000000E+00  0.00000000E+00
  0.00000000E+00  0.00000000E+00  0.00000000E+00
  0.00000000E+00  0.00000000E+00  0.00000000E+00
  0.00000000E+00  0.00000000E+00  0.00000000E+00
  0.00000000E+00  0.00000000E+00  0.00000000E+00
  0.00000000E+00  0.00000000E+00  0.00000000E+00
  0.00000000E+00  0.00000000E+00  0.00000000E+00
  0.00000000E+00  0.00000000E+00  0.00000000E+00
  0.00000000E+00  0.00000000E+00  0.00000000E+00
  0.00000000E+00  0.00000000E+00  0.00000000E+00
  0.00000000E+00  0.00000000E+00  0.00000000E+00
  0.00000000E+00  0.00000000E+00  0.00000000E+00
  0.00000000E+00  0.00000000E+00  0.00000000E+00
  0.00000000E+00  0.00000000E+00  0.00000000E+00
  0.00000000E+00  0.00000000E+00  0.00000000E+00
  0.00000000E+00  0.00000000E+00  0.00000000E+00
  0.00000000E+00  0.00000000E+00  0.00000000E+00
  0.00000000E+00  0.00000000E+00  0.00000000E+00
  0.00000000E+00  0.00000000E+00  0.00000000E+00
  0.00000000E+00  0.00000000E+00  0.00000000E+00
  0.00000000E+00  0.00000000E+00  0.00000000E+00
  0.00000000E+00  0.00000000E+00  0.00000000E+00
  0.00000000E+00  0.00000000E+00  0.00000000E+00
  0.00000000E+00  0.00000000E+00  0.00000000E+00
  0.00000000E+00  0.00000000E+00  0.00000000E+00
  0.00000000E+00  0.00000000E+00  0.00000000E+00
  0.00000000E+00  0.00000000E+00  0.00000000E+00
  0.00000000E+00  0.00000000E+00  0.00000000E+00
  0.00000000E+00  0.00000000E+00  0.00000000E+00
  0.00000000E+00  0.00000000E+00  0.00000000E+00
  0.00000000E+00  0.00000000E+00  0.00000000E+00
  0.00000000E+00  0.00000000E+00  0.00000000E+00
  0.00000000E+00  0.00000000E+00  0.00000000E+00
  0.00000000E+00  0.00000000E+00  0.00000000E+00
  0.00000000E+00  0.00000000E+00  0.00000000E+00
  0.00000000E+00  0.00000000E+00  0.00000000E+00
  0.00000000E+00  0.00000000E+00  0.00000000E+00
  0.00000000E+00  0.00000000E+00  0.00000000E+00
  0.00000000E+00  0.00000000E+00  0.00000000E+00
  0.00000000E+00  0.00000000E+00  0.00000000E+00
  0.00000000E+00  0.00000000E+00  0.00000000E+00
  0.00000000E+00  0.00000000E+00  0.00000000E+00
  0.00000000E+00  0.00000000E+00  0.00000000E+00
  0.00000000E+00  0.00000000E+00  0.00000000E+00
  0.00000000E+00  0.00000000E+00  0.00000000E+00
  0.00000000E+00  0.00000000E+00  0.00000000E+00
  0.00000000E+00  0.00000000E+00  0.00000000E+00
  0.00000000E+00  0.00000000E+00  0.00000000E+00
  0.00000000E+00  0.00000000E+00  0.00000000E+00
  0.00000000E+00  0.00000000E+00  0.00000000E+00
  0.00000000E+00  0.00000000E+00  0.00000000E+00
  0.00000000E+00  0.00000000E+00  0.00000000E+00
  0.00000000E+00  0.00000000E+00  0.00000000E+00
  0.00000000E+00  0.00000000E+00  0.00000000E+00
  0.00000000E+00  0.00000000E+00  0.00000000E+00
  0.00000000E+00  0.00000000E+00  0.00000000E+00
  0.00000000E+00  0.00000000E+00  0.00000000E+00
  0.00000000E+00  0.00000000E+00  0.00000000E+00
  0.00000000E+00  0.00000000E+00  0.00000000E+00
  0.00000000E+00  0.00000000E+00  0.00000000E+00
  0.00000000E+00  0.00000000E+00  0.00000000E+00
  0.00000000E+00  0.00000000E+00  0.00000000E+00
  0.00000000E+00  0.00000000E+00  0.00000000E+00
  0.00000000E+00  0.00000000E+00  0.00000000E+00
  0.00000000E+00  0.00000000E+00  0.00000000E+00
  0.00000000E+00  0.00000000E+00  0.00000000E+00
  0.00000000E+00  0.00000000E+00  0.00000000E+00
  0.00000000E+00  0.00000000E+00  0.00000000E+00
  0.00000000E+00  0.00000000E+00  0.00000000E+00
  0.00000000E+00  0.00000000E+00  0.00000000E+00
  0.00000000E+00  0.00000000E+00  0.00000000E+00
  0.00000000E+00  0.00000000E+00  0.00000000E+00
  0.00000000E+00  0.00000000E+00  0.00000000E+00
  0.00000000E+00  0.00000000E+00  0.00000000E+00
  0.00000000E+00  0.00000000E+00  0.00000000E+00
  0.00000000E+00  0.00000000E+00  0.00000000E+00
  0.00000000E+00  0.00000000E+00  0.00000000E+00
  0.00000000E+00  0.00000000E+00  0.00000000E+00
  0.00000000E+00  0.00000000E+00  0.00000000E+00
  0.00000000E+00  0.00000000E+00  0.00000000E+00
  0.00000000E+00  0.00000000E+00  0.00000000E+00
  0.00000000E+00  0.00000000E+00  0.00000000E+00
  0.00000000E+00  0.00000000E+00  0.00000000E+00
  0.00000000E+00  0.00000000E+00  0.00000000E+00
  0.00000000E+00  0.00000000E+00  0.00000000E+00
  0.00000000E+00  0.00000000E+00  0.00000000E+00
  0.00000000E+00  0.00000000E+00  0.00000000E+00
  0.00000000E+00  0.00000000E+00  0.00000000E+00
  0.00000000E+00  0.00000000E+00  0.00000000E+00
  0.00000000E+00  0.00000000E+00  0.00000000E+00
  0.00000000E+00  0.00000000E+00  0.00000000E+00
  0.00000000E+00  0.00000000E+00  0.00000000E+00
  0.00000000E+00  0.00000000E+00  0.00000000E+00
  0.00000000E+00  0.00000000E+00  0.00000000E+00
  0.00000000E+00  0.00000000E+00  0.00000000E+00
  0.00000000E+00  0.00000000E+00  0.00000000E+00
  0.00000000E+00  0.00000000E+00  0.00000000E+00
  0.00000000E+00  0.00000000E+00  0.00000000E+00
  0.00000000E+00  0.00000000E+00  0.00000000E+00
  0.00000000E+00  0.00000000E+00  0.00000000E+00
  0.00000000E+00  0.00000000E+00  0.00000000E+00
  0.00000000E+00  0.00000000E+00  0.00000000E+00
  0.00000000E+00  0.00000000E+00  0.00000000E+00
  0.00000000E+00  0.00000000E+00  0.00000000E+00
  0.00000000E+00  0.00000000E+00  0.00000000E+00
  0.00000000E+00  0.00000000E+00  0.00000000E+00
  0.00000000E+00  0.00000000E+00  0.00000000E+00
  0.00000000E+00  0.00000000E+00  0.00000000E+00
  0.00000000E+00  0.00000000E+00  0.00000000E+00
  0.00000000E+00  0.00000000E+00  0.00000000E+00
  0.00000000E+00  0.00000000E+00  0.00000000E+00
  0.00000000E+00  0.00000000E+00  0.00000000E+00
  0.00000000E+00  0.00000000E+00  0.00000000E+00
  0.00000000E+00  0.00000000E+00  0.00000000E+00
  0.00000000E+00  0.00000000E+00  0.00000000E+00
  0.00000000E+00  0.00000000E+00  0.00000000E+00
  0.00000000E+00  0.00000000E+00  0.00000000E+00
  0.00000000E+00  0.00000000E+00  0.00000000E+00
  0.00000000E+00  0.00000000E+00  0.00000000E+00
  0.00000000E+00  0.00000000E+00  0.00000000E+00
  0.00000000E+00  0.00000000E+00  0.00000000E+00
  0.00000000E+00  0.00000000E+00  0.00000000E+00
  0.00000000E+00  0.00000000E+00  0.00000000E+00
  0.00000000E+00  0.00000000E+00  0.00000000E+00
  0.00000000E+00  0.00000000E+00  0.00000000E+00
  0.00000000E+00  0.00000000E+00  0.00000000E+00
  0.00000000E+00  0.00000000E+00  0.00000000E+00
  0.00000000E+00  0.00000000E+00  0.00000000E+00
  0.00000000E+00  0.00000000E+00  0.00000000E+00
  0.00000000E+00  0.00000000E+00  0.00000000E+00
  0.00000000E+00  0.00000000E+00  0.00000000E+00
  0.00000000E+00  0.00000000E+00  0.00000000E+00
  0.00000000E+00  0.00000000E+00  0.00000000E+00
  0.00000000E+00  0.00000000E+00  0.00000000E+00
  0.00000000E+00  0.00000000E+00  0.00000000E+00
  0.00000000E+00  0.00000000E+00  0.00000000E+00
  0.00000000E+00  0.00000000E+00  0.00000000E+00
  0.00000000E+00  0.00000000E+00  0.00000000E+00
  0.00000000E+00  0.00000000E+00  0.00000000E+00
  0.00000000E+00  0.00000000E+00  0.00000000E+00
