generated by phonopy                    
   1.00000000000000     
     0.0000000000000000    3.2581087305765051    3.2581087305765948
     3.2581087305765419    0.0000000000000000    3.2581087305765948
     3.2581087305765419    3.2581087305765051    0.0000000000000000
   Na   Sr   Sc   Zr   H 
     1     1     1     1    24
Direct
  0.2500000000000000  0.2500000000000000  0.2500000000000000
  0.7500000000000000  0.7500000000000000  0.7500000000000000
  0.0000000000000000  0.0000000000000000  0.0000000000000000
  0.5000000000000000  0.5000000000000000  0.5000000000000000
  0.1289461733319044  0.8962042075066208  0.6138337709379869
  0.8962042075066208  0.1289461733319044  0.3610158482234880
  0.6138337709379869  0.3610158482234880  0.1289461733319044
  0.3610158482234880  0.6138337709379869  0.8962042075066208
  0.6138337709379869  0.1289461733319044  0.8962042075066208
  0.3610158482234880  0.8962042075066208  0.1289461733319044
  0.1289461733319044  0.6138337709379869  0.3610158482234880
  0.8962042075066208  0.3610158482234880  0.6138337709379869
  0.8962042075066208  0.6138337709379869  0.1289461733319044
  0.1289461733319044  0.3610158482234880  0.8962042075066208
  0.3610158482234880  0.1289461733319044  0.6138337709379869
  0.6138337709379869  0.8962042075066208  0.3610158482234880
  0.1289461733319044  0.3610158482234880  0.6138337709379869
  0.3610158482234880  0.1289461733319044  0.8962042075066208
  0.6138337709379869  0.8962042075066208  0.1289461733319044
  0.8962042075066208  0.6138337709379869  0.3610158482234880
  0.6138337709379869  0.1289461733319044  0.3610158482234880
  0.8962042075066208  0.3610158482234880  0.1289461733319044
  0.1289461733319044  0.6138337709379869  0.8962042075066208
  0.3610158482234880  0.8962042075066208  0.6138337709379869
  0.3610158482234880  0.6138337709379869  0.1289461733319044
  0.1289461733319044  0.8962042075066208  0.3610158482234880
  0.8962042075066208  0.1289461733319044  0.6138337709379869
  0.6138337709379869  0.3610158482234880  0.8962042075066208
 
  0.00000000E+00  0.00000000E+00  0.00000000E+00
  0.00000000E+00  0.00000000E+00  0.00000000E+00
  0.00000000E+00  0.00000000E+00  0.00000000E+00
  0.00000000E+00  0.00000000E+00  0.00000000E+00
  0.00000000E+00  0.00000000E+00  0.00000000E+00
  0.00000000E+00  0.00000000E+00  0.00000000E+00
  0.00000000E+00  0.00000000E+00  0.00000000E+00
  0.00000000E+00  0.00000000E+00  0.00000000E+00
  0.00000000E+00  0.00000000E+00  0.00000000E+00
  0.00000000E+00  0.00000000E+00  0.00000000E+00
  0.00000000E+00  0.00000000E+00  0.00000000E+00
  0.00000000E+00  0.00000000E+00  0.00000000E+00
  0.00000000E+00  0.00000000E+00  0.00000000E+00
  0.00000000E+00  0.00000000E+00  0.00000000E+00
  0.00000000E+00  0.00000000E+00  0.00000000E+00
  0.00000000E+00  0.00000000E+00  0.00000000E+00
  0.00000000E+00  0.00000000E+00  0.00000000E+00
  0.00000000E+00  0.00000000E+00  0.00000000E+00
  0.00000000E+00  0.00000000E+00  0.00000000E+00
  0.00000000E+00  0.00000000E+00  0.00000000E+00
  0.00000000E+00  0.00000000E+00  0.00000000E+00
  0.00000000E+00  0.00000000E+00  0.00000000E+00
  0.00000000E+00  0.00000000E+00  0.00000000E+00
  0.00000000E+00  0.00000000E+00  0.00000000E+00
  0.00000000E+00  0.00000000E+00  0.00000000E+00
  0.00000000E+00  0.00000000E+00  0.00000000E+00
  0.00000000E+00  0.00000000E+00  0.00000000E+00
  0.00000000E+00  0.00000000E+00  0.00000000E+00
