generated by phonopy                    
   1.00000000000000     
     0.0000000000000000    3.3492079920746516    3.3492079920747226
     3.3492079920746805    0.0000000000000000    3.3492079920747226
     3.3492079920746805    3.3492079920746516    0.0000000000000000
   Ca   Y    Zr   Ce   H 
     1     1     1     1    24
Direct
  0.2500000000000000  0.2500000000000000  0.2500000000000000
  0.7500000000000000  0.7500000000000000  0.7500000000000000
  0.0000000000000000  0.0000000000000000  0.0000000000000000
  0.5000000000000000  0.5000000000000000  0.5000000000000000
  0.1264499573344935  0.8832862384209506  0.6226417492448491
  0.8832862384209506  0.1264499573344935  0.3676220549997140
  0.6226417492448491  0.3676220549997140  0.1264499573344935
  0.3676220549997140  0.6226417492448491  0.8832862384209506
  0.6226417492448491  0.1264499573344935  0.8832862384209506
  0.3676220549997140  0.8832862384209506  0.1264499573344935
  0.1264499573344935  0.6226417492448491  0.3676220549997140
  0.8832862384209506  0.3676220549997140  0.6226417492448491
  0.8832862384209506  0.6226417492448491  0.1264499573344935
  0.1264499573344935  0.3676220549997140  0.8832862384209506
  0.3676220549997140  0.1264499573344935  0.6226417492448491
  0.6226417492448491  0.8832862384209506  0.3676220549997140
  0.1264499573344935  0.3676220549997140  0.6226417492448491
  0.3676220549997140  0.1264499573344935  0.8832862384209506
  0.6226417492448491  0.8832862384209506  0.1264499573344935
  0.8832862384209506  0.6226417492448491  0.3676220549997140
  0.6226417492448491  0.1264499573344935  0.3676220549997140
  0.8832862384209506  0.3676220549997140  0.1264499573344935
  0.1264499573344935  0.6226417492448491  0.8832862384209506
  0.3676220549997140  0.8832862384209506  0.6226417492448491
  0.3676220549997140  0.6226417492448491  0.1264499573344935
  0.1264499573344935  0.8832862384209506  0.3676220549997140
  0.8832862384209506  0.1264499573344935  0.6226417492448491
  0.6226417492448491  0.3676220549997140  0.8832862384209506
 
  0.00000000E+00  0.00000000E+00  0.00000000E+00
  0.00000000E+00  0.00000000E+00  0.00000000E+00
  0.00000000E+00  0.00000000E+00  0.00000000E+00
  0.00000000E+00  0.00000000E+00  0.00000000E+00
  0.00000000E+00  0.00000000E+00  0.00000000E+00
  0.00000000E+00  0.00000000E+00  0.00000000E+00
  0.00000000E+00  0.00000000E+00  0.00000000E+00
  0.00000000E+00  0.00000000E+00  0.00000000E+00
  0.00000000E+00  0.00000000E+00  0.00000000E+00
  0.00000000E+00  0.00000000E+00  0.00000000E+00
  0.00000000E+00  0.00000000E+00  0.00000000E+00
  0.00000000E+00  0.00000000E+00  0.00000000E+00
  0.00000000E+00  0.00000000E+00  0.00000000E+00
  0.00000000E+00  0.00000000E+00  0.00000000E+00
  0.00000000E+00  0.00000000E+00  0.00000000E+00
  0.00000000E+00  0.00000000E+00  0.00000000E+00
  0.00000000E+00  0.00000000E+00  0.00000000E+00
  0.00000000E+00  0.00000000E+00  0.00000000E+00
  0.00000000E+00  0.00000000E+00  0.00000000E+00
  0.00000000E+00  0.00000000E+00  0.00000000E+00
  0.00000000E+00  0.00000000E+00  0.00000000E+00
  0.00000000E+00  0.00000000E+00  0.00000000E+00
  0.00000000E+00  0.00000000E+00  0.00000000E+00
  0.00000000E+00  0.00000000E+00  0.00000000E+00
  0.00000000E+00  0.00000000E+00  0.00000000E+00
  0.00000000E+00  0.00000000E+00  0.00000000E+00
  0.00000000E+00  0.00000000E+00  0.00000000E+00
  0.00000000E+00  0.00000000E+00  0.00000000E+00
