POSCAR                                  
   1.00000000000000     
    10.0270606642040665   -0.0013110343135409   -0.0053444808085047
    -0.0012684807708041   10.0075589703493151    0.0153104264155290
    -0.0024774421567768    0.0098398691616719    6.5891239939014481
   Na   Sc   Mg   Hf   H 
     9     9     9     9   216
Direct
  0.1694906862680696  0.1698914874224258  0.2521035925284494
  0.1675056588814030  0.4982824312851548  0.2495969198517258
  0.4943036303487531  0.1691097779653035  0.2518358310334889
  0.5011521750598362  0.1665641089492880  0.7503525484433808
  0.6670255093145769  0.3324487903291100  0.0004596703420958
  0.3340830618926702  0.0072491195434594  0.4973703496507866
  0.9996546418677710  0.3315905125128111  0.9988277739012545
  0.8322624539836383  0.8325803151368874  0.2502421843865221
  0.0022224798186627  0.0031301518352507  0.9981200592776034
  0.1724592101310733  0.1625586698810721  0.7490341662182445
  0.1663487544973492  0.5007501153766398  0.7470768120338604
  0.8292159525847111  0.1724661621818129  0.7556496442856542
  0.8311375420516782  0.5032200115585326  0.2511244797934182
  0.4940790208038379  0.8361899746282191  0.7454414497906754
  0.0012243289188234  0.6689619355206631  0.4921175160369557
  0.8369381489358219  0.8343084593312682  0.7469032761053427
  0.6652481614944818  0.0032111138288826  0.0025948750227940
  0.9995808374944062  0.6695450783519092  0.0071702478950399
  0.3312780910098425  0.3191101448238669  0.4997263085166423
  0.1603918144516925  0.8355102258109568  0.2524998951946102
  0.4960609310514243  0.4938340237421883  0.2577568403630934
  0.3074786049360512  0.6953564564430508  0.5181651373134173
  0.6709184136653974  0.3276550375674390  0.5007479258304102
  0.6891664110648250  0.6717880330285837  0.5054456091532629
  0.3301500974055998  0.0016410473496791  0.0067032625449954
  0.8346214888808134  0.4963899264054774  0.7490703169570168
  0.0008452673668202  0.0050982193408657  0.4953653185919151
  0.3358223079607754  0.3271917007901592  0.0029654543171489
  0.1602819182310924  0.8472793433413557  0.7561439833787489
  0.8371180844305997  0.1658312244338802  0.2404824388295097
  0.4996072132998535  0.4911462150502928  0.7402646624263909
  0.3285549997461672  0.6646572197135256  0.0034984211845952
  0.4988911134735758  0.8235136902895022  0.2598985409481145
  0.0033242515241341  0.3342231358602419  0.4982142085629704
  0.6701746018367416  0.6610488487159571  0.9901319281005030
  0.6635764393757171  0.0028880410659013  0.4976647403585588
  0.1706471695266316  0.0821573366338768  0.0159616509959832
  0.1679512992298129  0.0847242911117831  0.4948186219116693
  0.1622967064844048  0.4193664261156300  0.0001582829130129
  0.4897150540220565  0.0804914886736370  0.0065528211966281
  0.3357328523597971  0.2458347968266565  0.2563678055414513
  0.1798060084599840  0.4226215556048984  0.5031795956183487
  0.4944390279819757  0.0862906807750861  0.4973051612926938
  0.3355778736324737  0.2462430749849318  0.7465050989434374
  0.1626631021281995  0.7520438543620003  0.9984951720833948
  0.5052129520430242  0.4176814369980022  0.0163316726096454
  0.3222796737789650  0.5818416698508884  0.2569279401104154
  0.1513526374277063  0.7570497367164961  0.5039899564141948
  0.8370660462964281  0.0779810079486936  0.9865723405467435
  0.6554216773325194  0.2522502095182233  0.2529120667182880
  0.5234925035321467  0.4108696105092307  0.4839820965608510
  0.3992636132426099  0.6433728974137196  0.7531659696151678
  0.8385739781463215  0.0826644264186172  0.5095993842607385
  0.6636050962718087  0.2506657395911347  0.7514042187442058
  0.4997517691946243  0.7416826379225157  0.0068554445408182
  0.3234721155876343  0.9206381606529490  0.2437701319045757
  0.8352998571326467  0.4172238024680723  0.9970035960927532
  0.6542121649856369  0.5825760385711831  0.2606252553807593
  0.5435393389627379  0.6583416685652708  0.3956190243459616
  0.3296128874532158  0.9229449579290900  0.7646446130444247
  0.0076747317667269  0.2517643670444656  0.2414490331416488
  0.8252711594363902  0.4180048507881153  0.5015896563435689
  0.6716817871313552  0.5813794706531539  0.7263048424411380
  0.0049155239271812  0.2479380781825142  0.7571163448939870
  0.8351996443257335  0.7525605425297357  0.9999093489779938
  0.6689421489570435  0.9122518578525671  0.2451233018468031
  0.0078468536175080  0.5832544506229240  0.2516277050397591
  0.8415636076189443  0.7528570363948859  0.4967830809969556
  0.6665797373132420  0.9110567734370392  0.7536811916348256
  0.9978650535399396  0.5819657828763880  0.7483433737120677
  0.9973671311622354  0.9182146440314511  0.2456242838544611
  0.9933579947538576  0.9235138428695535  0.7454254593204510
  0.0847456730699321  0.1686082684428740  0.0045210636112358
  0.0837784476926444  0.1610792106155259  0.4924503010615524
  0.0834171275488345  0.4949915647167202  0.0023265530575571
  0.4201631986442678  0.1577162034959088  0.9946303008457207
  0.2451126821955683  0.3348757984721402  0.2640938282399787
  0.0878566645026595  0.5018612678583665  0.4914069646353454
  0.4194847947898452  0.1648144691810884  0.5091439672095390
  0.2502244852231428  0.3385713983564571  0.7354745453396845
  0.0786612856149844  0.8369168417295398  0.0189524275605564
  0.4187462656882559  0.4998870434128833  0.0037288694770936
  0.2559714842943492  0.6565852712872911  0.2738388132678224
  0.0769069622939753  0.8484334392913908  0.4850187540025246
  0.7448819797289303  0.1700907181198801  0.9957185059593670
  0.5872568048910907  0.3298441235210490  0.2524855255363647
  0.4127246141925198  0.4594189091178080  0.5044857451942093
  0.2490541177954384  0.6550135356177549  0.7479867090522561
  0.7541898807916567  0.1751903960760615  0.5033404172082214
  0.5871179950174295  0.3252409631732505  0.7495703284335846
  0.4149226035298312  0.8425311121340542  0.0049658104192432
  0.2457398900929846  0.9983554250870128  0.2666850304554700
  0.7516396155121399  0.4928042651408120  0.9981697432666934
  0.5749067886200550  0.6486745487800931  0.2163666039492327
  0.4077857683906032  0.8477802849394394  0.5024397654090649
  0.2556949197174845  0.0036648500136707  0.7384486648875708
  0.9173868899289914  0.3366663886537040  0.2387153327661480
  0.7497828914008196  0.4912439166670524  0.5008969626829511
  0.5766009308445206  0.6674442393743547  0.7413355006823750
  0.9194851124597463  0.3341024114395310  0.7540618075054226
  0.7500118046611846  0.8346273735894627  0.9991888618106373
  0.5812299418626452  0.0131841841092211  0.2395839577038856
  0.9122927817186763  0.6697682909612297  0.2466516604772622
  0.7527478064597943  0.8361036569276337  0.4996870524150623
  0.5823475885231133  0.0078303383812184  0.7604330757169606
  0.9222015135374519  0.6647784836500037  0.7528300255350899
  0.9159579438871361  0.9921324686575446  0.2448852175922696
  0.9139985091964107  0.0047931935141676  0.7465206178771808
  0.1635021314329990  0.0038403662854662  0.1260971726952249
  0.1745635285315785  0.0059819981050069  0.6179648551881129
  0.1637479739717804  0.3332614700480079  0.1260471556833025
  0.4947263744720374  0.0047747997810106  0.1222499613464834
  0.3310208340260985  0.1693856494239228  0.3714545756699152
  0.1779973560240151  0.3330452463434597  0.6252790491270943
  0.4909450289390946  0.0011983557076078  0.6291867516827949
  0.3393184001463680  0.1550155758655123  0.8731536696767321
  0.1644204862486802  0.6737501212153987  0.1356789649827164
  0.5055507757207351  0.3324011880189914  0.1268944305273791
  0.3255727085803812  0.4786434017268135  0.3854322266167145
  0.1572035481741239  0.6654251924046690  0.6291577413255212
  0.8404089702173607  0.9941465673180403  0.1195096200718027
  0.6640668649380501  0.1674668607349972  0.3698065102232633
  0.4947674447398427  0.3267905133089215  0.6221310603425039
  0.3317590299395405  0.5123881551940315  0.8554047171594519
  0.8345950240770250  0.0066834335946453  0.6276036920891883
  0.6654935707704581  0.1697281117363048  0.8760923711393787
  0.4438346291033568  0.6533890420737478  0.1993416056411519
  0.3143428649660365  0.8472424314881266  0.3809718416143753
  0.8348294365694215  0.3378438331097584  0.1228362747829905
  0.6651054067171103  0.5170994087275673  0.3696984501380385
  0.4786862017414819  0.7336537304748347  0.5157143045866945
  0.3365173770193337  0.8446155202015078  0.8846175260307731
  0.0080618488762667  0.1638395008062759  0.3742498705633466
  0.8320009386637963  0.3335535086477392  0.6244787843886073
  0.6738042549358312  0.4917042856047189  0.8745851496089614
  0.9974383847726784  0.1698932013282715  0.8741281062286532
  0.8375009733593757  0.6684900393021849  0.1265387028226002
  0.6695669090102783  0.8256520020910685  0.3758948713450039
  0.0055418590365264  0.5035614804011814  0.3730115126216376
  0.8413169645399989  0.6614012386399111  0.6273627969118607
  0.6597941624431698  0.8366209141626797  0.8717282113506712
  0.9956201889387728  0.4948964469769237  0.8742700909252932
  0.0011180931225070  0.8362191433290391  0.3724189184326789
  0.9953939172542974  0.8387961985533536  0.8797747367072120
  0.0786221899454063  0.0098887540551402  0.2496812606387095
  0.0749168506253142  0.0116238794974848  0.7465347454241567
  0.0853911886309575  0.3318328577856633  0.2388100440049925
  0.4202614975629118  0.9982660949949178  0.2543209577264278
  0.2490564484201556  0.1631124466370295  0.4947949912638521
  0.0869063334358202  0.3315752258417319  0.7602937589942655
  0.4211161066053037  0.0022990823850648  0.7471838246782667
  0.2490833250897282  0.1626830122738099  0.0089612801427279
  0.0833038349715451  0.6656576494600728  0.2482286275555978
  0.4187561092236862  0.3325930236822074  0.2694065801606413
  0.2635507816044012  0.5152149378690396  0.4980562966859523
  0.0807137671545561  0.6668498142907211  0.7568226963524225
  0.7500647884328515  0.9951747898563497  0.2484029028565402
  0.5792389936077527  0.1836076897376699  0.4963789737186204
  0.4160212330639155  0.3260753430855772  0.7337727860572656
  0.2468601734132889  0.4948117386021167  0.0001686971498103
  0.7503031143490091  0.9938284119577645  0.7504147202643523
  0.5806337816167186  0.1674763029760840  0.0038722310797752
  0.4215024834435965  0.6296713249918753  0.3797614668431919
  0.2447311331857875  0.8541356023454512  0.4796216017395238
  0.7484911264432270  0.3395949475480577  0.2573116244565909
  0.5899274516711230  0.4700465555591933  0.4790959155767283
  0.4727384900129294  0.6696814577200954  0.6192506158999365
  0.2489669437008715  0.8370482941182473  0.0207209320096240
  0.9173824620828697  0.1617375532757777  0.5082377556197955
  0.7502195213957918  0.3412645036621385  0.7450393852645405
  0.5824000344660547  0.4930882269899683  0.0153720959065140
  0.9227207514704716  0.1633690158959666  0.9877645265273713
  0.7474831830459152  0.6653426360701360  0.2543787808937452
  0.5817167237174274  0.8116282437442166  0.5139855328719278
  0.9163939182546201  0.4991689493066502  0.5056252752769339
  0.7587976796645037  0.6653662541891521  0.7419834283919897
  0.5813301792612648  0.8331680689594805  0.9925085101495696
  0.9190342746669273  0.5022435296701744  0.9960069286529816
  0.9158794487123956  0.8428903971146582  0.4941372779822260
  0.9145023020954071  0.8377080463573776  0.0047472269023174
  0.0101901263432538  0.1674824378872586  0.1185081224915336
  0.9966175875701495  0.1659132998334059  0.6275079439588751
  0.9993136384079477  0.4945551029479915  0.1241212886956760
  0.3286591528871696  0.1562880715121722  0.1307749196111914
  0.1839607665575684  0.3386176647791217  0.3718243434610997
  0.9989569759701808  0.5045347025544089  0.6269696494313592
  0.3407591084937067  0.1658815525346213  0.6234695927946134
  0.1612371766473473  0.3309364172561757  0.8726840869147097
  0.9990710801486955  0.8418461805236461  0.1265407212305902
  0.3343775137936760  0.4978453626768768  0.1325962245882408
  0.1682561872891029  0.6686534289357553  0.3716393601260819
  0.9987060230552700  0.8300156817932347  0.6211888641768226
  0.6603927011042359  0.1696284356309334  0.1230514532109765
  0.4841635821253192  0.3318446049437114  0.3732324219785070
  0.3254505505072984  0.5424054010829380  0.6288507871930094
  0.1569693598804278  0.6672182164226257  0.8767574287937663
  0.6677031472298154  0.1665991829440330  0.6287766622662687
  0.5067643728873961  0.3249237949488659  0.8760348400955706
  0.3218031851692089  0.8393114870252134  0.1342501190538314
  0.1744948392604044  0.0026409321224463  0.3656583087736536
  0.6656188569822987  0.4875613254402325  0.1273716841246753
  0.4183116525778345  0.5752611057461365  0.4770398920556929
  0.3320667729025004  0.8498611007267201  0.6282098233659852
  0.1679777700085623  0.0067367032722530  0.8839916050749181
  0.8313089375836569  0.3351283524951825  0.3733966591630278
  0.6703803593388713  0.5074988747189408  0.6194328798059914
  0.4948672538550980  0.6649330526616382  0.8687696506387326
  0.8333669531740355  0.3372184077130456  0.8792678548446204
  0.6729680277064176  0.8331337214519934  0.1201771429822998
  0.4891859114922497  0.0050529336746123  0.3718443658890962
  0.8359048076423150  0.6673183082239262  0.3721078557604898
  0.6580522744533823  0.8254446217453619  0.6271557782467241
  0.4988938060331662  0.9980471100012878  0.8757254184316636
  0.8424883555880740  0.6576421051577626  0.8695786106568235
  0.8424986973810249  0.9963357580599208  0.3727488678753446
  0.8351444949281728  0.0064601902366164  0.8735730235237540
  0.0160782515494802  0.0798339306718319  0.2501511235253133
  0.0018825752592022  0.0847697126895142  0.7433216712803912
  0.9963660057868964  0.4221285838520998  0.2346455037438062
  0.3317336732128808  0.0830978367363500  0.2415642938788025
  0.1695050440831807  0.2493269291738969  0.5069978316989108
  0.9937260622279496  0.4172455383624722  0.7614792827894377
  0.3365250736294811  0.0826741018435087  0.7578338558030140
  0.1649454387569307  0.2492056673940581  0.9953911441097745
  0.9965001629545611  0.7511308772320930  0.2527358415943723
  0.3356101422614302  0.4176083085020466  0.2504072778680353
  0.1638404537240774  0.5860789707232570  0.4944547553852203
  0.9974829298339358  0.7474094585194493  0.7490027426986146
  0.6485469465687430  0.0836491938382125  0.2438083586608712
  0.5130795660988952  0.2475561110484179  0.4993847176696420
  0.3287498475598341  0.4260671454078491  0.7214728102707682
  0.1602758320192308  0.5804508802567199  0.0040552395889790
  0.6585436438726191  0.0822326868560808  0.7533720160724187
  0.5067680912058279  0.2466056509438488  0.0015349200745973
  0.3354077010488936  0.7468901753226120  0.2711943984734049
  0.1496007719421542  0.9225120650967895  0.4910794802011793
  0.6640583718903983  0.4146270804942773  0.2480958022129940
  0.5488424382451740  0.5932974478983795  0.5069916076918162
  0.3307770137879871  0.7520522121554833  0.7587257908826430
  0.1645462435708893  0.9213286355480008  0.0248086874648976
  0.8238347538329904  0.2478323493810421  0.5028924683069036
  0.6759221764260985  0.4142370421253219  0.7462491215323439
  0.4984770898075510  0.5855818010936318  0.0214726453128335
  0.8288752664243617  0.2563530970084926  0.9934904256281456
  0.6687175732347796  0.7465726564212645  0.2574660699528479
  0.5003518493808556  0.9188333474868529  0.5042602518652970
  0.8390708353793812  0.5803263548768030  0.5122071073149783
  0.6719067345984371  0.7502845314242776  0.7387232599363855
  0.5017206890837471  0.9135153484977110  0.0000321406739587
  0.8409882872369678  0.5787587856048262  0.9887857764870915
  0.8494094408531367  0.9171364513459750  0.4955772516452441
  0.8348250814688711  0.9157250018835086  0.0015542968456614
 
  0.00000000E+00  0.00000000E+00  0.00000000E+00
  0.00000000E+00  0.00000000E+00  0.00000000E+00
  0.00000000E+00  0.00000000E+00  0.00000000E+00
  0.00000000E+00  0.00000000E+00  0.00000000E+00
  0.00000000E+00  0.00000000E+00  0.00000000E+00
  0.00000000E+00  0.00000000E+00  0.00000000E+00
  0.00000000E+00  0.00000000E+00  0.00000000E+00
  0.00000000E+00  0.00000000E+00  0.00000000E+00
  0.00000000E+00  0.00000000E+00  0.00000000E+00
  0.00000000E+00  0.00000000E+00  0.00000000E+00
  0.00000000E+00  0.00000000E+00  0.00000000E+00
  0.00000000E+00  0.00000000E+00  0.00000000E+00
  0.00000000E+00  0.00000000E+00  0.00000000E+00
  0.00000000E+00  0.00000000E+00  0.00000000E+00
  0.00000000E+00  0.00000000E+00  0.00000000E+00
  0.00000000E+00  0.00000000E+00  0.00000000E+00
  0.00000000E+00  0.00000000E+00  0.00000000E+00
  0.00000000E+00  0.00000000E+00  0.00000000E+00
  0.00000000E+00  0.00000000E+00  0.00000000E+00
  0.00000000E+00  0.00000000E+00  0.00000000E+00
  0.00000000E+00  0.00000000E+00  0.00000000E+00
  0.00000000E+00  0.00000000E+00  0.00000000E+00
  0.00000000E+00  0.00000000E+00  0.00000000E+00
  0.00000000E+00  0.00000000E+00  0.00000000E+00
  0.00000000E+00  0.00000000E+00  0.00000000E+00
  0.00000000E+00  0.00000000E+00  0.00000000E+00
  0.00000000E+00  0.00000000E+00  0.00000000E+00
  0.00000000E+00  0.00000000E+00  0.00000000E+00
  0.00000000E+00  0.00000000E+00  0.00000000E+00
  0.00000000E+00  0.00000000E+00  0.00000000E+00
  0.00000000E+00  0.00000000E+00  0.00000000E+00
  0.00000000E+00  0.00000000E+00  0.00000000E+00
  0.00000000E+00  0.00000000E+00  0.00000000E+00
  0.00000000E+00  0.00000000E+00  0.00000000E+00
  0.00000000E+00  0.00000000E+00  0.00000000E+00
  0.00000000E+00  0.00000000E+00  0.00000000E+00
  0.00000000E+00  0.00000000E+00  0.00000000E+00
  0.00000000E+00  0.00000000E+00  0.00000000E+00
  0.00000000E+00  0.00000000E+00  0.00000000E+00
  0.00000000E+00  0.00000000E+00  0.00000000E+00
  0.00000000E+00  0.00000000E+00  0.00000000E+00
  0.00000000E+00  0.00000000E+00  0.00000000E+00
  0.00000000E+00  0.00000000E+00  0.00000000E+00
  0.00000000E+00  0.00000000E+00  0.00000000E+00
  0.00000000E+00  0.00000000E+00  0.00000000E+00
  0.00000000E+00  0.00000000E+00  0.00000000E+00
  0.00000000E+00  0.00000000E+00  0.00000000E+00
  0.00000000E+00  0.00000000E+00  0.00000000E+00
  0.00000000E+00  0.00000000E+00  0.00000000E+00
  0.00000000E+00  0.00000000E+00  0.00000000E+00
  0.00000000E+00  0.00000000E+00  0.00000000E+00
  0.00000000E+00  0.00000000E+00  0.00000000E+00
  0.00000000E+00  0.00000000E+00  0.00000000E+00
  0.00000000E+00  0.00000000E+00  0.00000000E+00
  0.00000000E+00  0.00000000E+00  0.00000000E+00
  0.00000000E+00  0.00000000E+00  0.00000000E+00
  0.00000000E+00  0.00000000E+00  0.00000000E+00
  0.00000000E+00  0.00000000E+00  0.00000000E+00
  0.00000000E+00  0.00000000E+00  0.00000000E+00
  0.00000000E+00  0.00000000E+00  0.00000000E+00
  0.00000000E+00  0.00000000E+00  0.00000000E+00
  0.00000000E+00  0.00000000E+00  0.00000000E+00
  0.00000000E+00  0.00000000E+00  0.00000000E+00
  0.00000000E+00  0.00000000E+00  0.00000000E+00
  0.00000000E+00  0.00000000E+00  0.00000000E+00
  0.00000000E+00  0.00000000E+00  0.00000000E+00
  0.00000000E+00  0.00000000E+00  0.00000000E+00
  0.00000000E+00  0.00000000E+00  0.00000000E+00
  0.00000000E+00  0.00000000E+00  0.00000000E+00
  0.00000000E+00  0.00000000E+00  0.00000000E+00
  0.00000000E+00  0.00000000E+00  0.00000000E+00
  0.00000000E+00  0.00000000E+00  0.00000000E+00
  0.00000000E+00  0.00000000E+00  0.00000000E+00
  0.00000000E+00  0.00000000E+00  0.00000000E+00
  0.00000000E+00  0.00000000E+00  0.00000000E+00
  0.00000000E+00  0.00000000E+00  0.00000000E+00
  0.00000000E+00  0.00000000E+00  0.00000000E+00
  0.00000000E+00  0.00000000E+00  0.00000000E+00
  0.00000000E+00  0.00000000E+00  0.00000000E+00
  0.00000000E+00  0.00000000E+00  0.00000000E+00
  0.00000000E+00  0.00000000E+00  0.00000000E+00
  0.00000000E+00  0.00000000E+00  0.00000000E+00
  0.00000000E+00  0.00000000E+00  0.00000000E+00
  0.00000000E+00  0.00000000E+00  0.00000000E+00
  0.00000000E+00  0.00000000E+00  0.00000000E+00
  0.00000000E+00  0.00000000E+00  0.00000000E+00
  0.00000000E+00  0.00000000E+00  0.00000000E+00
  0.00000000E+00  0.00000000E+00  0.00000000E+00
  0.00000000E+00  0.00000000E+00  0.00000000E+00
  0.00000000E+00  0.00000000E+00  0.00000000E+00
  0.00000000E+00  0.00000000E+00  0.00000000E+00
  0.00000000E+00  0.00000000E+00  0.00000000E+00
  0.00000000E+00  0.00000000E+00  0.00000000E+00
  0.00000000E+00  0.00000000E+00  0.00000000E+00
  0.00000000E+00  0.00000000E+00  0.00000000E+00
  0.00000000E+00  0.00000000E+00  0.00000000E+00
  0.00000000E+00  0.00000000E+00  0.00000000E+00
  0.00000000E+00  0.00000000E+00  0.00000000E+00
  0.00000000E+00  0.00000000E+00  0.00000000E+00
  0.00000000E+00  0.00000000E+00  0.00000000E+00
  0.00000000E+00  0.00000000E+00  0.00000000E+00
  0.00000000E+00  0.00000000E+00  0.00000000E+00
  0.00000000E+00  0.00000000E+00  0.00000000E+00
  0.00000000E+00  0.00000000E+00  0.00000000E+00
  0.00000000E+00  0.00000000E+00  0.00000000E+00
  0.00000000E+00  0.00000000E+00  0.00000000E+00
  0.00000000E+00  0.00000000E+00  0.00000000E+00
  0.00000000E+00  0.00000000E+00  0.00000000E+00
  0.00000000E+00  0.00000000E+00  0.00000000E+00
  0.00000000E+00  0.00000000E+00  0.00000000E+00
  0.00000000E+00  0.00000000E+00  0.00000000E+00
  0.00000000E+00  0.00000000E+00  0.00000000E+00
  0.00000000E+00  0.00000000E+00  0.00000000E+00
  0.00000000E+00  0.00000000E+00  0.00000000E+00
  0.00000000E+00  0.00000000E+00  0.00000000E+00
  0.00000000E+00  0.00000000E+00  0.00000000E+00
  0.00000000E+00  0.00000000E+00  0.00000000E+00
  0.00000000E+00  0.00000000E+00  0.00000000E+00
  0.00000000E+00  0.00000000E+00  0.00000000E+00
  0.00000000E+00  0.00000000E+00  0.00000000E+00
  0.00000000E+00  0.00000000E+00  0.00000000E+00
  0.00000000E+00  0.00000000E+00  0.00000000E+00
  0.00000000E+00  0.00000000E+00  0.00000000E+00
  0.00000000E+00  0.00000000E+00  0.00000000E+00
  0.00000000E+00  0.00000000E+00  0.00000000E+00
  0.00000000E+00  0.00000000E+00  0.00000000E+00
  0.00000000E+00  0.00000000E+00  0.00000000E+00
  0.00000000E+00  0.00000000E+00  0.00000000E+00
  0.00000000E+00  0.00000000E+00  0.00000000E+00
  0.00000000E+00  0.00000000E+00  0.00000000E+00
  0.00000000E+00  0.00000000E+00  0.00000000E+00
  0.00000000E+00  0.00000000E+00  0.00000000E+00
  0.00000000E+00  0.00000000E+00  0.00000000E+00
  0.00000000E+00  0.00000000E+00  0.00000000E+00
  0.00000000E+00  0.00000000E+00  0.00000000E+00
  0.00000000E+00  0.00000000E+00  0.00000000E+00
  0.00000000E+00  0.00000000E+00  0.00000000E+00
  0.00000000E+00  0.00000000E+00  0.00000000E+00
  0.00000000E+00  0.00000000E+00  0.00000000E+00
  0.00000000E+00  0.00000000E+00  0.00000000E+00
  0.00000000E+00  0.00000000E+00  0.00000000E+00
  0.00000000E+00  0.00000000E+00  0.00000000E+00
  0.00000000E+00  0.00000000E+00  0.00000000E+00
  0.00000000E+00  0.00000000E+00  0.00000000E+00
  0.00000000E+00  0.00000000E+00  0.00000000E+00
  0.00000000E+00  0.00000000E+00  0.00000000E+00
  0.00000000E+00  0.00000000E+00  0.00000000E+00
  0.00000000E+00  0.00000000E+00  0.00000000E+00
  0.00000000E+00  0.00000000E+00  0.00000000E+00
  0.00000000E+00  0.00000000E+00  0.00000000E+00
  0.00000000E+00  0.00000000E+00  0.00000000E+00
  0.00000000E+00  0.00000000E+00  0.00000000E+00
  0.00000000E+00  0.00000000E+00  0.00000000E+00
  0.00000000E+00  0.00000000E+00  0.00000000E+00
  0.00000000E+00  0.00000000E+00  0.00000000E+00
  0.00000000E+00  0.00000000E+00  0.00000000E+00
  0.00000000E+00  0.00000000E+00  0.00000000E+00
  0.00000000E+00  0.00000000E+00  0.00000000E+00
  0.00000000E+00  0.00000000E+00  0.00000000E+00
  0.00000000E+00  0.00000000E+00  0.00000000E+00
  0.00000000E+00  0.00000000E+00  0.00000000E+00
  0.00000000E+00  0.00000000E+00  0.00000000E+00
  0.00000000E+00  0.00000000E+00  0.00000000E+00
  0.00000000E+00  0.00000000E+00  0.00000000E+00
  0.00000000E+00  0.00000000E+00  0.00000000E+00
  0.00000000E+00  0.00000000E+00  0.00000000E+00
  0.00000000E+00  0.00000000E+00  0.00000000E+00
  0.00000000E+00  0.00000000E+00  0.00000000E+00
  0.00000000E+00  0.00000000E+00  0.00000000E+00
  0.00000000E+00  0.00000000E+00  0.00000000E+00
  0.00000000E+00  0.00000000E+00  0.00000000E+00
  0.00000000E+00  0.00000000E+00  0.00000000E+00
  0.00000000E+00  0.00000000E+00  0.00000000E+00
  0.00000000E+00  0.00000000E+00  0.00000000E+00
  0.00000000E+00  0.00000000E+00  0.00000000E+00
  0.00000000E+00  0.00000000E+00  0.00000000E+00
  0.00000000E+00  0.00000000E+00  0.00000000E+00
  0.00000000E+00  0.00000000E+00  0.00000000E+00
  0.00000000E+00  0.00000000E+00  0.00000000E+00
  0.00000000E+00  0.00000000E+00  0.00000000E+00
  0.00000000E+00  0.00000000E+00  0.00000000E+00
  0.00000000E+00  0.00000000E+00  0.00000000E+00
  0.00000000E+00  0.00000000E+00  0.00000000E+00
  0.00000000E+00  0.00000000E+00  0.00000000E+00
  0.00000000E+00  0.00000000E+00  0.00000000E+00
  0.00000000E+00  0.00000000E+00  0.00000000E+00
  0.00000000E+00  0.00000000E+00  0.00000000E+00
  0.00000000E+00  0.00000000E+00  0.00000000E+00
  0.00000000E+00  0.00000000E+00  0.00000000E+00
  0.00000000E+00  0.00000000E+00  0.00000000E+00
  0.00000000E+00  0.00000000E+00  0.00000000E+00
  0.00000000E+00  0.00000000E+00  0.00000000E+00
  0.00000000E+00  0.00000000E+00  0.00000000E+00
  0.00000000E+00  0.00000000E+00  0.00000000E+00
  0.00000000E+00  0.00000000E+00  0.00000000E+00
  0.00000000E+00  0.00000000E+00  0.00000000E+00
  0.00000000E+00  0.00000000E+00  0.00000000E+00
  0.00000000E+00  0.00000000E+00  0.00000000E+00
  0.00000000E+00  0.00000000E+00  0.00000000E+00
  0.00000000E+00  0.00000000E+00  0.00000000E+00
  0.00000000E+00  0.00000000E+00  0.00000000E+00
  0.00000000E+00  0.00000000E+00  0.00000000E+00
  0.00000000E+00  0.00000000E+00  0.00000000E+00
  0.00000000E+00  0.00000000E+00  0.00000000E+00
  0.00000000E+00  0.00000000E+00  0.00000000E+00
  0.00000000E+00  0.00000000E+00  0.00000000E+00
  0.00000000E+00  0.00000000E+00  0.00000000E+00
  0.00000000E+00  0.00000000E+00  0.00000000E+00
  0.00000000E+00  0.00000000E+00  0.00000000E+00
  0.00000000E+00  0.00000000E+00  0.00000000E+00
  0.00000000E+00  0.00000000E+00  0.00000000E+00
  0.00000000E+00  0.00000000E+00  0.00000000E+00
  0.00000000E+00  0.00000000E+00  0.00000000E+00
  0.00000000E+00  0.00000000E+00  0.00000000E+00
  0.00000000E+00  0.00000000E+00  0.00000000E+00
  0.00000000E+00  0.00000000E+00  0.00000000E+00
  0.00000000E+00  0.00000000E+00  0.00000000E+00
  0.00000000E+00  0.00000000E+00  0.00000000E+00
  0.00000000E+00  0.00000000E+00  0.00000000E+00
  0.00000000E+00  0.00000000E+00  0.00000000E+00
  0.00000000E+00  0.00000000E+00  0.00000000E+00
  0.00000000E+00  0.00000000E+00  0.00000000E+00
  0.00000000E+00  0.00000000E+00  0.00000000E+00
  0.00000000E+00  0.00000000E+00  0.00000000E+00
  0.00000000E+00  0.00000000E+00  0.00000000E+00
  0.00000000E+00  0.00000000E+00  0.00000000E+00
  0.00000000E+00  0.00000000E+00  0.00000000E+00
  0.00000000E+00  0.00000000E+00  0.00000000E+00
  0.00000000E+00  0.00000000E+00  0.00000000E+00
  0.00000000E+00  0.00000000E+00  0.00000000E+00
  0.00000000E+00  0.00000000E+00  0.00000000E+00
  0.00000000E+00  0.00000000E+00  0.00000000E+00
  0.00000000E+00  0.00000000E+00  0.00000000E+00
  0.00000000E+00  0.00000000E+00  0.00000000E+00
  0.00000000E+00  0.00000000E+00  0.00000000E+00
  0.00000000E+00  0.00000000E+00  0.00000000E+00
  0.00000000E+00  0.00000000E+00  0.00000000E+00
  0.00000000E+00  0.00000000E+00  0.00000000E+00
  0.00000000E+00  0.00000000E+00  0.00000000E+00
  0.00000000E+00  0.00000000E+00  0.00000000E+00
  0.00000000E+00  0.00000000E+00  0.00000000E+00
  0.00000000E+00  0.00000000E+00  0.00000000E+00
  0.00000000E+00  0.00000000E+00  0.00000000E+00
  0.00000000E+00  0.00000000E+00  0.00000000E+00
  0.00000000E+00  0.00000000E+00  0.00000000E+00
  0.00000000E+00  0.00000000E+00  0.00000000E+00
  0.00000000E+00  0.00000000E+00  0.00000000E+00
  0.00000000E+00  0.00000000E+00  0.00000000E+00
  0.00000000E+00  0.00000000E+00  0.00000000E+00
  0.00000000E+00  0.00000000E+00  0.00000000E+00
  0.00000000E+00  0.00000000E+00  0.00000000E+00
  0.00000000E+00  0.00000000E+00  0.00000000E+00
