generated by phonopy                    
   1.00000000000000     
     0.0000000000000000    3.3726322685557792    3.3726322685558503
     3.3726322685558117    0.0000000000000000    3.3726322685558503
     3.3726322685558117    3.3726322685557792    0.0000000000000000
   Mg   Y    Ca   Sc   H 
     1     1     1     1    24
Direct
  0.2500000000000000  0.2500000000000000  0.2500000000000000
  0.7500000000000000  0.7500000000000000  0.7500000000000000
  0.0000000000000000  0.0000000000000000  0.0000000000000000
  0.5000000000000000  0.5000000000000000  0.5000000000000000
  0.1348386856558790  0.8843651978214027  0.6162003896087711
  0.8843651978214027  0.1348386856558790  0.3645957269139402
  0.6162003896087711  0.3645957269139402  0.1348386856558790
  0.3645957269139402  0.6162003896087711  0.8843651978214027
  0.6162003896087711  0.1348386856558790  0.8843651978214027
  0.3645957269139402  0.8843651978214027  0.1348386856558790
  0.1348386856558790  0.6162003896087711  0.3645957269139402
  0.8843651978214027  0.3645957269139402  0.6162003896087711
  0.8843651978214027  0.6162003896087711  0.1348386856558790
  0.1348386856558790  0.3645957269139402  0.8843651978214027
  0.3645957269139402  0.1348386856558790  0.6162003896087711
  0.6162003896087711  0.8843651978214027  0.3645957269139402
  0.1348386856558790  0.3645957269139402  0.6162003896087711
  0.3645957269139402  0.1348386856558790  0.8843651978214027
  0.6162003896087711  0.8843651978214027  0.1348386856558790
  0.8843651978214027  0.6162003896087711  0.3645957269139402
  0.6162003896087711  0.1348386856558790  0.3645957269139402
  0.8843651978214027  0.3645957269139402  0.1348386856558790
  0.1348386856558790  0.6162003896087711  0.8843651978214027
  0.3645957269139402  0.8843651978214027  0.6162003896087711
  0.3645957269139402  0.6162003896087711  0.1348386856558790
  0.1348386856558790  0.8843651978214027  0.3645957269139402
  0.8843651978214027  0.1348386856558790  0.6162003896087711
  0.6162003896087711  0.3645957269139402  0.8843651978214027
 
  0.00000000E+00  0.00000000E+00  0.00000000E+00
  0.00000000E+00  0.00000000E+00  0.00000000E+00
  0.00000000E+00  0.00000000E+00  0.00000000E+00
  0.00000000E+00  0.00000000E+00  0.00000000E+00
  0.00000000E+00  0.00000000E+00  0.00000000E+00
  0.00000000E+00  0.00000000E+00  0.00000000E+00
  0.00000000E+00  0.00000000E+00  0.00000000E+00
  0.00000000E+00  0.00000000E+00  0.00000000E+00
  0.00000000E+00  0.00000000E+00  0.00000000E+00
  0.00000000E+00  0.00000000E+00  0.00000000E+00
  0.00000000E+00  0.00000000E+00  0.00000000E+00
  0.00000000E+00  0.00000000E+00  0.00000000E+00
  0.00000000E+00  0.00000000E+00  0.00000000E+00
  0.00000000E+00  0.00000000E+00  0.00000000E+00
  0.00000000E+00  0.00000000E+00  0.00000000E+00
  0.00000000E+00  0.00000000E+00  0.00000000E+00
  0.00000000E+00  0.00000000E+00  0.00000000E+00
  0.00000000E+00  0.00000000E+00  0.00000000E+00
  0.00000000E+00  0.00000000E+00  0.00000000E+00
  0.00000000E+00  0.00000000E+00  0.00000000E+00
  0.00000000E+00  0.00000000E+00  0.00000000E+00
  0.00000000E+00  0.00000000E+00  0.00000000E+00
  0.00000000E+00  0.00000000E+00  0.00000000E+00
  0.00000000E+00  0.00000000E+00  0.00000000E+00
  0.00000000E+00  0.00000000E+00  0.00000000E+00
  0.00000000E+00  0.00000000E+00  0.00000000E+00
  0.00000000E+00  0.00000000E+00  0.00000000E+00
  0.00000000E+00  0.00000000E+00  0.00000000E+00
