generated by phonopy                    
   1.00000000000000     
     0.0000000000000000    3.1523840405765990    3.1523840405766759
     3.1523840405766301    0.0000000000000000    3.1523840405766759
     3.1523840405766301    3.1523840405765990    0.0000000000000000
   Na   Ca   Mg   Sc   H 
     1     1     1     1    24
Direct
  0.2500000000000000  0.2500000000000000  0.2500000000000000
  0.7500000000000000  0.7500000000000000  0.7500000000000000
  0.0000000000000000  0.0000000000000000  0.0000000000000000
  0.5000000000000000  0.5000000000000000  0.5000000000000000
  0.1245604768005251  0.8893298264864740  0.6213858511787294
  0.8893298264864740  0.1245604768005251  0.3647238455342787
  0.6213858511787294  0.3647238455342787  0.1245604768005251
  0.3647238455342787  0.6213858511787294  0.8893298264864740
  0.6213858511787294  0.1245604768005251  0.8893298264864740
  0.3647238455342787  0.8893298264864740  0.1245604768005251
  0.1245604768005251  0.6213858511787294  0.3647238455342787
  0.8893298264864740  0.3647238455342787  0.6213858511787294
  0.8893298264864740  0.6213858511787294  0.1245604768005251
  0.1245604768005251  0.3647238455342787  0.8893298264864740
  0.3647238455342787  0.1245604768005251  0.6213858511787294
  0.6213858511787294  0.8893298264864740  0.3647238455342787
  0.1245604768005251  0.3647238455342787  0.6213858511787294
  0.3647238455342787  0.1245604768005251  0.8893298264864740
  0.6213858511787294  0.8893298264864740  0.1245604768005251
  0.8893298264864740  0.6213858511787294  0.3647238455342787
  0.6213858511787294  0.1245604768005251  0.3647238455342787
  0.8893298264864740  0.3647238455342787  0.1245604768005251
  0.1245604768005251  0.6213858511787294  0.8893298264864740
  0.3647238455342787  0.8893298264864740  0.6213858511787294
  0.3647238455342787  0.6213858511787294  0.1245604768005251
  0.1245604768005251  0.8893298264864740  0.3647238455342787
  0.8893298264864740  0.1245604768005251  0.6213858511787294
  0.6213858511787294  0.3647238455342787  0.8893298264864740
 
  0.00000000E+00  0.00000000E+00  0.00000000E+00
  0.00000000E+00  0.00000000E+00  0.00000000E+00
  0.00000000E+00  0.00000000E+00  0.00000000E+00
  0.00000000E+00  0.00000000E+00  0.00000000E+00
  0.00000000E+00  0.00000000E+00  0.00000000E+00
  0.00000000E+00  0.00000000E+00  0.00000000E+00
  0.00000000E+00  0.00000000E+00  0.00000000E+00
  0.00000000E+00  0.00000000E+00  0.00000000E+00
  0.00000000E+00  0.00000000E+00  0.00000000E+00
  0.00000000E+00  0.00000000E+00  0.00000000E+00
  0.00000000E+00  0.00000000E+00  0.00000000E+00
  0.00000000E+00  0.00000000E+00  0.00000000E+00
  0.00000000E+00  0.00000000E+00  0.00000000E+00
  0.00000000E+00  0.00000000E+00  0.00000000E+00
  0.00000000E+00  0.00000000E+00  0.00000000E+00
  0.00000000E+00  0.00000000E+00  0.00000000E+00
  0.00000000E+00  0.00000000E+00  0.00000000E+00
  0.00000000E+00  0.00000000E+00  0.00000000E+00
  0.00000000E+00  0.00000000E+00  0.00000000E+00
  0.00000000E+00  0.00000000E+00  0.00000000E+00
  0.00000000E+00  0.00000000E+00  0.00000000E+00
  0.00000000E+00  0.00000000E+00  0.00000000E+00
  0.00000000E+00  0.00000000E+00  0.00000000E+00
  0.00000000E+00  0.00000000E+00  0.00000000E+00
  0.00000000E+00  0.00000000E+00  0.00000000E+00
  0.00000000E+00  0.00000000E+00  0.00000000E+00
  0.00000000E+00  0.00000000E+00  0.00000000E+00
  0.00000000E+00  0.00000000E+00  0.00000000E+00
