generated by phonopy                    
   1.00000000000000     
     0.0000000000000000    3.2954203261205395    3.2954203261206452
     3.2954203261205870    0.0000000000000000    3.2954203261206452
     3.2954203261205870    3.2954203261205395    0.0000000000000000
   Na   Y    Ca   Ce   H 
     1     1     1     1    24
Direct
  0.2500000000000000  0.2500000000000000  0.2500000000000000
  0.7500000000000000  0.7500000000000000  0.7500000000000000
  0.0000000000000000  0.0000000000000000  0.0000000000000000
  0.5000000000000000  0.5000000000000000  0.5000000000000000
  0.1319858830538863  0.8941287085668392  0.6191351779890297
  0.8941287085668392  0.1319858830538863  0.3547502303902448
  0.6191351779890297  0.3547502303902448  0.1319858830538863
  0.3547502303902448  0.6191351779890297  0.8941287085668392
  0.6191351779890297  0.1319858830538863  0.8941287085668392
  0.3547502303902448  0.8941287085668392  0.1319858830538863
  0.1319858830538863  0.6191351779890297  0.3547502303902448
  0.8941287085668392  0.3547502303902448  0.6191351779890297
  0.8941287085668392  0.6191351779890297  0.1319858830538863
  0.1319858830538863  0.3547502303902448  0.8941287085668392
  0.3547502303902448  0.1319858830538863  0.6191351779890297
  0.6191351779890297  0.8941287085668392  0.3547502303902448
  0.1319858830538863  0.3547502303902448  0.6191351779890297
  0.3547502303902448  0.1319858830538863  0.8941287085668392
  0.6191351779890297  0.8941287085668392  0.1319858830538863
  0.8941287085668392  0.6191351779890297  0.3547502303902448
  0.6191351779890297  0.1319858830538863  0.3547502303902448
  0.8941287085668392  0.3547502303902448  0.1319858830538863
  0.1319858830538863  0.6191351779890297  0.8941287085668392
  0.3547502303902448  0.8941287085668392  0.6191351779890297
  0.3547502303902448  0.6191351779890297  0.1319858830538863
  0.1319858830538863  0.8941287085668392  0.3547502303902448
  0.8941287085668392  0.1319858830538863  0.6191351779890297
  0.6191351779890297  0.3547502303902448  0.8941287085668392
 
  0.00000000E+00  0.00000000E+00  0.00000000E+00
  0.00000000E+00  0.00000000E+00  0.00000000E+00
  0.00000000E+00  0.00000000E+00  0.00000000E+00
  0.00000000E+00  0.00000000E+00  0.00000000E+00
  0.00000000E+00  0.00000000E+00  0.00000000E+00
  0.00000000E+00  0.00000000E+00  0.00000000E+00
  0.00000000E+00  0.00000000E+00  0.00000000E+00
  0.00000000E+00  0.00000000E+00  0.00000000E+00
  0.00000000E+00  0.00000000E+00  0.00000000E+00
  0.00000000E+00  0.00000000E+00  0.00000000E+00
  0.00000000E+00  0.00000000E+00  0.00000000E+00
  0.00000000E+00  0.00000000E+00  0.00000000E+00
  0.00000000E+00  0.00000000E+00  0.00000000E+00
  0.00000000E+00  0.00000000E+00  0.00000000E+00
  0.00000000E+00  0.00000000E+00  0.00000000E+00
  0.00000000E+00  0.00000000E+00  0.00000000E+00
  0.00000000E+00  0.00000000E+00  0.00000000E+00
  0.00000000E+00  0.00000000E+00  0.00000000E+00
  0.00000000E+00  0.00000000E+00  0.00000000E+00
  0.00000000E+00  0.00000000E+00  0.00000000E+00
  0.00000000E+00  0.00000000E+00  0.00000000E+00
  0.00000000E+00  0.00000000E+00  0.00000000E+00
  0.00000000E+00  0.00000000E+00  0.00000000E+00
  0.00000000E+00  0.00000000E+00  0.00000000E+00
  0.00000000E+00  0.00000000E+00  0.00000000E+00
  0.00000000E+00  0.00000000E+00  0.00000000E+00
  0.00000000E+00  0.00000000E+00  0.00000000E+00
  0.00000000E+00  0.00000000E+00  0.00000000E+00
