generated by phonopy                    
   1.00000000000000     
     0.0000000000000000    3.2986319618346873    3.2986319618348441
     3.2986319618347544    0.0000000000000000    3.2986319618348441
     3.2986319618347544    3.2986319618346873    0.0000000000000000
   Na   Sr   Y    Zr   H 
     1     1     1     1    24
Direct
  0.2500000000000000  0.2500000000000000  0.2500000000000000
  0.7500000000000000  0.7500000000000000  0.7500000000000000
  0.0000000000000000  0.0000000000000000  0.0000000000000000
  0.5000000000000000  0.5000000000000000  0.5000000000000000
  0.1334491982960486  0.8930129403666953  0.6068478188052850
  0.8930129403666953  0.1334491982960486  0.3666900425319710
  0.6068478188052850  0.3666900425319710  0.1334491982960486
  0.3666900425319710  0.6068478188052850  0.8930129403666953
  0.6068478188052850  0.1334491982960486  0.8930129403666953
  0.3666900425319710  0.8930129403666953  0.1334491982960486
  0.1334491982960486  0.6068478188052850  0.3666900425319710
  0.8930129403666953  0.3666900425319710  0.6068478188052850
  0.8930129403666953  0.6068478188052850  0.1334491982960486
  0.1334491982960486  0.3666900425319710  0.8930129403666953
  0.3666900425319710  0.1334491982960486  0.6068478188052850
  0.6068478188052850  0.8930129403666953  0.3666900425319710
  0.1334491982960486  0.3666900425319710  0.6068478188052850
  0.3666900425319710  0.1334491982960486  0.8930129403666953
  0.6068478188052850  0.8930129403666953  0.1334491982960486
  0.8930129403666953  0.6068478188052850  0.3666900425319710
  0.6068478188052850  0.1334491982960486  0.3666900425319710
  0.8930129403666953  0.3666900425319710  0.1334491982960486
  0.1334491982960486  0.6068478188052850  0.8930129403666953
  0.3666900425319710  0.8930129403666953  0.6068478188052850
  0.3666900425319710  0.6068478188052850  0.1334491982960486
  0.1334491982960486  0.8930129403666953  0.3666900425319710
  0.8930129403666953  0.1334491982960486  0.6068478188052850
  0.6068478188052850  0.3666900425319710  0.8930129403666953
 
  0.00000000E+00  0.00000000E+00  0.00000000E+00
  0.00000000E+00  0.00000000E+00  0.00000000E+00
  0.00000000E+00  0.00000000E+00  0.00000000E+00
  0.00000000E+00  0.00000000E+00  0.00000000E+00
  0.00000000E+00  0.00000000E+00  0.00000000E+00
  0.00000000E+00  0.00000000E+00  0.00000000E+00
  0.00000000E+00  0.00000000E+00  0.00000000E+00
  0.00000000E+00  0.00000000E+00  0.00000000E+00
  0.00000000E+00  0.00000000E+00  0.00000000E+00
  0.00000000E+00  0.00000000E+00  0.00000000E+00
  0.00000000E+00  0.00000000E+00  0.00000000E+00
  0.00000000E+00  0.00000000E+00  0.00000000E+00
  0.00000000E+00  0.00000000E+00  0.00000000E+00
  0.00000000E+00  0.00000000E+00  0.00000000E+00
  0.00000000E+00  0.00000000E+00  0.00000000E+00
  0.00000000E+00  0.00000000E+00  0.00000000E+00
  0.00000000E+00  0.00000000E+00  0.00000000E+00
  0.00000000E+00  0.00000000E+00  0.00000000E+00
  0.00000000E+00  0.00000000E+00  0.00000000E+00
  0.00000000E+00  0.00000000E+00  0.00000000E+00
  0.00000000E+00  0.00000000E+00  0.00000000E+00
  0.00000000E+00  0.00000000E+00  0.00000000E+00
  0.00000000E+00  0.00000000E+00  0.00000000E+00
  0.00000000E+00  0.00000000E+00  0.00000000E+00
  0.00000000E+00  0.00000000E+00  0.00000000E+00
  0.00000000E+00  0.00000000E+00  0.00000000E+00
  0.00000000E+00  0.00000000E+00  0.00000000E+00
  0.00000000E+00  0.00000000E+00  0.00000000E+00
