generated by phonopy                    
   1.00000000000000     
     0.0000000000000000    3.3045297079214779    3.3045297079215721
     3.3045297079215188    0.0000000000000000    3.3045297079215721
     3.3045297079215188    3.3045297079214779    0.0000000000000000
   Na   Hf   Zr   Ce   H 
     1     1     1     1    24
Direct
  0.2500000000000000  0.2500000000000000  0.2500000000000000
  0.7500000000000000  0.7500000000000000  0.7500000000000000
  0.0000000000000000  0.0000000000000000  0.0000000000000000
  0.5000000000000000  0.5000000000000000  0.5000000000000000
  0.1341154366338202  0.8894446619513445  0.6150055854896763
  0.8894446619513445  0.1341154366338202  0.3614343159251519
  0.6150055854896763  0.3614343159251519  0.1341154366338202
  0.3614343159251519  0.6150055854896763  0.8894446619513445
  0.6150055854896763  0.1341154366338202  0.8894446619513445
  0.3614343159251519  0.8894446619513445  0.1341154366338202
  0.1341154366338202  0.6150055854896763  0.3614343159251519
  0.8894446619513445  0.3614343159251519  0.6150055854896763
  0.8894446619513445  0.6150055854896763  0.1341154366338202
  0.1341154366338202  0.3614343159251519  0.8894446619513445
  0.3614343159251519  0.1341154366338202  0.6150055854896763
  0.6150055854896763  0.8894446619513445  0.3614343159251519
  0.1341154366338202  0.3614343159251519  0.6150055854896763
  0.3614343159251519  0.1341154366338202  0.8894446619513445
  0.6150055854896763  0.8894446619513445  0.1341154366338202
  0.8894446619513445  0.6150055854896763  0.3614343159251519
  0.6150055854896763  0.1341154366338202  0.3614343159251519
  0.8894446619513445  0.3614343159251519  0.1341154366338202
  0.1341154366338202  0.6150055854896763  0.8894446619513445
  0.3614343159251519  0.8894446619513445  0.6150055854896763
  0.3614343159251519  0.6150055854896763  0.1341154366338202
  0.1341154366338202  0.8894446619513445  0.3614343159251519
  0.8894446619513445  0.1341154366338202  0.6150055854896763
  0.6150055854896763  0.3614343159251519  0.8894446619513445
 
  0.00000000E+00  0.00000000E+00  0.00000000E+00
  0.00000000E+00  0.00000000E+00  0.00000000E+00
  0.00000000E+00  0.00000000E+00  0.00000000E+00
  0.00000000E+00  0.00000000E+00  0.00000000E+00
  0.00000000E+00  0.00000000E+00  0.00000000E+00
  0.00000000E+00  0.00000000E+00  0.00000000E+00
  0.00000000E+00  0.00000000E+00  0.00000000E+00
  0.00000000E+00  0.00000000E+00  0.00000000E+00
  0.00000000E+00  0.00000000E+00  0.00000000E+00
  0.00000000E+00  0.00000000E+00  0.00000000E+00
  0.00000000E+00  0.00000000E+00  0.00000000E+00
  0.00000000E+00  0.00000000E+00  0.00000000E+00
  0.00000000E+00  0.00000000E+00  0.00000000E+00
  0.00000000E+00  0.00000000E+00  0.00000000E+00
  0.00000000E+00  0.00000000E+00  0.00000000E+00
  0.00000000E+00  0.00000000E+00  0.00000000E+00
  0.00000000E+00  0.00000000E+00  0.00000000E+00
  0.00000000E+00  0.00000000E+00  0.00000000E+00
  0.00000000E+00  0.00000000E+00  0.00000000E+00
  0.00000000E+00  0.00000000E+00  0.00000000E+00
  0.00000000E+00  0.00000000E+00  0.00000000E+00
  0.00000000E+00  0.00000000E+00  0.00000000E+00
  0.00000000E+00  0.00000000E+00  0.00000000E+00
  0.00000000E+00  0.00000000E+00  0.00000000E+00
  0.00000000E+00  0.00000000E+00  0.00000000E+00
  0.00000000E+00  0.00000000E+00  0.00000000E+00
  0.00000000E+00  0.00000000E+00  0.00000000E+00
  0.00000000E+00  0.00000000E+00  0.00000000E+00
