generated by phonopy                    
   1.00000000000000     
     0.0000000000000000    3.3174426600201832    3.3174426600202427
     3.3174426600202089    0.0000000000000000    3.3174426600202427
     3.3174426600202089    3.3174426600201832    0.0000000000000000
   Na   Sc   Mg   Zr   H 
     1     1     1     1    24
Direct
  0.2500000000000000  0.2500000000000000  0.2500000000000000
  0.7500000000000000  0.7500000000000000  0.7500000000000000
  0.0000000000000000  0.0000000000000000  0.0000000000000000
  0.5000000000000000  0.5000000000000000  0.5000000000000000
  0.1189981327703578  0.8930045034796876  0.6257116791624924
  0.8930045034796876  0.1189981327703578  0.3622856845874622
  0.6257116791624924  0.3622856845874622  0.1189981327703578
  0.3622856845874622  0.6257116791624924  0.8930045034796876
  0.6257116791624924  0.1189981327703578  0.8930045034796876
  0.3622856845874622  0.8930045034796876  0.1189981327703578
  0.1189981327703578  0.6257116791624924  0.3622856845874622
  0.8930045034796876  0.3622856845874622  0.6257116791624924
  0.8930045034796876  0.6257116791624924  0.1189981327703578
  0.1189981327703578  0.3622856845874622  0.8930045034796876
  0.3622856845874622  0.1189981327703578  0.6257116791624924
  0.6257116791624924  0.8930045034796876  0.3622856845874622
  0.1189981327703578  0.3622856845874622  0.6257116791624924
  0.3622856845874622  0.1189981327703578  0.8930045034796876
  0.6257116791624924  0.8930045034796876  0.1189981327703578
  0.8930045034796876  0.6257116791624924  0.3622856845874622
  0.6257116791624924  0.1189981327703578  0.3622856845874622
  0.8930045034796876  0.3622856845874622  0.1189981327703578
  0.1189981327703578  0.6257116791624924  0.8930045034796876
  0.3622856845874622  0.8930045034796876  0.6257116791624924
  0.3622856845874622  0.6257116791624924  0.1189981327703578
  0.1189981327703578  0.8930045034796876  0.3622856845874622
  0.8930045034796876  0.1189981327703578  0.6257116791624924
  0.6257116791624924  0.3622856845874622  0.8930045034796876
 
  0.00000000E+00  0.00000000E+00  0.00000000E+00
  0.00000000E+00  0.00000000E+00  0.00000000E+00
  0.00000000E+00  0.00000000E+00  0.00000000E+00
  0.00000000E+00  0.00000000E+00  0.00000000E+00
  0.00000000E+00  0.00000000E+00  0.00000000E+00
  0.00000000E+00  0.00000000E+00  0.00000000E+00
  0.00000000E+00  0.00000000E+00  0.00000000E+00
  0.00000000E+00  0.00000000E+00  0.00000000E+00
  0.00000000E+00  0.00000000E+00  0.00000000E+00
  0.00000000E+00  0.00000000E+00  0.00000000E+00
  0.00000000E+00  0.00000000E+00  0.00000000E+00
  0.00000000E+00  0.00000000E+00  0.00000000E+00
  0.00000000E+00  0.00000000E+00  0.00000000E+00
  0.00000000E+00  0.00000000E+00  0.00000000E+00
  0.00000000E+00  0.00000000E+00  0.00000000E+00
  0.00000000E+00  0.00000000E+00  0.00000000E+00
  0.00000000E+00  0.00000000E+00  0.00000000E+00
  0.00000000E+00  0.00000000E+00  0.00000000E+00
  0.00000000E+00  0.00000000E+00  0.00000000E+00
  0.00000000E+00  0.00000000E+00  0.00000000E+00
  0.00000000E+00  0.00000000E+00  0.00000000E+00
  0.00000000E+00  0.00000000E+00  0.00000000E+00
  0.00000000E+00  0.00000000E+00  0.00000000E+00
  0.00000000E+00  0.00000000E+00  0.00000000E+00
  0.00000000E+00  0.00000000E+00  0.00000000E+00
  0.00000000E+00  0.00000000E+00  0.00000000E+00
  0.00000000E+00  0.00000000E+00  0.00000000E+00
  0.00000000E+00  0.00000000E+00  0.00000000E+00
