POSCAR                                  
   1.00000000000000     
    10.0840561332419583    0.0006360545615096   -0.0523238589970343
     0.0005986464866795   10.0565875454914906    0.0180089196530749
    -0.0348485066921710    0.0119523548548269    6.7369171269515657
   Zr   Hf   K    Ca   H 
     9     9     9     9   216
Direct
  0.1668862660978476  0.1637575076155500  0.2514105548118053
  0.1661754460248943  0.5045476824945396  0.2399896972906177
  0.8335581261064462  0.1637164765198946  0.2537885766205363
  0.6689274826874367  0.3314187836964990  0.5036244173591129
  0.8381983566803655  0.1613045993870728  0.7466624617755215
  0.3360330456285894  0.0005882863725972  0.0031779203680458
  0.0094656612224782  0.6689360479816955  0.4918465832302843
  0.6636299004962254  0.9952340690217127  0.0026549645180296
  0.0031594890756494  0.9967401351652256  0.0007682758092855
  0.1652173041004446  0.1671520445382910  0.7433561651703968
  0.3385179479394722  0.3397548536952115  0.4900073833830447
  0.4999934566897792  0.1711676518489895  0.7471387986729994
  0.3314471316684617  0.3379002710262853  0.9994119550897551
  0.6696940402316329  0.3330417280277160  0.9996741630157118
  0.8323432518076999  0.4985851747073582  0.2611114071140719
  0.6648763780747160  0.6700445479371240  0.5144435675291277
  0.4980076780456031  0.8297216682407296  0.7509632295636095
  0.8312278677326859  0.8329375634322815  0.2595313288660108
  0.5014392022434393  0.1697372833017852  0.2485975577520350
  0.1703973000508725  0.8291418305686165  0.2477405101332621
  0.5088489856589362  0.5130343462106026  0.2398836816057113
  0.3127291188136923  0.6718570432508457  0.9923024634425488
  0.8490228683556467  0.4980940674154368  0.7682528093378380
  0.6440202634434939  0.6561153808573224  0.0172234825307385
  0.9954819532913106  0.3338594960975243  0.9887642876640115
  0.8407748834699618  0.8257949192121359  0.7665872100700284
  0.9739446097880986  0.6661912099225944  0.9757491062903938
  0.1748706533791520  0.4985794565774739  0.7460443342869212
  0.3310641379265604  0.6689802889609524  0.4917899283895721
  0.1729509344130591  0.8313427005322751  0.7521953986965570
  0.5026714237056495  0.5040659789244799  0.7481569616950452
  0.4996813895382104  0.8376702067137387  0.2569460522310720
  0.3351054597464511  0.0027255999210851  0.4972982343389845
  0.0020812471626925  0.3334913813067644  0.4935749424352238
  0.6679000112538773  0.9997482482641189  0.5053558211305074
  0.0018007609577850  0.9964612036910054  0.4996246981424264
  0.1687283027003659  0.0832017171156778  0.9966774564833543
  0.1686662365527880  0.0800225569916009  0.4983348775232415
  0.1628877548919547  0.4111917131472822  0.9967568228485533
  0.4997070125377121  0.0859491232691028  0.9945488937066713
  0.3308018050051018  0.2505775484422443  0.2427683875515925
  0.1664096242726743  0.4174364744391781  0.4947167898295888
  0.5021342283130679  0.0844412441502129  0.5027531597157235
  0.3365314591890112  0.2498713607744207  0.7523461042426973
  0.1411216063517955  0.7479189696100477  0.0035207707706064
  0.4989757655168816  0.4211908697398457  0.9938257304097462
  0.3408093195950386  0.5898466110211942  0.2449989292288421
  0.1673439046989387  0.7524493056764641  0.5039223467293965
  0.8299099394353249  0.0797759844522048  0.0095092297531920
  0.6701446512616158  0.2474306764480119  0.2472370621834230
  0.5064559772359303  0.4255596056883846  0.4973694953694050
  0.3397881100294171  0.5832355122897965  0.7408579642268194
  0.8342352191246718  0.0780687333912056  0.4978848625807046
  0.6668713907134673  0.2476072758238814  0.7535669601578974
  0.4819623967124684  0.7460012298371410  0.0216712130836711
  0.3329584457383774  0.9198658081625126  0.2566737784136848
  0.8291010238230001  0.4125076393283322  0.0146986642974554
  0.6765607517002792  0.5861114022557530  0.2761153797250557
  0.4889972672532963  0.7528363462265162  0.4962630564530741
  0.3352816773645770  0.9213363736800275  0.7410158649252736
  0.0000592846931369  0.2507606851621915  0.2434714121585202
  0.8347895355202581  0.4159815283047195  0.5131343605577783
  0.6724980374004232  0.5790456225701632  0.7528151323525378
  0.0022241620283623  0.2499124103254502  0.7427736589623350
  0.8106838518525876  0.7477768780436875  0.0221183027011449
  0.6675093799317580  0.9166103525730236  0.2645055155604510
  0.9963991441059150  0.5884887718831990  0.2356393479647210
  0.8324601829209826  0.7493167995080938  0.5109909539718771
  0.6684711939611248  0.9136546976940423  0.7488567919374489
  0.0141819532902474  0.5818564679410372  0.7287310257286279
  0.0044042720251767  0.9154111134430281  0.2531138233343597
  0.0074161447155490  0.9138982303279377  0.7429356967489795
  0.0790375427801280  0.1676791710234014  0.0022155857606094
  0.0798093249236231  0.1673285690295785  0.4959541416887632
  0.0720833244440300  0.5041126837510603  0.9766740414932045
  0.4141420920848446  0.1689400383900761  0.0003744039934119
  0.2473219062934930  0.3395336443425876  0.2481950071434298
  0.0862400427491821  0.4960444883784447  0.4995240808468822
  0.4174932150948862  0.1701366610957820  0.4969960363618995
  0.2539786010086971  0.3326760894294054  0.7401415467485180
  0.0841549538892110  0.8192275645632350  0.9913016971288613
  0.4187292114692340  0.5115880019701180  0.9949141250514089
  0.2428808625613712  0.6626895814229314  0.2543154828936665
  0.0905709687877092  0.8366879653682489  0.4994654366850995
  0.7489791967803043  0.1583623157062917  0.9913267715871967
  0.5829303901618985  0.3401068670948959  0.2496213242019465
  0.4247141367627876  0.5065899330348174  0.4927379823941251
  0.2495180516310640  0.6665716476318480  0.7269632291431449
  0.7491683533781526  0.1643652153579183  0.5089425404696257
  0.5820975843691727  0.3383048241506259  0.7534547690012587
  0.4146550166673677  0.8345076425186519  0.0052751054609672
  0.2488922739841186  0.9955803938466943  0.2500115303629826
  0.7479318123544232  0.5066362589409508  0.9948560846684913
  0.5838758876914767  0.6812120802398312  0.2745432634698375
  0.4181979986223467  0.8313930834093313  0.4992391396628122
  0.2539578883830771  0.9965881556368146  0.7486260264087079
  0.9201192124190740  0.3333446393717665  0.2451674251624567
  0.7565572154150715  0.5046359391574029  0.5201579192931476
  0.5806729037729923  0.6684049460254542  0.7550864157903021
  0.9200266364360914  0.3242428758314233  0.7327811494917569
  0.7398224122743642  0.8256847780607259  0.9991241028093611
  0.5842348504174737  0.9999122102476647  0.2540238553065777
  0.9137516802947019  0.6619485732520403  0.2455608349045093
  0.7512100641093227  0.8310955688954849  0.5203358051034996
  0.5837912403698127  0.0027959629324954  0.7519037502276191
  0.9209722379762084  0.6625518649328797  0.7116833970870076
  0.9190021366610353  0.9987573254015629  0.2494151916148084
  0.9197607638575889  0.9970064284855908  0.7489106163897361
  0.1666405400881459  0.9988110282386060  0.1262997757823285
  0.1684193083059853  0.9981278021511741  0.6229887047082485
  0.1630527022343387  0.3325489929669487  0.1211070080417969
  0.5002809227993978  0.9989241087751992  0.1294388242257227
  0.3343686376220063  0.1686793755197513  0.3716147503065415
  0.1713558382266100  0.3338017025978175  0.6175755065422379
  0.5005358125130144  0.0001809121736258  0.6256931218027830
  0.3280204012833110  0.1710023115959771  0.8754009027887548
  0.1432340830960186  0.6644134204117194  0.1085445040656481
  0.4974448220686227  0.3402492097056466  0.1250945670994170
  0.3383115431950117  0.5036406580591617  0.3651101516863164
  0.1732511604475775  0.6635749220617200  0.6230439846737852
  0.8314330910774146  0.0022099658374586  0.1263315958975681
  0.6670313323475554  0.1650631571128258  0.3777044048850300
  0.5011384946796440  0.3408126152144106  0.6264848273814891
  0.3364113019448070  0.4999053330526877  0.8701531395408253
  0.8351219392823381  0.9917542172196718  0.6297494534112147
  0.6729021966149773  0.1644385390594465  0.8765646613582021
  0.4755309095671336  0.6840722894680482  0.1239843816302155
  0.3370869566189896  0.8403308571810371  0.3763013104540960
  0.8342638843775347  0.3237914702425471  0.1249428687626235
  0.6683938043361479  0.4944590190356308  0.3792676160697255
  0.4942460190118538  0.6663881855072376  0.6243275862632203
  0.3382448571658898  0.8366488287975855  0.8737806094565101
  0.0005610427933860  0.1636088942794913  0.3774636645507314
  0.8363511027707702  0.3345415439126427  0.6268805269038396
  0.6780206748027524  0.4981638570240818  0.8768389698570616
  0.0038299293757689  0.1634594304907324  0.8768384469248431
  0.8160017640547679  0.6713885183156663  0.1323270490586523
  0.6656714348708448  0.8375953665365969  0.3817414206728529
  0.0064494558489656  0.5013503384917541  0.3696174268518817
  0.8377712748495796  0.6628284850018744  0.6287671319494095
  0.6717259565481868  0.8241567621120254  0.8874583391352928
  0.0213326083841849  0.4997882660583173  0.8666734426095672
  0.0032153309909830  0.8357098049935274  0.3718020637572153
  0.0134820262951294  0.8372261099542015  0.8755256055396075
  0.0828006564835277  0.9949063165581578  0.2515427027023804
  0.0865255829000944  0.9971116546284833  0.7459787289988640
  0.0813627765736840  0.3344071047316106  0.2432086374535061
  0.4196405442019113  0.0033072110158727  0.2528740331919721
  0.2527211758925603  0.1683076304452058  0.5039166650722464
  0.0851685848799519  0.3344230047156174  0.7412230474042332
  0.4177591350607415  0.0020019569201466  0.7449139111944802
  0.2472919477027915  0.1616358834484473  0.9917053780553715
  0.0732821149934750  0.6684735377706019  0.2249205710618725
  0.4242572985444610  0.3440854732529743  0.2443281031975459
  0.2529401518237506  0.5057868348178545  0.4983686489398167
  0.0883059609724910  0.6639552076100657  0.7635036652807443
  0.7500279696413088  0.9969792097015855  0.2522013216533310
  0.5845523321065329  0.1666048842422825  0.4981436381521931
  0.4200957493644779  0.3384418002041230  0.7472541484475741
  0.2475098005029110  0.5006712066460608  0.9946198641981496
  0.7522876635891365  0.9955122835728361  0.7541868387417310
  0.5813927900321829  0.1679541595166540  0.9983381823280268
  0.4081739924829577  0.6685742459975188  0.2471244842624145
  0.2555687216266520  0.8371002594113648  0.5076648458179562
  0.7523777997369550  0.3340707273684771  0.2534815734482265
  0.5842964733096991  0.4980894109025442  0.4987997991293653
  0.4096971775858052  0.6647717310301360  0.7424702584136540
  0.2497421926787453  0.8463924566968188  0.9990043691125550
  0.9222502039632232  0.1668372058307028  0.5006140358979536
  0.7532757687915392  0.3308476685914172  0.7491748337973902
  0.5780297472155169  0.4824652356209640  0.9907524029875958
  0.9164927291102529  0.1630641992077102  0.0008050603408165
  0.7480472598178594  0.6660084764393019  0.2536337550368160
  0.5845248189486654  0.8349632191117493  0.5014895022880097
  0.9213624596409247  0.5040604048435355  0.5052529960426781
  0.7530368438086796  0.6623171304937259  0.7799834946666238
  0.5776528508505763  0.8310570809381801  0.0065306688468567
  0.9148074066040834  0.4939144909360564  0.0329644962878177
  0.9180561716751612  0.8296001955377363  0.5127444484920858
  0.9130253912241670  0.8403854804439135  0.0207112011414523
  0.0019555085521290  0.1663487916028004  0.1178046020958448
  0.0020688265076956  0.1633536653051380  0.6154106581590071
  0.9973287897911192  0.5038365950181500  0.1182337254411863
  0.3329271116454535  0.1712607750472515  0.1230726357789038
  0.1679734065460252  0.3331555765946206  0.3699897288333034
  0.0107633041455273  0.4987562359971349  0.6187264913466493
  0.3295176337008670  0.1698856922653889  0.6205867553720736
  0.1653409009004818  0.3337077515010947  0.8713957080565891
  0.9986987369959124  0.8263957717485582  0.1252117484414583
  0.3373954211201919  0.5019045039482961  0.1231690426910461
  0.1700515577939754  0.6648016385078250  0.3674131665802491
  0.0041948640389293  0.8355638139626080  0.6272283156137703
  0.6676785961615437  0.1661866167147465  0.1265152716957445
  0.5023087124645471  0.3410808512050352  0.3652964610782092
  0.3369186520136864  0.5025553710032327  0.6212738794396131
  0.1440182554624414  0.6604275768195365  0.8675438135840352
  0.6714631319245967  0.1636233197604255  0.6274883785649621
  0.4964297670347406  0.3399054692754078  0.8678506805220536
  0.3400717699853502  0.8288552575609387  0.1321273181516673
  0.1680117533391723  0.9981349336394416  0.3768725708119192
  0.6745222112635574  0.4876258375712439  0.1306605911366958
  0.4947438864538753  0.6757094638142860  0.3775175229442809
  0.3297876535750817  0.8384028657811982  0.6197273593619883
  0.1670507556523475  0.9998423783852672  0.8723209829767740
  0.8349158727578327  0.3296636531797930  0.3808523472092062
  0.6750134453374343  0.4972067371473443  0.6378724030569032
  0.4845788702029381  0.6671499166209216  0.8741712698536830
  0.8271846296313825  0.3243087886735836  0.8727919017561589
  0.6641727534957553  0.8277262621541297  0.1331464319325590
  0.5011992433601691  0.0021261595168198  0.3774877754442230
  0.8340820035411838  0.6664690427056925  0.3861773679147547
  0.6735111935702278  0.8379153997619611  0.6375839991508059
  0.4997425679358898  0.9942854297743509  0.8749717644265615
  0.8002100254823432  0.6620826873062597  0.8876554264804213
  0.8343413877054360  0.9990160525499405  0.3829184270427035
  0.8319965846288255  0.9966821696300983  0.8805160205351541
  0.9974586645670485  0.0804165974040103  0.2533024772866170
  0.0041742823582567  0.0779528968542778  0.7441694345053662
  0.0031596978671686  0.4134941832784875  0.2458782703197002
  0.3343935856044951  0.0873662527225321  0.2514813233479529
  0.1673663226663322  0.2546186954574168  0.4897985414478114
  0.0135736489549387  0.4133539183728274  0.7320893116774201
  0.3369599930907654  0.0837213378925270  0.7483125058110858
  0.1630439838205149  0.2488469667145878  0.0033411329671083
  0.0024199289853328  0.7486958125691885  0.2316883964125225
  0.3390696006216203  0.4252747823586063  0.2441803229275337
  0.1715321732168462  0.5802346053051792  0.5012516925670027
  0.0139113305815144  0.7510111808484936  0.7324243181075545
  0.6689830070553100  0.0836613566021640  0.2533310672337166
  0.5030623746987004  0.2527187401136288  0.4956453999441877
  0.3399041395025577  0.4190812217443067  0.7425063714781075
  0.1498868976513847  0.5811437184722621  0.9979037866289815
  0.6639546126049112  0.0814964538363228  0.7518260182794378
  0.4995746219325881  0.2499221421664117  0.9974761387811029
  0.3400011199144686  0.7566388492473592  0.2406294261755377
  0.1667772104009444  0.9162526569626905  0.5026168113856215
  0.6676977963449247  0.4178048643841876  0.2627886625555362
  0.4961136672512652  0.5843619384282306  0.5003195795895934
  0.3358077769556900  0.7499918773805234  0.7402826781518073
  0.1673472381580012  0.9146743599452023  0.9995556423994572
  0.8364992188547120  0.2514933091125329  0.4960235610758019
  0.6737785721990619  0.4185389083884559  0.7438691988511792
  0.4724122374988582  0.5866678665388250  0.9822135029046208
  0.8331900506438430  0.2459873699733066  0.0108348461930703
  0.6629464027917749  0.7500772395944679  0.2548527342965627
  0.5033990440917009  0.9214653147619600  0.5055847324839178
  0.8252796838092564  0.5798364280823733  0.5162375613390893
  0.6683422461837267  0.7484861058470003  0.7673654305739603
  0.4974198692609662  0.9164910812072762  0.0024390874669677
  0.8106999325674948  0.5797688364791895  0.0175857017867429
  0.8353896151881059  0.9151740049514814  0.5133095703056725
  0.8319192257102372  0.9167624334907742  0.0068449941740027
 
  0.00000000E+00  0.00000000E+00  0.00000000E+00
  0.00000000E+00  0.00000000E+00  0.00000000E+00
  0.00000000E+00  0.00000000E+00  0.00000000E+00
  0.00000000E+00  0.00000000E+00  0.00000000E+00
  0.00000000E+00  0.00000000E+00  0.00000000E+00
  0.00000000E+00  0.00000000E+00  0.00000000E+00
  0.00000000E+00  0.00000000E+00  0.00000000E+00
  0.00000000E+00  0.00000000E+00  0.00000000E+00
  0.00000000E+00  0.00000000E+00  0.00000000E+00
  0.00000000E+00  0.00000000E+00  0.00000000E+00
  0.00000000E+00  0.00000000E+00  0.00000000E+00
  0.00000000E+00  0.00000000E+00  0.00000000E+00
  0.00000000E+00  0.00000000E+00  0.00000000E+00
  0.00000000E+00  0.00000000E+00  0.00000000E+00
  0.00000000E+00  0.00000000E+00  0.00000000E+00
  0.00000000E+00  0.00000000E+00  0.00000000E+00
  0.00000000E+00  0.00000000E+00  0.00000000E+00
  0.00000000E+00  0.00000000E+00  0.00000000E+00
  0.00000000E+00  0.00000000E+00  0.00000000E+00
  0.00000000E+00  0.00000000E+00  0.00000000E+00
  0.00000000E+00  0.00000000E+00  0.00000000E+00
  0.00000000E+00  0.00000000E+00  0.00000000E+00
  0.00000000E+00  0.00000000E+00  0.00000000E+00
  0.00000000E+00  0.00000000E+00  0.00000000E+00
  0.00000000E+00  0.00000000E+00  0.00000000E+00
  0.00000000E+00  0.00000000E+00  0.00000000E+00
  0.00000000E+00  0.00000000E+00  0.00000000E+00
  0.00000000E+00  0.00000000E+00  0.00000000E+00
  0.00000000E+00  0.00000000E+00  0.00000000E+00
  0.00000000E+00  0.00000000E+00  0.00000000E+00
  0.00000000E+00  0.00000000E+00  0.00000000E+00
  0.00000000E+00  0.00000000E+00  0.00000000E+00
  0.00000000E+00  0.00000000E+00  0.00000000E+00
  0.00000000E+00  0.00000000E+00  0.00000000E+00
  0.00000000E+00  0.00000000E+00  0.00000000E+00
  0.00000000E+00  0.00000000E+00  0.00000000E+00
  0.00000000E+00  0.00000000E+00  0.00000000E+00
  0.00000000E+00  0.00000000E+00  0.00000000E+00
  0.00000000E+00  0.00000000E+00  0.00000000E+00
  0.00000000E+00  0.00000000E+00  0.00000000E+00
  0.00000000E+00  0.00000000E+00  0.00000000E+00
  0.00000000E+00  0.00000000E+00  0.00000000E+00
  0.00000000E+00  0.00000000E+00  0.00000000E+00
  0.00000000E+00  0.00000000E+00  0.00000000E+00
  0.00000000E+00  0.00000000E+00  0.00000000E+00
  0.00000000E+00  0.00000000E+00  0.00000000E+00
  0.00000000E+00  0.00000000E+00  0.00000000E+00
  0.00000000E+00  0.00000000E+00  0.00000000E+00
  0.00000000E+00  0.00000000E+00  0.00000000E+00
  0.00000000E+00  0.00000000E+00  0.00000000E+00
  0.00000000E+00  0.00000000E+00  0.00000000E+00
  0.00000000E+00  0.00000000E+00  0.00000000E+00
  0.00000000E+00  0.00000000E+00  0.00000000E+00
  0.00000000E+00  0.00000000E+00  0.00000000E+00
  0.00000000E+00  0.00000000E+00  0.00000000E+00
  0.00000000E+00  0.00000000E+00  0.00000000E+00
  0.00000000E+00  0.00000000E+00  0.00000000E+00
  0.00000000E+00  0.00000000E+00  0.00000000E+00
  0.00000000E+00  0.00000000E+00  0.00000000E+00
  0.00000000E+00  0.00000000E+00  0.00000000E+00
  0.00000000E+00  0.00000000E+00  0.00000000E+00
  0.00000000E+00  0.00000000E+00  0.00000000E+00
  0.00000000E+00  0.00000000E+00  0.00000000E+00
  0.00000000E+00  0.00000000E+00  0.00000000E+00
  0.00000000E+00  0.00000000E+00  0.00000000E+00
  0.00000000E+00  0.00000000E+00  0.00000000E+00
  0.00000000E+00  0.00000000E+00  0.00000000E+00
  0.00000000E+00  0.00000000E+00  0.00000000E+00
  0.00000000E+00  0.00000000E+00  0.00000000E+00
  0.00000000E+00  0.00000000E+00  0.00000000E+00
  0.00000000E+00  0.00000000E+00  0.00000000E+00
  0.00000000E+00  0.00000000E+00  0.00000000E+00
  0.00000000E+00  0.00000000E+00  0.00000000E+00
  0.00000000E+00  0.00000000E+00  0.00000000E+00
  0.00000000E+00  0.00000000E+00  0.00000000E+00
  0.00000000E+00  0.00000000E+00  0.00000000E+00
  0.00000000E+00  0.00000000E+00  0.00000000E+00
  0.00000000E+00  0.00000000E+00  0.00000000E+00
  0.00000000E+00  0.00000000E+00  0.00000000E+00
  0.00000000E+00  0.00000000E+00  0.00000000E+00
  0.00000000E+00  0.00000000E+00  0.00000000E+00
  0.00000000E+00  0.00000000E+00  0.00000000E+00
  0.00000000E+00  0.00000000E+00  0.00000000E+00
  0.00000000E+00  0.00000000E+00  0.00000000E+00
  0.00000000E+00  0.00000000E+00  0.00000000E+00
  0.00000000E+00  0.00000000E+00  0.00000000E+00
  0.00000000E+00  0.00000000E+00  0.00000000E+00
  0.00000000E+00  0.00000000E+00  0.00000000E+00
  0.00000000E+00  0.00000000E+00  0.00000000E+00
  0.00000000E+00  0.00000000E+00  0.00000000E+00
  0.00000000E+00  0.00000000E+00  0.00000000E+00
  0.00000000E+00  0.00000000E+00  0.00000000E+00
  0.00000000E+00  0.00000000E+00  0.00000000E+00
  0.00000000E+00  0.00000000E+00  0.00000000E+00
  0.00000000E+00  0.00000000E+00  0.00000000E+00
  0.00000000E+00  0.00000000E+00  0.00000000E+00
  0.00000000E+00  0.00000000E+00  0.00000000E+00
  0.00000000E+00  0.00000000E+00  0.00000000E+00
  0.00000000E+00  0.00000000E+00  0.00000000E+00
  0.00000000E+00  0.00000000E+00  0.00000000E+00
  0.00000000E+00  0.00000000E+00  0.00000000E+00
  0.00000000E+00  0.00000000E+00  0.00000000E+00
  0.00000000E+00  0.00000000E+00  0.00000000E+00
  0.00000000E+00  0.00000000E+00  0.00000000E+00
  0.00000000E+00  0.00000000E+00  0.00000000E+00
  0.00000000E+00  0.00000000E+00  0.00000000E+00
  0.00000000E+00  0.00000000E+00  0.00000000E+00
  0.00000000E+00  0.00000000E+00  0.00000000E+00
  0.00000000E+00  0.00000000E+00  0.00000000E+00
  0.00000000E+00  0.00000000E+00  0.00000000E+00
  0.00000000E+00  0.00000000E+00  0.00000000E+00
  0.00000000E+00  0.00000000E+00  0.00000000E+00
  0.00000000E+00  0.00000000E+00  0.00000000E+00
  0.00000000E+00  0.00000000E+00  0.00000000E+00
  0.00000000E+00  0.00000000E+00  0.00000000E+00
  0.00000000E+00  0.00000000E+00  0.00000000E+00
  0.00000000E+00  0.00000000E+00  0.00000000E+00
  0.00000000E+00  0.00000000E+00  0.00000000E+00
  0.00000000E+00  0.00000000E+00  0.00000000E+00
  0.00000000E+00  0.00000000E+00  0.00000000E+00
  0.00000000E+00  0.00000000E+00  0.00000000E+00
  0.00000000E+00  0.00000000E+00  0.00000000E+00
  0.00000000E+00  0.00000000E+00  0.00000000E+00
  0.00000000E+00  0.00000000E+00  0.00000000E+00
  0.00000000E+00  0.00000000E+00  0.00000000E+00
  0.00000000E+00  0.00000000E+00  0.00000000E+00
  0.00000000E+00  0.00000000E+00  0.00000000E+00
  0.00000000E+00  0.00000000E+00  0.00000000E+00
  0.00000000E+00  0.00000000E+00  0.00000000E+00
  0.00000000E+00  0.00000000E+00  0.00000000E+00
  0.00000000E+00  0.00000000E+00  0.00000000E+00
  0.00000000E+00  0.00000000E+00  0.00000000E+00
  0.00000000E+00  0.00000000E+00  0.00000000E+00
  0.00000000E+00  0.00000000E+00  0.00000000E+00
  0.00000000E+00  0.00000000E+00  0.00000000E+00
  0.00000000E+00  0.00000000E+00  0.00000000E+00
  0.00000000E+00  0.00000000E+00  0.00000000E+00
  0.00000000E+00  0.00000000E+00  0.00000000E+00
  0.00000000E+00  0.00000000E+00  0.00000000E+00
  0.00000000E+00  0.00000000E+00  0.00000000E+00
  0.00000000E+00  0.00000000E+00  0.00000000E+00
  0.00000000E+00  0.00000000E+00  0.00000000E+00
  0.00000000E+00  0.00000000E+00  0.00000000E+00
  0.00000000E+00  0.00000000E+00  0.00000000E+00
  0.00000000E+00  0.00000000E+00  0.00000000E+00
  0.00000000E+00  0.00000000E+00  0.00000000E+00
  0.00000000E+00  0.00000000E+00  0.00000000E+00
  0.00000000E+00  0.00000000E+00  0.00000000E+00
  0.00000000E+00  0.00000000E+00  0.00000000E+00
  0.00000000E+00  0.00000000E+00  0.00000000E+00
  0.00000000E+00  0.00000000E+00  0.00000000E+00
  0.00000000E+00  0.00000000E+00  0.00000000E+00
  0.00000000E+00  0.00000000E+00  0.00000000E+00
  0.00000000E+00  0.00000000E+00  0.00000000E+00
  0.00000000E+00  0.00000000E+00  0.00000000E+00
  0.00000000E+00  0.00000000E+00  0.00000000E+00
  0.00000000E+00  0.00000000E+00  0.00000000E+00
  0.00000000E+00  0.00000000E+00  0.00000000E+00
  0.00000000E+00  0.00000000E+00  0.00000000E+00
  0.00000000E+00  0.00000000E+00  0.00000000E+00
  0.00000000E+00  0.00000000E+00  0.00000000E+00
  0.00000000E+00  0.00000000E+00  0.00000000E+00
  0.00000000E+00  0.00000000E+00  0.00000000E+00
  0.00000000E+00  0.00000000E+00  0.00000000E+00
  0.00000000E+00  0.00000000E+00  0.00000000E+00
  0.00000000E+00  0.00000000E+00  0.00000000E+00
  0.00000000E+00  0.00000000E+00  0.00000000E+00
  0.00000000E+00  0.00000000E+00  0.00000000E+00
  0.00000000E+00  0.00000000E+00  0.00000000E+00
  0.00000000E+00  0.00000000E+00  0.00000000E+00
  0.00000000E+00  0.00000000E+00  0.00000000E+00
  0.00000000E+00  0.00000000E+00  0.00000000E+00
  0.00000000E+00  0.00000000E+00  0.00000000E+00
  0.00000000E+00  0.00000000E+00  0.00000000E+00
  0.00000000E+00  0.00000000E+00  0.00000000E+00
  0.00000000E+00  0.00000000E+00  0.00000000E+00
  0.00000000E+00  0.00000000E+00  0.00000000E+00
  0.00000000E+00  0.00000000E+00  0.00000000E+00
  0.00000000E+00  0.00000000E+00  0.00000000E+00
  0.00000000E+00  0.00000000E+00  0.00000000E+00
  0.00000000E+00  0.00000000E+00  0.00000000E+00
  0.00000000E+00  0.00000000E+00  0.00000000E+00
  0.00000000E+00  0.00000000E+00  0.00000000E+00
  0.00000000E+00  0.00000000E+00  0.00000000E+00
  0.00000000E+00  0.00000000E+00  0.00000000E+00
  0.00000000E+00  0.00000000E+00  0.00000000E+00
  0.00000000E+00  0.00000000E+00  0.00000000E+00
  0.00000000E+00  0.00000000E+00  0.00000000E+00
  0.00000000E+00  0.00000000E+00  0.00000000E+00
  0.00000000E+00  0.00000000E+00  0.00000000E+00
  0.00000000E+00  0.00000000E+00  0.00000000E+00
  0.00000000E+00  0.00000000E+00  0.00000000E+00
  0.00000000E+00  0.00000000E+00  0.00000000E+00
  0.00000000E+00  0.00000000E+00  0.00000000E+00
  0.00000000E+00  0.00000000E+00  0.00000000E+00
  0.00000000E+00  0.00000000E+00  0.00000000E+00
  0.00000000E+00  0.00000000E+00  0.00000000E+00
  0.00000000E+00  0.00000000E+00  0.00000000E+00
  0.00000000E+00  0.00000000E+00  0.00000000E+00
  0.00000000E+00  0.00000000E+00  0.00000000E+00
  0.00000000E+00  0.00000000E+00  0.00000000E+00
  0.00000000E+00  0.00000000E+00  0.00000000E+00
  0.00000000E+00  0.00000000E+00  0.00000000E+00
  0.00000000E+00  0.00000000E+00  0.00000000E+00
  0.00000000E+00  0.00000000E+00  0.00000000E+00
  0.00000000E+00  0.00000000E+00  0.00000000E+00
  0.00000000E+00  0.00000000E+00  0.00000000E+00
  0.00000000E+00  0.00000000E+00  0.00000000E+00
  0.00000000E+00  0.00000000E+00  0.00000000E+00
  0.00000000E+00  0.00000000E+00  0.00000000E+00
  0.00000000E+00  0.00000000E+00  0.00000000E+00
  0.00000000E+00  0.00000000E+00  0.00000000E+00
  0.00000000E+00  0.00000000E+00  0.00000000E+00
  0.00000000E+00  0.00000000E+00  0.00000000E+00
  0.00000000E+00  0.00000000E+00  0.00000000E+00
  0.00000000E+00  0.00000000E+00  0.00000000E+00
  0.00000000E+00  0.00000000E+00  0.00000000E+00
  0.00000000E+00  0.00000000E+00  0.00000000E+00
  0.00000000E+00  0.00000000E+00  0.00000000E+00
  0.00000000E+00  0.00000000E+00  0.00000000E+00
  0.00000000E+00  0.00000000E+00  0.00000000E+00
  0.00000000E+00  0.00000000E+00  0.00000000E+00
  0.00000000E+00  0.00000000E+00  0.00000000E+00
  0.00000000E+00  0.00000000E+00  0.00000000E+00
  0.00000000E+00  0.00000000E+00  0.00000000E+00
  0.00000000E+00  0.00000000E+00  0.00000000E+00
  0.00000000E+00  0.00000000E+00  0.00000000E+00
  0.00000000E+00  0.00000000E+00  0.00000000E+00
  0.00000000E+00  0.00000000E+00  0.00000000E+00
  0.00000000E+00  0.00000000E+00  0.00000000E+00
  0.00000000E+00  0.00000000E+00  0.00000000E+00
  0.00000000E+00  0.00000000E+00  0.00000000E+00
  0.00000000E+00  0.00000000E+00  0.00000000E+00
  0.00000000E+00  0.00000000E+00  0.00000000E+00
  0.00000000E+00  0.00000000E+00  0.00000000E+00
  0.00000000E+00  0.00000000E+00  0.00000000E+00
  0.00000000E+00  0.00000000E+00  0.00000000E+00
  0.00000000E+00  0.00000000E+00  0.00000000E+00
  0.00000000E+00  0.00000000E+00  0.00000000E+00
  0.00000000E+00  0.00000000E+00  0.00000000E+00
  0.00000000E+00  0.00000000E+00  0.00000000E+00
  0.00000000E+00  0.00000000E+00  0.00000000E+00
  0.00000000E+00  0.00000000E+00  0.00000000E+00
  0.00000000E+00  0.00000000E+00  0.00000000E+00
  0.00000000E+00  0.00000000E+00  0.00000000E+00
  0.00000000E+00  0.00000000E+00  0.00000000E+00
  0.00000000E+00  0.00000000E+00  0.00000000E+00
  0.00000000E+00  0.00000000E+00  0.00000000E+00
  0.00000000E+00  0.00000000E+00  0.00000000E+00
  0.00000000E+00  0.00000000E+00  0.00000000E+00
  0.00000000E+00  0.00000000E+00  0.00000000E+00
  0.00000000E+00  0.00000000E+00  0.00000000E+00
