generated by phonopy                    
   1.00000000000000     
     0.0000000000000000    3.3386983430030375    3.3386983430031254
     3.3386983430030717    0.0000000000000000    3.3386983430031254
     3.3386983430030717    3.3386983430030375    0.0000000000000000
   Sc   Ce   Y    Zr   H 
     1     1     1     1    24
Direct
  0.2500000000000000  0.2500000000000000  0.2500000000000000
  0.7500000000000000  0.7500000000000000  0.7500000000000000
  0.0000000000000000  0.0000000000000000  0.0000000000000000
  0.5000000000000000  0.5000000000000000  0.5000000000000000
  0.1302051096315395  0.8863752124746327  0.6128014508891937
  0.8863752124746327  0.1302051096315395  0.3706182270046341
  0.6128014508891937  0.3706182270046341  0.1302051096315395
  0.3706182270046341  0.6128014508891937  0.8863752124746327
  0.6128014508891937  0.1302051096315395  0.8863752124746327
  0.3706182270046341  0.8863752124746327  0.1302051096315395
  0.1302051096315395  0.6128014508891937  0.3706182270046341
  0.8863752124746327  0.3706182270046341  0.6128014508891937
  0.8863752124746327  0.6128014508891937  0.1302051096315395
  0.1302051096315395  0.3706182270046341  0.8863752124746327
  0.3706182270046341  0.1302051096315395  0.6128014508891937
  0.6128014508891937  0.8863752124746327  0.3706182270046341
  0.1302051096315395  0.3706182270046341  0.6128014508891937
  0.3706182270046341  0.1302051096315395  0.8863752124746327
  0.6128014508891937  0.8863752124746327  0.1302051096315395
  0.8863752124746327  0.6128014508891937  0.3706182270046341
  0.6128014508891937  0.1302051096315395  0.3706182270046341
  0.8863752124746327  0.3706182270046341  0.1302051096315395
  0.1302051096315395  0.6128014508891937  0.8863752124746327
  0.3706182270046341  0.8863752124746327  0.6128014508891937
  0.3706182270046341  0.6128014508891937  0.1302051096315395
  0.1302051096315395  0.8863752124746327  0.3706182270046341
  0.8863752124746327  0.1302051096315395  0.6128014508891937
  0.6128014508891937  0.3706182270046341  0.8863752124746327
 
  0.00000000E+00  0.00000000E+00  0.00000000E+00
  0.00000000E+00  0.00000000E+00  0.00000000E+00
  0.00000000E+00  0.00000000E+00  0.00000000E+00
  0.00000000E+00  0.00000000E+00  0.00000000E+00
  0.00000000E+00  0.00000000E+00  0.00000000E+00
  0.00000000E+00  0.00000000E+00  0.00000000E+00
  0.00000000E+00  0.00000000E+00  0.00000000E+00
  0.00000000E+00  0.00000000E+00  0.00000000E+00
  0.00000000E+00  0.00000000E+00  0.00000000E+00
  0.00000000E+00  0.00000000E+00  0.00000000E+00
  0.00000000E+00  0.00000000E+00  0.00000000E+00
  0.00000000E+00  0.00000000E+00  0.00000000E+00
  0.00000000E+00  0.00000000E+00  0.00000000E+00
  0.00000000E+00  0.00000000E+00  0.00000000E+00
  0.00000000E+00  0.00000000E+00  0.00000000E+00
  0.00000000E+00  0.00000000E+00  0.00000000E+00
  0.00000000E+00  0.00000000E+00  0.00000000E+00
  0.00000000E+00  0.00000000E+00  0.00000000E+00
  0.00000000E+00  0.00000000E+00  0.00000000E+00
  0.00000000E+00  0.00000000E+00  0.00000000E+00
  0.00000000E+00  0.00000000E+00  0.00000000E+00
  0.00000000E+00  0.00000000E+00  0.00000000E+00
  0.00000000E+00  0.00000000E+00  0.00000000E+00
  0.00000000E+00  0.00000000E+00  0.00000000E+00
  0.00000000E+00  0.00000000E+00  0.00000000E+00
  0.00000000E+00  0.00000000E+00  0.00000000E+00
  0.00000000E+00  0.00000000E+00  0.00000000E+00
  0.00000000E+00  0.00000000E+00  0.00000000E+00
