generated by phonopy                    
   1.00000000000000     
     0.0000000000000000    3.3790499071474427    3.3790499071475248
     3.3790499071474791    0.0000000000000000    3.3790499071475248
     3.3790499071474791    3.3790499071474427    0.0000000000000000
   Ca   Y    Zr   Th   H 
     1     1     1     1    24
Direct
  0.2500000000000000  0.2500000000000000  0.2500000000000000
  0.7500000000000000  0.7500000000000000  0.7500000000000000
  0.0000000000000000  0.0000000000000000  0.0000000000000000
  0.5000000000000000  0.5000000000000000  0.5000000000000000
  0.1222859663487981  0.8873500587825660  0.6254653844976090
  0.8873500587825660  0.1222859663487981  0.3648985903710340
  0.6254653844976090  0.3648985903710340  0.1222859663487981
  0.3648985903710340  0.6254653844976090  0.8873500587825660
  0.6254653844976090  0.1222859663487981  0.8873500587825660
  0.3648985903710340  0.8873500587825660  0.1222859663487981
  0.1222859663487981  0.6254653844976090  0.3648985903710340
  0.8873500587825660  0.3648985903710340  0.6254653844976090
  0.8873500587825660  0.6254653844976090  0.1222859663487981
  0.1222859663487981  0.3648985903710340  0.8873500587825660
  0.3648985903710340  0.1222859663487981  0.6254653844976090
  0.6254653844976090  0.8873500587825660  0.3648985903710340
  0.1222859663487981  0.3648985903710340  0.6254653844976090
  0.3648985903710340  0.1222859663487981  0.8873500587825660
  0.6254653844976090  0.8873500587825660  0.1222859663487981
  0.8873500587825660  0.6254653844976090  0.3648985903710340
  0.6254653844976090  0.1222859663487981  0.3648985903710340
  0.8873500587825660  0.3648985903710340  0.1222859663487981
  0.1222859663487981  0.6254653844976090  0.8873500587825660
  0.3648985903710340  0.8873500587825660  0.6254653844976090
  0.3648985903710340  0.6254653844976090  0.1222859663487981
  0.1222859663487981  0.8873500587825660  0.3648985903710340
  0.8873500587825660  0.1222859663487981  0.6254653844976090
  0.6254653844976090  0.3648985903710340  0.8873500587825660
 
  0.00000000E+00  0.00000000E+00  0.00000000E+00
  0.00000000E+00  0.00000000E+00  0.00000000E+00
  0.00000000E+00  0.00000000E+00  0.00000000E+00
  0.00000000E+00  0.00000000E+00  0.00000000E+00
  0.00000000E+00  0.00000000E+00  0.00000000E+00
  0.00000000E+00  0.00000000E+00  0.00000000E+00
  0.00000000E+00  0.00000000E+00  0.00000000E+00
  0.00000000E+00  0.00000000E+00  0.00000000E+00
  0.00000000E+00  0.00000000E+00  0.00000000E+00
  0.00000000E+00  0.00000000E+00  0.00000000E+00
  0.00000000E+00  0.00000000E+00  0.00000000E+00
  0.00000000E+00  0.00000000E+00  0.00000000E+00
  0.00000000E+00  0.00000000E+00  0.00000000E+00
  0.00000000E+00  0.00000000E+00  0.00000000E+00
  0.00000000E+00  0.00000000E+00  0.00000000E+00
  0.00000000E+00  0.00000000E+00  0.00000000E+00
  0.00000000E+00  0.00000000E+00  0.00000000E+00
  0.00000000E+00  0.00000000E+00  0.00000000E+00
  0.00000000E+00  0.00000000E+00  0.00000000E+00
  0.00000000E+00  0.00000000E+00  0.00000000E+00
  0.00000000E+00  0.00000000E+00  0.00000000E+00
  0.00000000E+00  0.00000000E+00  0.00000000E+00
  0.00000000E+00  0.00000000E+00  0.00000000E+00
  0.00000000E+00  0.00000000E+00  0.00000000E+00
  0.00000000E+00  0.00000000E+00  0.00000000E+00
  0.00000000E+00  0.00000000E+00  0.00000000E+00
  0.00000000E+00  0.00000000E+00  0.00000000E+00
  0.00000000E+00  0.00000000E+00  0.00000000E+00
