generated by phonopy                    
   1.00000000000000     
     0.0000000000000000    3.2978713762124223    3.2978713762125698
     3.2978713762124818    0.0000000000000000    3.2978713762125698
     3.2978713762124818    3.2978713762124223    0.0000000000000000
   Na   Zr   K    Ca   H 
     1     1     1     1    24
Direct
  0.2500000000000000  0.2500000000000000  0.2500000000000000
  0.7500000000000000  0.7500000000000000  0.7500000000000000
  0.0000000000000000  0.0000000000000000  0.0000000000000000
  0.5000000000000000  0.5000000000000000  0.5000000000000000
  0.1409375863003746  0.8865430665853609  0.6115257905835492
  0.8865430665853609  0.1409375863003746  0.3609935565307083
  0.6115257905835492  0.3609935565307083  0.1409375863003746
  0.3609935565307083  0.6115257905835492  0.8865430665853609
  0.6115257905835492  0.1409375863003746  0.8865430665853609
  0.3609935565307083  0.8865430665853609  0.1409375863003746
  0.1409375863003746  0.6115257905835492  0.3609935565307083
  0.8865430665853609  0.3609935565307083  0.6115257905835492
  0.8865430665853609  0.6115257905835492  0.1409375863003746
  0.1409375863003746  0.3609935565307083  0.8865430665853609
  0.3609935565307083  0.1409375863003746  0.6115257905835492
  0.6115257905835492  0.8865430665853609  0.3609935565307083
  0.1409375863003746  0.3609935565307083  0.6115257905835492
  0.3609935565307083  0.1409375863003746  0.8865430665853609
  0.6115257905835492  0.8865430665853609  0.1409375863003746
  0.8865430665853609  0.6115257905835492  0.3609935565307083
  0.6115257905835492  0.1409375863003746  0.3609935565307083
  0.8865430665853609  0.3609935565307083  0.1409375863003746
  0.1409375863003746  0.6115257905835492  0.8865430665853609
  0.3609935565307083  0.8865430665853609  0.6115257905835492
  0.3609935565307083  0.6115257905835492  0.1409375863003746
  0.1409375863003746  0.8865430665853609  0.3609935565307083
  0.8865430665853609  0.1409375863003746  0.6115257905835492
  0.6115257905835492  0.3609935565307083  0.8865430665853609
 
  0.00000000E+00  0.00000000E+00  0.00000000E+00
  0.00000000E+00  0.00000000E+00  0.00000000E+00
  0.00000000E+00  0.00000000E+00  0.00000000E+00
  0.00000000E+00  0.00000000E+00  0.00000000E+00
  0.00000000E+00  0.00000000E+00  0.00000000E+00
  0.00000000E+00  0.00000000E+00  0.00000000E+00
  0.00000000E+00  0.00000000E+00  0.00000000E+00
  0.00000000E+00  0.00000000E+00  0.00000000E+00
  0.00000000E+00  0.00000000E+00  0.00000000E+00
  0.00000000E+00  0.00000000E+00  0.00000000E+00
  0.00000000E+00  0.00000000E+00  0.00000000E+00
  0.00000000E+00  0.00000000E+00  0.00000000E+00
  0.00000000E+00  0.00000000E+00  0.00000000E+00
  0.00000000E+00  0.00000000E+00  0.00000000E+00
  0.00000000E+00  0.00000000E+00  0.00000000E+00
  0.00000000E+00  0.00000000E+00  0.00000000E+00
  0.00000000E+00  0.00000000E+00  0.00000000E+00
  0.00000000E+00  0.00000000E+00  0.00000000E+00
  0.00000000E+00  0.00000000E+00  0.00000000E+00
  0.00000000E+00  0.00000000E+00  0.00000000E+00
  0.00000000E+00  0.00000000E+00  0.00000000E+00
  0.00000000E+00  0.00000000E+00  0.00000000E+00
  0.00000000E+00  0.00000000E+00  0.00000000E+00
  0.00000000E+00  0.00000000E+00  0.00000000E+00
  0.00000000E+00  0.00000000E+00  0.00000000E+00
  0.00000000E+00  0.00000000E+00  0.00000000E+00
  0.00000000E+00  0.00000000E+00  0.00000000E+00
  0.00000000E+00  0.00000000E+00  0.00000000E+00
