POSCAR                                  
   1.00000000000000     
    10.0860944613430394   -0.0451647783728422   -0.0224203561735254
    -0.0448686365612571   10.0781467851905191   -0.0818810320245322
    -0.0148362107844306   -0.0544583702946616    6.7147133102405734
   Y    Hf   K    Sc   H 
     9     9     9     9   216
Direct
  0.1689287926434915  0.1687649527411423  0.2523108836737080
  0.1678632941152074  0.8322231427798812  0.7544775237588581
  0.8313651766500314  0.1753069827714526  0.2441868702268053
  0.6620563692093882  0.3296560959124832  0.4927725603667170
  0.4997105997654572  0.8266274285255122  0.7582265776607500
  0.9960789426599490  0.3362906848805522  0.9970571179839709
  0.8359202142379445  0.8291135495790058  0.7636671952443308
  0.9982143951725391  0.6609822190857031  0.0107330195364455
  0.0038282709286293  0.0008140819878477  0.9943785514800467
  0.1626731014445397  0.1627306022558059  0.7421726208452455
  0.1721175868356255  0.4988317122123931  0.7548351114266580
  0.5026509301526048  0.1656130544171361  0.7484161415393444
  0.3369595540181436  0.3307142737533937  0.9975131536368025
  0.3304211904371925  0.6579032426708125  0.4989588275123253
  0.8265161539429613  0.1615536004368536  0.7425147542998758
  0.3315897009859015  0.9994576924612488  0.5014560661235947
  0.6679123652310182  0.6610860188866496  0.5033077710864546
  0.9961988145125105  0.3363614185568480  0.4996593122043009
  0.1715822412978127  0.5023229412275612  0.2516233195170088
  0.4980696355346410  0.1762792167423513  0.2563739256195845
  0.3314527675801031  0.3326032050306011  0.4893882986997511
  0.5136868306957894  0.8397952163804661  0.2597232803516931
  0.8337395869394157  0.5108964942733536  0.2428068113017048
  0.6624385913776223  0.6703582065907554  0.0150239945115160
  0.8439194523596427  0.8501688441383735  0.2712309482292312
  0.6556173402853531  0.9844953394666618  0.4763934462922208
  0.9888582283593621  0.9834716694074146  0.4849406538261363
  0.1752452436413776  0.8296251002382320  0.2485911891925880
  0.5006670911847451  0.5041580507846604  0.2440617498262228
  0.5003610230298960  0.5011603994322158  0.7561996379039755
  0.3377015644864940  0.6730754812068085  0.0043212993848130
  0.6659266868866851  0.3397378989830244  0.9942035269943617
  0.3359786896744481  0.9986597060698656  0.0000858717938215
  0.8258421370013735  0.5030046628851181  0.7458555854870212
  0.0063997580408852  0.6652412563154328  0.5055385015749607
  0.6632973061062728  0.0016516211729609  0.9939867871303676
  0.1763661634138600  0.0808686585074341  0.0031968872728285
  0.1546156742902909  0.0734344305830916  0.4944502850421983
  0.1735718393665806  0.4170592205490493  0.0019379879713952
  0.5001918539587464  0.0868637890450543  0.0049154895421424
  0.3353475988241641  0.2524412261097311  0.2358558083225901
  0.1621896165387824  0.4168856541358394  0.5022065774146185
  0.5005567703432234  0.0805313533168359  0.4916302314763286
  0.3332657461796487  0.2496409009445983  0.7433733386710628
  0.1731796767830929  0.7500238405308153  0.0091484029786599
  0.5013803141116782  0.4201959600308314  0.9936910236749767
  0.3398831834044103  0.5839684835737984  0.2334868593499024
  0.1730138261462741  0.7500576516445534  0.4975320646834049
  0.8227122141978001  0.0853352618007150  0.9983767160527464
  0.6623279144674825  0.2572630896202952  0.2265879389762517
  0.4986905556979835  0.4161672224672017  0.5128111730413210
  0.3393772703473346  0.5798741278379964  0.7715091425968126
  0.8263834184731564  0.0760202999617690  0.4859189557445660
  0.6657131290758613  0.2542049028712157  0.7544414661646783
  0.4943466543107959  0.7513682700967195  0.0136407442075210
  0.3390610414307318  0.9164956403963842  0.2460747914194243
  0.8253750735301750  0.4196853381892751  0.9871198060768194
  0.6620983026950711  0.5784805490699227  0.2531305002222268
  0.4854658869596093  0.7477485770521213  0.4954292734324213
  0.3362074526316050  0.9166479234682186  0.7547974065505656
  0.0022525038384416  0.2526327535976449  0.2507266800774843
  0.8302162063358409  0.4222393359326304  0.5005105594233754
  0.6634097550070805  0.5796490027672618  0.7631287407128085
  0.9938937758639810  0.2501923531570540  0.7426011215983337
  0.8280964421448616  0.7586238485216938  0.0225490388026444
  0.6833368493523579  0.9239334802627184  0.2130514178648326
  0.0057710902555996  0.5838138302264895  0.2709207759196985
  0.8518647543447742  0.7476705544093107  0.4971889197752191
  0.6693772158164180  0.9126779071120481  0.7358883975001191
  0.9954504762311416  0.5786113788933633  0.7424811595445888
  0.0221592509216819  0.9111191772429308  0.2352906612649122
  0.0019624093681117  0.9154899584061624  0.7407182385312652
  0.0845300187332683  0.1696295569068980  0.9942747701106569
  0.0748938511587625  0.1523359408755169  0.4992836924034023
  0.0882663666928778  0.5002752861392565  0.9984323868082683
  0.4196597675187448  0.1630846659255525  0.9983912463055162
  0.2510770134737044  0.3395319591787711  0.2374201111444734
  0.0815970871955116  0.5056193810288292  0.5031409077571283
  0.4133959600324104  0.1650892833656243  0.5081901188209628
  0.2519879123162312  0.3307048731192168  0.7435142363150291
  0.0904282384248134  0.8267977729064597  0.0132165975610548
  0.4193594132372453  0.4940020881964884  0.9964751606387878
  0.2527880011951353  0.6709106261023763  0.2511444023764327
  0.0857863391110811  0.8262873640502661  0.4976421761226248
  0.7413309474521981  0.1686683429366198  0.9921386892614379
  0.5839088790762759  0.3432914338545672  0.2322006124520328
  0.4180949810869805  0.5007000264091772  0.5075953389952801
  0.2527109257273636  0.6644743713469552  0.7577316773108933
  0.7422239185786168  0.1564088293101662  0.4995462625533449
  0.5831406528702132  0.3385706870762988  0.7529223981147624
  0.4197761779430920  0.8443886146425612  0.0158157117773783
  0.2533582360052833  0.9952613095905321  0.2421221319211213
  0.7451969136668595  0.5002011593117359  0.9925746136956732
  0.5761898699627181  0.6640545373860078  0.2637643225387762
  0.4201305131586608  0.8211086802163692  0.4952219406600520
  0.2530916603126840  0.0006055844248607  0.7512862017430422
  0.9138421030059192  0.3444762899985321  0.2540917194430961
  0.7503467577189369  0.4971369695020513  0.4959133784678045
  0.5820264667452619  0.6572610297208783  0.7537566226034826
  0.9090282364012197  0.3407531899725029  0.7443372319173136
  0.7583333009743143  0.8286886336342150  0.0207439626136008
  0.5810925036605710  0.0144716130287463  0.2186781358503680
  0.9220516565315364  0.6810007854345272  0.2676705812537605
  0.7529888131396802  0.8251013604593567  0.5091990530119546
  0.5831629716846152  0.9995412041485423  0.7462505983948802
  0.9174477361350455  0.6581689094237433  0.7455158184625361
  0.9172064465204244  0.0146838199803483  0.2315531685763617
  0.9139964858851997  0.0034376465237642  0.7413209249233290
  0.1767609293678589  0.9982312701542213  0.1251513895298757
  0.1610131870366800  0.9979209709619710  0.6151509487609630
  0.1665768010289668  0.3359218306709053  0.1270506044157997
  0.5015826581811496  0.0057860960420584  0.1282331975808333
  0.3346443885960610  0.1567559623214407  0.3772287051808760
  0.1673424875863958  0.3318763827093107  0.6256480297774019
  0.4963231081417376  0.9965440820550882  0.6283727358773632
  0.3311883536244835  0.1600037776217107  0.8740204756764811
  0.1749759508551776  0.6691566816047683  0.1298895094219006
  0.5058165540360022  0.3414998658137378  0.1209248133997036
  0.3441752239929485  0.4972003588435285  0.3642747432100961
  0.1662206659404291  0.6646134123424758  0.6296632003680429
  0.8322238411293625  0.0058942575007279  0.1176489762580175
  0.6672148845410817  0.1538223881304077  0.3632623171676244
  0.4957758008720816  0.3448848551301680  0.6228434935778253
  0.3421033315541422  0.5077277944255201  0.8819555743680780
  0.8228415167347762  0.9912031072968759  0.6144483569825567
  0.6658204177060512  0.1656027376755773  0.8778936946799405
  0.4932183273210029  0.6671027418449782  0.1338414737976379
  0.3376976561847869  0.8351839791671267  0.3690319389392798
  0.8242860215937213  0.3438495134443968  0.1182750819360123
  0.6634020680965875  0.4977849019129934  0.3701892315856199
  0.4959948132964911  0.6555746046657660  0.6266306494335581
  0.3334084064182150  0.8350293191864253  0.8833006933533909
  0.0014326668693059  0.1589143579547851  0.3766603475005681
  0.8296605945527133  0.3407396860463692  0.6282439949252989
  0.6621293605521785  0.5033628996764108  0.8740850230072255
  0.9950417429125906  0.1685717595089073  0.8692812745580980
  0.8290946056659720  0.6815881952513934  0.1440065874920933
  0.6807512167212764  0.8119499675933994  0.3793765271333740
  0.0017013702649606  0.5064629546180655  0.3781527671294711
  0.8346003728771407  0.6636302922851058  0.6281156757189947
  0.6697170945181909  0.8353980164865007  0.8843547184161551
  0.9957277815524037  0.4993479458135255  0.8630352576449383
  0.0218847397298347  0.8166736662915497  0.3704059537382776
  0.0049402187064089  0.8266382801600258  0.8853500283488174
  0.0898152914370627  0.9922818741637727  0.2496629156364492
  0.0782953081370934  0.9981420827870693  0.7327049196447390
  0.0872959742498338  0.3377982626546014  0.2459677380010348
  0.4173736621354465  0.0001066554378610  0.2373229391078695
  0.2469629516370944  0.1661422612811450  0.5077278865048669
  0.0798519061872653  0.3367555088125727  0.7481357992738253
  0.4161974303156768  0.0006214761059482  0.7629111950388108
  0.2532060131935694  0.1618408794281123  0.9942311778553190
  0.0917936227541958  0.6725914643138537  0.2564075866059596
  0.4224243485941486  0.3449399841873415  0.2439990958887819
  0.2479647391300546  0.4967644061187713  0.5072707487343777
  0.0819779206074571  0.6600844499625538  0.7517020574564626
  0.7457689685921594  0.0047517659664180  0.2322463986868613
  0.5796317358115601  0.1518739586976920  0.5053901549172579
  0.4171530720051493  0.3351222661819762  0.7457835683274041
  0.2569125766280322  0.5040056263266806  0.0043173324302614
  0.7404725626884314  0.9992603189929881  0.7426647496707730
  0.5807533135384091  0.1691654714987294  0.0039715611508910
  0.4185347066216139  0.6724493416148789  0.2561209283372037
  0.2489882432399000  0.8242324501626399  0.4949411252466973
  0.7505239263579497  0.3473629527250353  0.2419855177965715
  0.5785438211732412  0.4987354932239398  0.5009941828095350
  0.4169480250281836  0.6568298610814693  0.7513885017900819
  0.2543133746960393  0.8364119385993760  0.0094966716923537
  0.9163449670178849  0.1580314165487238  0.5037310618851052
  0.7460402801618216  0.3361484472874210  0.7485067602473805
  0.5830259192714209  0.4987135791458570  0.9993694053774007
  0.9156508985540839  0.1657780535839848  0.9867475411874693
  0.7621534725585732  0.6807934670347606  0.2493173056408367
  0.5824274659321063  0.8155532128678473  0.5137290386196014
  0.9103941414107268  0.5115233976878386  0.5013252484856707
  0.7477836806259788  0.6618103417540198  0.7620707574766641
  0.5857074489271525  0.8438025132127791  0.0050743328550027
  0.9088051615375505  0.4987911874178579  0.9833318375042808
  0.9190955262770046  0.8105779383320950  0.5152782280122850
  0.9210262306238235  0.8307582246901930  0.0223572373590031
  0.0004956988509477  0.1694037454822137  0.1242623736976611
  0.9941540487549005  0.1581920396647405  0.6127336681310140
  0.0039593279420203  0.4953741145635817  0.1360275950441903
  0.3362725242302176  0.1540844442736784  0.1268294818578539
  0.1590991649516624  0.3381297021132923  0.3760897592145582
  0.9922188347887015  0.5011201945022208  0.6239919309512985
  0.3303784604593147  0.1669675127775676  0.6268442587133407
  0.1647752583290156  0.3279922860575013  0.8723949071443045
  0.0056618793092014  0.8337498980661877  0.1340569855151443
  0.3389807961271103  0.5154955165554895  0.1246718804383633
  0.1628358463485640  0.6701170294217320  0.3737853426548057
  0.0055921461524022  0.8238506591015664  0.6253669530855603
  0.6631579216789660  0.1685352177149610  0.1147016723547338
  0.4958687871962013  0.3510643744825046  0.3654779839243076
  0.3445833166130967  0.4956745962698079  0.6286168914350014
  0.1737871029506763  0.6654133885175852  0.8828234857804276
  0.6669290580215019  0.1561955902529704  0.6144820387143426
  0.5060810037308769  0.3408285951492118  0.8771546891416619
  0.3413833517881528  0.8306649361748626  0.1385141365127893
  0.1648636129723684  0.9957766415756097  0.3710385456572141
  0.6623455747768929  0.4988252978943990  0.1231793271589368
  0.4987514075194639  0.6648405694340056  0.3738777337989063
  0.3333389071386463  0.8312525924695180  0.6252935793224523
  0.1752210469981179  0.0019031296594036  0.8757381116597287
  0.8314495583527801  0.3452979568723293  0.3667333270663136
  0.6608284111313836  0.4974370305431748  0.6263431303290119
  0.4963269488505446  0.6584576167446556  0.8838809901124094
  0.8263727542408219  0.3385785782562181  0.8702861926084751
  0.6780736525376199  0.8492906518504810  0.1258585379292541
  0.4845567558037445  0.0118986549026658  0.3730222261123046
  0.8324413544082034  0.6764462891661083  0.3861940517184550
  0.6684202185567614  0.8329276122729610  0.6365908145985770
  0.4968057780190591  0.9988879288953640  0.8789410920122549
  0.8286383807901672  0.6582609888661324  0.8786317583969492
  0.8192331218039186  0.0193463550492794  0.3677676969659132
  0.8236602964029345  0.0018723784043075  0.8759386001584986
  0.9996575485138877  0.0827126734131554  0.2538827623945750
  0.9955193462065068  0.0795434293527677  0.7309658607018577
  0.0010008973204663  0.4241168615166018  0.2495976945017517
  0.3363586091677746  0.0854581702903872  0.2272405026424167
  0.1618617218212464  0.2518959862891137  0.5066608722686325
  0.9931772509320993  0.4199415583350259  0.7473841149855645
  0.3375855485599715  0.0844344479213106  0.7662893434894897
  0.1693535001315283  0.2509791482583381  0.9940443913141266
  0.9962439747946092  0.7487342910809076  0.2688800698056468
  0.3399894464951245  0.4232098215279905  0.2432220720859846
  0.1564121970542161  0.5812706271436952  0.4991570618314256
  0.0013242943258831  0.7398206387153223  0.7495863469794841
  0.6593105961920074  0.0898495821256091  0.2384094210244783
  0.4937065493249548  0.2518697540207882  0.5159964587757173
  0.3392878187732720  0.4155782559709067  0.7462451274342357
  0.1776715541897360  0.5841442754490984  0.0053285120127669
  0.6633342783219973  0.0721218959841607  0.7402827599285118
  0.5091478293295282  0.2507383922116517  0.0005016691957138
  0.3439070312554406  0.7583262862073070  0.2444608293703112
  0.1659103604849221  0.9101683698782921  0.4922636367074915
  0.6663627972506916  0.4207676308868713  0.2438424563284798
  0.4978592222847382  0.5774811690696851  0.4975781908783787
  0.3320105954598631  0.7456705131499177  0.7582804987834848
  0.1759133573508009  0.9152429874008448  0.0134225201775990
  0.8313882656363063  0.2531215833242584  0.5045732345055782
  0.6644218986731900  0.4167867279539692  0.7508285087163884
  0.4940361873788177  0.5843879203001308  0.0025341366268776
  0.8233117595633743  0.2538502825753071  0.9872412206605787
  0.6807091591071952  0.7521127814340716  0.2694692970716375
  0.4859197453897082  0.9105389313175110  0.5134485267627298
  0.8430421223147917  0.5795465748101449  0.5044558956650462
  0.6693786464991760  0.7464079964241392  0.7600816394126042
  0.4952949517108820  0.9185703391221267  0.0089731317183990
  0.8259420402159705  0.5816473233434678  0.9856964850297558
  0.8170883717798958  0.9116582790798660  0.5288555926355940
  0.8262217138285166  0.9247630942982497  0.0116075384617957
 
  0.00000000E+00  0.00000000E+00  0.00000000E+00
  0.00000000E+00  0.00000000E+00  0.00000000E+00
  0.00000000E+00  0.00000000E+00  0.00000000E+00
  0.00000000E+00  0.00000000E+00  0.00000000E+00
  0.00000000E+00  0.00000000E+00  0.00000000E+00
  0.00000000E+00  0.00000000E+00  0.00000000E+00
  0.00000000E+00  0.00000000E+00  0.00000000E+00
  0.00000000E+00  0.00000000E+00  0.00000000E+00
  0.00000000E+00  0.00000000E+00  0.00000000E+00
  0.00000000E+00  0.00000000E+00  0.00000000E+00
  0.00000000E+00  0.00000000E+00  0.00000000E+00
  0.00000000E+00  0.00000000E+00  0.00000000E+00
  0.00000000E+00  0.00000000E+00  0.00000000E+00
  0.00000000E+00  0.00000000E+00  0.00000000E+00
  0.00000000E+00  0.00000000E+00  0.00000000E+00
  0.00000000E+00  0.00000000E+00  0.00000000E+00
  0.00000000E+00  0.00000000E+00  0.00000000E+00
  0.00000000E+00  0.00000000E+00  0.00000000E+00
  0.00000000E+00  0.00000000E+00  0.00000000E+00
  0.00000000E+00  0.00000000E+00  0.00000000E+00
  0.00000000E+00  0.00000000E+00  0.00000000E+00
  0.00000000E+00  0.00000000E+00  0.00000000E+00
  0.00000000E+00  0.00000000E+00  0.00000000E+00
  0.00000000E+00  0.00000000E+00  0.00000000E+00
  0.00000000E+00  0.00000000E+00  0.00000000E+00
  0.00000000E+00  0.00000000E+00  0.00000000E+00
  0.00000000E+00  0.00000000E+00  0.00000000E+00
  0.00000000E+00  0.00000000E+00  0.00000000E+00
  0.00000000E+00  0.00000000E+00  0.00000000E+00
  0.00000000E+00  0.00000000E+00  0.00000000E+00
  0.00000000E+00  0.00000000E+00  0.00000000E+00
  0.00000000E+00  0.00000000E+00  0.00000000E+00
  0.00000000E+00  0.00000000E+00  0.00000000E+00
  0.00000000E+00  0.00000000E+00  0.00000000E+00
  0.00000000E+00  0.00000000E+00  0.00000000E+00
  0.00000000E+00  0.00000000E+00  0.00000000E+00
  0.00000000E+00  0.00000000E+00  0.00000000E+00
  0.00000000E+00  0.00000000E+00  0.00000000E+00
  0.00000000E+00  0.00000000E+00  0.00000000E+00
  0.00000000E+00  0.00000000E+00  0.00000000E+00
  0.00000000E+00  0.00000000E+00  0.00000000E+00
  0.00000000E+00  0.00000000E+00  0.00000000E+00
  0.00000000E+00  0.00000000E+00  0.00000000E+00
  0.00000000E+00  0.00000000E+00  0.00000000E+00
  0.00000000E+00  0.00000000E+00  0.00000000E+00
  0.00000000E+00  0.00000000E+00  0.00000000E+00
  0.00000000E+00  0.00000000E+00  0.00000000E+00
  0.00000000E+00  0.00000000E+00  0.00000000E+00
  0.00000000E+00  0.00000000E+00  0.00000000E+00
  0.00000000E+00  0.00000000E+00  0.00000000E+00
  0.00000000E+00  0.00000000E+00  0.00000000E+00
  0.00000000E+00  0.00000000E+00  0.00000000E+00
  0.00000000E+00  0.00000000E+00  0.00000000E+00
  0.00000000E+00  0.00000000E+00  0.00000000E+00
  0.00000000E+00  0.00000000E+00  0.00000000E+00
  0.00000000E+00  0.00000000E+00  0.00000000E+00
  0.00000000E+00  0.00000000E+00  0.00000000E+00
  0.00000000E+00  0.00000000E+00  0.00000000E+00
  0.00000000E+00  0.00000000E+00  0.00000000E+00
  0.00000000E+00  0.00000000E+00  0.00000000E+00
  0.00000000E+00  0.00000000E+00  0.00000000E+00
  0.00000000E+00  0.00000000E+00  0.00000000E+00
  0.00000000E+00  0.00000000E+00  0.00000000E+00
  0.00000000E+00  0.00000000E+00  0.00000000E+00
  0.00000000E+00  0.00000000E+00  0.00000000E+00
  0.00000000E+00  0.00000000E+00  0.00000000E+00
  0.00000000E+00  0.00000000E+00  0.00000000E+00
  0.00000000E+00  0.00000000E+00  0.00000000E+00
  0.00000000E+00  0.00000000E+00  0.00000000E+00
  0.00000000E+00  0.00000000E+00  0.00000000E+00
  0.00000000E+00  0.00000000E+00  0.00000000E+00
  0.00000000E+00  0.00000000E+00  0.00000000E+00
  0.00000000E+00  0.00000000E+00  0.00000000E+00
  0.00000000E+00  0.00000000E+00  0.00000000E+00
  0.00000000E+00  0.00000000E+00  0.00000000E+00
  0.00000000E+00  0.00000000E+00  0.00000000E+00
  0.00000000E+00  0.00000000E+00  0.00000000E+00
  0.00000000E+00  0.00000000E+00  0.00000000E+00
  0.00000000E+00  0.00000000E+00  0.00000000E+00
  0.00000000E+00  0.00000000E+00  0.00000000E+00
  0.00000000E+00  0.00000000E+00  0.00000000E+00
  0.00000000E+00  0.00000000E+00  0.00000000E+00
  0.00000000E+00  0.00000000E+00  0.00000000E+00
  0.00000000E+00  0.00000000E+00  0.00000000E+00
  0.00000000E+00  0.00000000E+00  0.00000000E+00
  0.00000000E+00  0.00000000E+00  0.00000000E+00
  0.00000000E+00  0.00000000E+00  0.00000000E+00
  0.00000000E+00  0.00000000E+00  0.00000000E+00
  0.00000000E+00  0.00000000E+00  0.00000000E+00
  0.00000000E+00  0.00000000E+00  0.00000000E+00
  0.00000000E+00  0.00000000E+00  0.00000000E+00
  0.00000000E+00  0.00000000E+00  0.00000000E+00
  0.00000000E+00  0.00000000E+00  0.00000000E+00
  0.00000000E+00  0.00000000E+00  0.00000000E+00
  0.00000000E+00  0.00000000E+00  0.00000000E+00
  0.00000000E+00  0.00000000E+00  0.00000000E+00
  0.00000000E+00  0.00000000E+00  0.00000000E+00
  0.00000000E+00  0.00000000E+00  0.00000000E+00
  0.00000000E+00  0.00000000E+00  0.00000000E+00
  0.00000000E+00  0.00000000E+00  0.00000000E+00
  0.00000000E+00  0.00000000E+00  0.00000000E+00
  0.00000000E+00  0.00000000E+00  0.00000000E+00
  0.00000000E+00  0.00000000E+00  0.00000000E+00
  0.00000000E+00  0.00000000E+00  0.00000000E+00
  0.00000000E+00  0.00000000E+00  0.00000000E+00
  0.00000000E+00  0.00000000E+00  0.00000000E+00
  0.00000000E+00  0.00000000E+00  0.00000000E+00
  0.00000000E+00  0.00000000E+00  0.00000000E+00
  0.00000000E+00  0.00000000E+00  0.00000000E+00
  0.00000000E+00  0.00000000E+00  0.00000000E+00
  0.00000000E+00  0.00000000E+00  0.00000000E+00
  0.00000000E+00  0.00000000E+00  0.00000000E+00
  0.00000000E+00  0.00000000E+00  0.00000000E+00
  0.00000000E+00  0.00000000E+00  0.00000000E+00
  0.00000000E+00  0.00000000E+00  0.00000000E+00
  0.00000000E+00  0.00000000E+00  0.00000000E+00
  0.00000000E+00  0.00000000E+00  0.00000000E+00
  0.00000000E+00  0.00000000E+00  0.00000000E+00
  0.00000000E+00  0.00000000E+00  0.00000000E+00
  0.00000000E+00  0.00000000E+00  0.00000000E+00
  0.00000000E+00  0.00000000E+00  0.00000000E+00
  0.00000000E+00  0.00000000E+00  0.00000000E+00
  0.00000000E+00  0.00000000E+00  0.00000000E+00
  0.00000000E+00  0.00000000E+00  0.00000000E+00
  0.00000000E+00  0.00000000E+00  0.00000000E+00
  0.00000000E+00  0.00000000E+00  0.00000000E+00
  0.00000000E+00  0.00000000E+00  0.00000000E+00
  0.00000000E+00  0.00000000E+00  0.00000000E+00
  0.00000000E+00  0.00000000E+00  0.00000000E+00
  0.00000000E+00  0.00000000E+00  0.00000000E+00
  0.00000000E+00  0.00000000E+00  0.00000000E+00
  0.00000000E+00  0.00000000E+00  0.00000000E+00
  0.00000000E+00  0.00000000E+00  0.00000000E+00
  0.00000000E+00  0.00000000E+00  0.00000000E+00
  0.00000000E+00  0.00000000E+00  0.00000000E+00
  0.00000000E+00  0.00000000E+00  0.00000000E+00
  0.00000000E+00  0.00000000E+00  0.00000000E+00
  0.00000000E+00  0.00000000E+00  0.00000000E+00
  0.00000000E+00  0.00000000E+00  0.00000000E+00
  0.00000000E+00  0.00000000E+00  0.00000000E+00
  0.00000000E+00  0.00000000E+00  0.00000000E+00
  0.00000000E+00  0.00000000E+00  0.00000000E+00
  0.00000000E+00  0.00000000E+00  0.00000000E+00
  0.00000000E+00  0.00000000E+00  0.00000000E+00
  0.00000000E+00  0.00000000E+00  0.00000000E+00
  0.00000000E+00  0.00000000E+00  0.00000000E+00
  0.00000000E+00  0.00000000E+00  0.00000000E+00
  0.00000000E+00  0.00000000E+00  0.00000000E+00
  0.00000000E+00  0.00000000E+00  0.00000000E+00
  0.00000000E+00  0.00000000E+00  0.00000000E+00
  0.00000000E+00  0.00000000E+00  0.00000000E+00
  0.00000000E+00  0.00000000E+00  0.00000000E+00
  0.00000000E+00  0.00000000E+00  0.00000000E+00
  0.00000000E+00  0.00000000E+00  0.00000000E+00
  0.00000000E+00  0.00000000E+00  0.00000000E+00
  0.00000000E+00  0.00000000E+00  0.00000000E+00
  0.00000000E+00  0.00000000E+00  0.00000000E+00
  0.00000000E+00  0.00000000E+00  0.00000000E+00
  0.00000000E+00  0.00000000E+00  0.00000000E+00
  0.00000000E+00  0.00000000E+00  0.00000000E+00
  0.00000000E+00  0.00000000E+00  0.00000000E+00
  0.00000000E+00  0.00000000E+00  0.00000000E+00
  0.00000000E+00  0.00000000E+00  0.00000000E+00
  0.00000000E+00  0.00000000E+00  0.00000000E+00
  0.00000000E+00  0.00000000E+00  0.00000000E+00
  0.00000000E+00  0.00000000E+00  0.00000000E+00
  0.00000000E+00  0.00000000E+00  0.00000000E+00
  0.00000000E+00  0.00000000E+00  0.00000000E+00
  0.00000000E+00  0.00000000E+00  0.00000000E+00
  0.00000000E+00  0.00000000E+00  0.00000000E+00
  0.00000000E+00  0.00000000E+00  0.00000000E+00
  0.00000000E+00  0.00000000E+00  0.00000000E+00
  0.00000000E+00  0.00000000E+00  0.00000000E+00
  0.00000000E+00  0.00000000E+00  0.00000000E+00
  0.00000000E+00  0.00000000E+00  0.00000000E+00
  0.00000000E+00  0.00000000E+00  0.00000000E+00
  0.00000000E+00  0.00000000E+00  0.00000000E+00
  0.00000000E+00  0.00000000E+00  0.00000000E+00
  0.00000000E+00  0.00000000E+00  0.00000000E+00
  0.00000000E+00  0.00000000E+00  0.00000000E+00
  0.00000000E+00  0.00000000E+00  0.00000000E+00
  0.00000000E+00  0.00000000E+00  0.00000000E+00
  0.00000000E+00  0.00000000E+00  0.00000000E+00
  0.00000000E+00  0.00000000E+00  0.00000000E+00
  0.00000000E+00  0.00000000E+00  0.00000000E+00
  0.00000000E+00  0.00000000E+00  0.00000000E+00
  0.00000000E+00  0.00000000E+00  0.00000000E+00
  0.00000000E+00  0.00000000E+00  0.00000000E+00
  0.00000000E+00  0.00000000E+00  0.00000000E+00
  0.00000000E+00  0.00000000E+00  0.00000000E+00
  0.00000000E+00  0.00000000E+00  0.00000000E+00
  0.00000000E+00  0.00000000E+00  0.00000000E+00
  0.00000000E+00  0.00000000E+00  0.00000000E+00
  0.00000000E+00  0.00000000E+00  0.00000000E+00
  0.00000000E+00  0.00000000E+00  0.00000000E+00
  0.00000000E+00  0.00000000E+00  0.00000000E+00
  0.00000000E+00  0.00000000E+00  0.00000000E+00
  0.00000000E+00  0.00000000E+00  0.00000000E+00
  0.00000000E+00  0.00000000E+00  0.00000000E+00
  0.00000000E+00  0.00000000E+00  0.00000000E+00
  0.00000000E+00  0.00000000E+00  0.00000000E+00
  0.00000000E+00  0.00000000E+00  0.00000000E+00
  0.00000000E+00  0.00000000E+00  0.00000000E+00
  0.00000000E+00  0.00000000E+00  0.00000000E+00
  0.00000000E+00  0.00000000E+00  0.00000000E+00
  0.00000000E+00  0.00000000E+00  0.00000000E+00
  0.00000000E+00  0.00000000E+00  0.00000000E+00
  0.00000000E+00  0.00000000E+00  0.00000000E+00
  0.00000000E+00  0.00000000E+00  0.00000000E+00
  0.00000000E+00  0.00000000E+00  0.00000000E+00
  0.00000000E+00  0.00000000E+00  0.00000000E+00
  0.00000000E+00  0.00000000E+00  0.00000000E+00
  0.00000000E+00  0.00000000E+00  0.00000000E+00
  0.00000000E+00  0.00000000E+00  0.00000000E+00
  0.00000000E+00  0.00000000E+00  0.00000000E+00
  0.00000000E+00  0.00000000E+00  0.00000000E+00
  0.00000000E+00  0.00000000E+00  0.00000000E+00
  0.00000000E+00  0.00000000E+00  0.00000000E+00
  0.00000000E+00  0.00000000E+00  0.00000000E+00
  0.00000000E+00  0.00000000E+00  0.00000000E+00
  0.00000000E+00  0.00000000E+00  0.00000000E+00
  0.00000000E+00  0.00000000E+00  0.00000000E+00
  0.00000000E+00  0.00000000E+00  0.00000000E+00
  0.00000000E+00  0.00000000E+00  0.00000000E+00
  0.00000000E+00  0.00000000E+00  0.00000000E+00
  0.00000000E+00  0.00000000E+00  0.00000000E+00
  0.00000000E+00  0.00000000E+00  0.00000000E+00
  0.00000000E+00  0.00000000E+00  0.00000000E+00
  0.00000000E+00  0.00000000E+00  0.00000000E+00
  0.00000000E+00  0.00000000E+00  0.00000000E+00
  0.00000000E+00  0.00000000E+00  0.00000000E+00
  0.00000000E+00  0.00000000E+00  0.00000000E+00
  0.00000000E+00  0.00000000E+00  0.00000000E+00
  0.00000000E+00  0.00000000E+00  0.00000000E+00
  0.00000000E+00  0.00000000E+00  0.00000000E+00
  0.00000000E+00  0.00000000E+00  0.00000000E+00
  0.00000000E+00  0.00000000E+00  0.00000000E+00
  0.00000000E+00  0.00000000E+00  0.00000000E+00
  0.00000000E+00  0.00000000E+00  0.00000000E+00
  0.00000000E+00  0.00000000E+00  0.00000000E+00
  0.00000000E+00  0.00000000E+00  0.00000000E+00
  0.00000000E+00  0.00000000E+00  0.00000000E+00
  0.00000000E+00  0.00000000E+00  0.00000000E+00
  0.00000000E+00  0.00000000E+00  0.00000000E+00
  0.00000000E+00  0.00000000E+00  0.00000000E+00
  0.00000000E+00  0.00000000E+00  0.00000000E+00
  0.00000000E+00  0.00000000E+00  0.00000000E+00
  0.00000000E+00  0.00000000E+00  0.00000000E+00
  0.00000000E+00  0.00000000E+00  0.00000000E+00
  0.00000000E+00  0.00000000E+00  0.00000000E+00
  0.00000000E+00  0.00000000E+00  0.00000000E+00
  0.00000000E+00  0.00000000E+00  0.00000000E+00
