generated by phonopy                    
   1.00000000000000     
     0.0000000000000000    3.4277114540649216    3.4277114540650429
     3.4277114540649740    0.0000000000000000    3.4277114540650429
     3.4277114540649740    3.4277114540649216    0.0000000000000000
   Ca   Y    La   Hf   H 
     1     1     1     1    24
Direct
  0.2500000000000000  0.2500000000000000  0.2500000000000000
  0.7500000000000000  0.7500000000000000  0.7500000000000000
  0.0000000000000000  0.0000000000000000  0.0000000000000000
  0.5000000000000000  0.5000000000000000  0.5000000000000000
  0.1334161152150912  0.8759312175014600  0.6145567312107900
  0.8759312175014600  0.1334161152150912  0.3760959360726517
  0.6145567312107900  0.3760959360726517  0.1334161152150912
  0.3760959360726517  0.6145567312107900  0.8759312175014600
  0.6145567312107900  0.1334161152150912  0.8759312175014600
  0.3760959360726517  0.8759312175014600  0.1334161152150912
  0.1334161152150912  0.6145567312107900  0.3760959360726517
  0.8759312175014600  0.3760959360726517  0.6145567312107900
  0.8759312175014600  0.6145567312107900  0.1334161152150912
  0.1334161152150912  0.3760959360726517  0.8759312175014600
  0.3760959360726517  0.1334161152150912  0.6145567312107900
  0.6145567312107900  0.8759312175014600  0.3760959360726517
  0.1334161152150912  0.3760959360726517  0.6145567312107900
  0.3760959360726517  0.1334161152150912  0.8759312175014600
  0.6145567312107900  0.8759312175014600  0.1334161152150912
  0.8759312175014600  0.6145567312107900  0.3760959360726517
  0.6145567312107900  0.1334161152150912  0.3760959360726517
  0.8759312175014600  0.3760959360726517  0.1334161152150912
  0.1334161152150912  0.6145567312107900  0.8759312175014600
  0.3760959360726517  0.8759312175014600  0.6145567312107900
  0.3760959360726517  0.6145567312107900  0.1334161152150912
  0.1334161152150912  0.8759312175014600  0.3760959360726517
  0.8759312175014600  0.1334161152150912  0.6145567312107900
  0.6145567312107900  0.3760959360726517  0.8759312175014600
 
  0.00000000E+00  0.00000000E+00  0.00000000E+00
  0.00000000E+00  0.00000000E+00  0.00000000E+00
  0.00000000E+00  0.00000000E+00  0.00000000E+00
  0.00000000E+00  0.00000000E+00  0.00000000E+00
  0.00000000E+00  0.00000000E+00  0.00000000E+00
  0.00000000E+00  0.00000000E+00  0.00000000E+00
  0.00000000E+00  0.00000000E+00  0.00000000E+00
  0.00000000E+00  0.00000000E+00  0.00000000E+00
  0.00000000E+00  0.00000000E+00  0.00000000E+00
  0.00000000E+00  0.00000000E+00  0.00000000E+00
  0.00000000E+00  0.00000000E+00  0.00000000E+00
  0.00000000E+00  0.00000000E+00  0.00000000E+00
  0.00000000E+00  0.00000000E+00  0.00000000E+00
  0.00000000E+00  0.00000000E+00  0.00000000E+00
  0.00000000E+00  0.00000000E+00  0.00000000E+00
  0.00000000E+00  0.00000000E+00  0.00000000E+00
  0.00000000E+00  0.00000000E+00  0.00000000E+00
  0.00000000E+00  0.00000000E+00  0.00000000E+00
  0.00000000E+00  0.00000000E+00  0.00000000E+00
  0.00000000E+00  0.00000000E+00  0.00000000E+00
  0.00000000E+00  0.00000000E+00  0.00000000E+00
  0.00000000E+00  0.00000000E+00  0.00000000E+00
  0.00000000E+00  0.00000000E+00  0.00000000E+00
  0.00000000E+00  0.00000000E+00  0.00000000E+00
  0.00000000E+00  0.00000000E+00  0.00000000E+00
  0.00000000E+00  0.00000000E+00  0.00000000E+00
  0.00000000E+00  0.00000000E+00  0.00000000E+00
  0.00000000E+00  0.00000000E+00  0.00000000E+00
