POSCAR                                  
   1.00000000000000     
     9.7913255890940736   -0.0112594336602698   -0.0069643151905608
    -0.0112505485990499    9.7832121506883603   -0.0118458515119021
    -0.0046331896500607   -0.0078816708479714    6.5261881338147294
   Y    Ca   Zr   Mg   H 
     9     9     9     9   216
Direct
  0.1701726200736928  0.1675539568431645  0.2496034296551102
  0.1620258175331841  0.8336771519846238  0.2532598606749943
  0.3319208618998601  0.6644994326523559  0.4981394842060922
  0.8278649224580690  0.1701694075196727  0.7521608083467157
  0.8286833562806919  0.4986268112972994  0.2555967749377430
  0.4995070139451911  0.8319283668521962  0.7504689299557157
  0.3328145167038556  0.0049942740900164  0.9968298216706089
  0.6749515986345642  0.0018843967829625  0.4986921325569895
  0.6684881834891740  0.0042011771779684  0.0014418537785659
  0.1632667930662421  0.1678688319962305  0.7511621265449548
  0.1631836893258907  0.8335341241410674  0.7463866964834764
  0.5033431082390081  0.4957051467016740  0.7496606232440541
  0.3356856098539964  0.6635974738395589  0.9988332586238897
  0.6650113617179869  0.3347546163028809  0.0009690699276490
  0.6683242628441377  0.6617632356395262  0.9959739478509420
  0.9972517938267416  0.3316909193935160  0.9991627776092855
  0.8346439016769622  0.8319234654843086  0.2538796891814528
  0.0016723361148934  0.0011003478723879  0.0037252604424367
  0.1635397770385225  0.4980733989372226  0.2475413304245748
  0.3417541068908747  0.3311416543675705  0.5031353224379700
  0.1672488099148453  0.4975909915271259  0.7525680530812195
  0.5079689762549222  0.4918471886053410  0.2495287417758547
  0.5055559300322727  0.8380637611922950  0.2497470584729555
  0.3337893138864274  0.0056805984047159  0.5042773471026010
  0.9930768990360832  0.3351550186715642  0.5007954127092660
  0.8380433624309234  0.8294841424856614  0.7427864212571578
  0.9944623104942778  0.6662017299983205  0.9963986887701921
  0.5016965738743266  0.1694292137913394  0.2494280585919597
  0.5021088107071705  0.1716081282094422  0.7521689327573711
  0.3349824855962638  0.3336015759874869  0.9987067234115301
  0.8326538850827987  0.1665109220078307  0.2498827439498115
  0.6657593015945338  0.3313272519487143  0.5019332426454071
  0.6683695085770864  0.6648198530031237  0.5015704369508711
  0.8270457062855670  0.4973899249371954  0.7482217519961125
  0.9973205457498509  0.6641671814166301  0.5009340476901585
  0.9978597844164341  0.0026264494961694  0.4998255887193039
  0.1622149151740402  0.0858834482705291  0.9940369426957787
  0.1567297566854293  0.0860762745021120  0.5054467808459862
  0.1681895033569063  0.4134424350400820  0.9995140516576129
  0.4998496535032046  0.0905799207012166  0.0059776085855816
  0.3432791841756000  0.2525726346084269  0.2408319281605529
  0.1646065628423017  0.4145085872020999  0.5010665159883203
  0.5062352637896765  0.0888151146320979  0.4994137589282914
  0.3322556770284422  0.2526201697685195  0.7606897650626721
  0.1664026742032263  0.7488987325591907  0.9942208482692081
  0.4961487553199717  0.4123168565428870  0.9946235805917283
  0.3399897870018123  0.5810575751919131  0.2423218272088050
  0.1496656378644801  0.7493745184923384  0.5050265946896317
  0.8400954281631456  0.0833727236586128  0.0118914251985700
  0.6598660137720671  0.2492249909233237  0.2510807230086058
  0.5166229739707546  0.4128642330505841  0.5043550885349291
  0.3377758985093564  0.5800358810987802  0.7542706345587575
  0.8449080216199789  0.0858637531724114  0.4879739504432408
  0.6574314029874202  0.2544631954646661  0.7442205046886698
  0.5032900552698791  0.7444463840514501  0.0065387628451958
  0.3351364610127163  0.9182344672999534  0.2519304513190477
  0.8327754784689816  0.4168161764046729  0.9934764982354096
  0.6635604457467892  0.5893497442635223  0.2644039324993059
  0.5075251329345534  0.7456311712879327  0.4936420336438303
  0.3294198322234578  0.9172508301851252  0.7479382420608545
  0.9950839295239362  0.2482864222121535  0.2500727925850725
  0.8177004222659576  0.4176330687574037  0.5119754314012184
  0.6719637916458296  0.5818145842097522  0.7338999079423658
  0.9997498650829684  0.2515985976610153  0.7498497386340262
  0.8289065498208075  0.7504013870485196  0.0005450785050130
  0.6728661651206593  0.9161035682493264  0.2501569947305740
  0.9962472996792684  0.5837056021573233  0.2606420088010069
  0.8405651483615273  0.7449330539007093  0.4983968811358395
  0.6695491073672599  0.9138564201647981  0.7485722979285043
  0.9859211904838716  0.5810073481657980  0.7397182122955996
  0.9929732804013582  0.9203510473438214  0.2646440125986373
  0.0010172509475623  0.9193472443856194  0.7399998335432727
  0.0821142705602398  0.1677488861233485  0.9977462404710451
  0.0811700902712715  0.1583683632795996  0.5010619443366124
  0.0782905022199998  0.4979402966366848  0.9924011725529951
  0.4173848859104581  0.1757477833113086  0.9873365228390085
  0.2545470921945565  0.3353767845351641  0.2420657462203692
  0.0793972915741108  0.5030341726610317  0.5080573295365483
  0.4242046434691176  0.1687860069737468  0.5169505304775797
  0.2498335508302461  0.3289661953547593  0.7573982796658427
  0.0836913333182494  0.8350873537697296  0.9910299655502470
  0.4153868615111236  0.4928594510291120  0.9991516957046471
  0.2502777251859101  0.6653134231493141  0.2409569453109910
  0.0806705131328016  0.8506066240238681  0.5056753255566733
  0.7502673654085612  0.1747230754729401  0.0219563477913312
  0.5871489257519116  0.3175619625938850  0.2585828101254322
  0.4201651470627468  0.4981557146446178  0.5010271403121749
  0.2462668813872071  0.6692763589924695  0.7541544586974211
  0.7492347065642377  0.1799714107831178  0.4816066634720713
  0.5839922950739478  0.3311382077319962  0.7457490566480516
  0.4139328406750451  0.8309007644032320  0.0038800031236192
  0.2529878766440419  0.9981317167805841  0.2543976207224645
  0.7510832484263119  0.4986651668219722  0.9880503746149785
  0.5853808865165462  0.6638171058024440  0.2522522637696269
  0.4178887508759175  0.8346713345401469  0.4960929227573558
  0.2423112168398092  0.0012508450143045  0.7465207398600384
  0.9119118475248200  0.3243248188504850  0.2480825288755000
  0.7453081422013526  0.4972030376441907  0.5109816837732524
  0.5869297894243886  0.6613339549636095  0.7404767347632273
  0.9103465566006577  0.3447794940014148  0.7516163755101033
  0.7510794132067034  0.8277502199701772  0.0018784490370152
  0.5838159767780908  0.0174656215392162  0.2543216084306152
  0.9156498657438519  0.6660095788174871  0.2652230280677088
  0.7506914971821388  0.8187759130258598  0.4948958029492161
  0.5829028900022237  0.0058613307396769  0.7457858202938183
  0.9146368830886189  0.6542189438980373  0.7297394869609661
  0.9196420473069935  0.0033128518925096  0.2534045376259328
  0.9213764726609810  0.0015221314668850  0.7493084071492149
  0.1651258993485598  0.0003334308834013  0.1234927496648552
  0.1601493186832883  0.0023088529231003  0.6267852203048605
  0.1701045956375538  0.3346274051784306  0.1185163347124671
  0.4987371944413042  0.0155287312333314  0.1267030864576242
  0.3505517164172858  0.1696103701948743  0.3741691966730230
  0.1687686326601749  0.3323985118276553  0.6263895353793103
  0.5057414015636397  0.0121769109304495  0.6257835921614046
  0.3412824159916354  0.1784517211031798  0.8736975542567862
  0.1659842217855356  0.6641009481706419  0.1186295399354478
  0.4940838271100318  0.3217728953307528  0.1207438325050063
  0.3337401618495974  0.4937719530608149  0.3690090210058941
  0.1541798098938827  0.6640231375279910  0.6260788257251519
  0.8392137820472172  0.0033232882104386  0.1280972673277887
  0.6680703375294357  0.1735291700891892  0.3732581480708888
  0.5085994428723311  0.3258566857083238  0.6279679431043803
  0.3376876952320842  0.4918521418827453  0.8791991104027161
  0.8470005816853146  0.0019665394937789  0.6238451330880110
  0.6525478829893601  0.1735586085408229  0.8752886724475033
  0.5033215553904142  0.6656315717200343  0.1235261833594024
  0.3373931148397844  0.8370074103941505  0.3725981394443423
  0.8317298624719029  0.3248797307483002  0.1273040437736697
  0.6668789795787120  0.5063534603670661  0.3851559698940790
  0.5107560777915481  0.6611437703822745  0.6216185855465000
  0.3291155353247106  0.8308237035304984  0.8758835854363056
  0.9921661984224741  0.1638445349005906  0.3733336534518941
  0.8222232256380266  0.3379037412679793  0.6245143009262222
  0.6705048543538226  0.4966417131295984  0.8719951950467433
  0.9979971516294981  0.1659947788876863  0.8773634616057606
  0.8308713554495455  0.6687859181162494  0.1245451921525884
  0.6714343850643232  0.8212500579503583  0.3766751899824854
  0.9998985686320481  0.5115297766092439  0.3797459396464973
  0.8324210643571988  0.6599177464423391  0.6232748729992181
  0.6706391365628264  0.8291835665818752  0.8760470283366431
  0.9895240350192793  0.4981037589991288  0.8719049007463298
  0.9949619748363858  0.8255864729589959  0.3784534949347247
  0.0010734780974246  0.8353721353169661  0.8734530736957637
  0.0791510163363967  0.0033572240160993  0.2703132333350737
  0.0798607566683174  0.9990925023397068  0.7353678752085813
  0.0811075287745595  0.3312244885788402  0.2485808682999320
  0.4207131124706223  0.0069540550857781  0.2513416958892094
  0.2481521166432827  0.1711649523153085  0.5094331679858328
  0.0810337363259848  0.3331200771095979  0.7514509704347603
  0.4204620667499341  0.0132049094161530  0.7483815048422215
  0.2518991952394742  0.1797414980427092  0.9935654729145966
  0.0795320044198533  0.6654904898966976  0.2526556351322213
  0.4187836419172726  0.3290871404398317  0.2377377708016084
  0.2522794856995390  0.4924406443790659  0.4974422761209638
  0.0792626840302262  0.6660947522711140  0.7422132944714903
  0.7588283257058563  0.0077985245914647  0.2503388691806947
  0.5848109039314338  0.1747882852605187  0.4820065959959763
  0.4186594281967970  0.3283848500594644  0.7619120434212689
  0.2545317033056946  0.4951580607189996  0.0032746723483825
  0.7541256769833495  0.9973964036033394  0.7517960678966276
  0.5796548367472525  0.1744946061263875  0.0134480466405194
  0.4196559928807346  0.6614972142468361  0.2455824661919337
  0.2475541743397542  0.8394506450287693  0.5040314593865389
  0.7473145207096294  0.3213298499322264  0.2618405777538371
  0.5863033711640426  0.4915820975919729  0.5072452740687083
  0.4173037545503533  0.6583990518464589  0.7517190900340864
  0.2492310802459343  0.8286561345758798  0.9968774313411259
  0.9150054402223944  0.1655426285803472  0.4870293549251699
  0.7452893787356345  0.3401156586937404  0.7420509909876998
  0.5850477138457748  0.4981852855170388  0.9918215317277372
  0.9172375205729253  0.1653631288394450  0.0145329568743335
  0.7480512136240023  0.6697836726007722  0.2615170335923267
  0.5889804099981362  0.8269221255220955  0.5015421936224769
  0.9119146090167618  0.5075377325572461  0.5172053102091354
  0.7501806928837738  0.6572139392852918  0.7380462892190920
  0.5890165834833638  0.8281736322203983  0.9988081827892969
  0.9138565039239097  0.4961603520665179  0.9905250488515449
  0.9200028472343718  0.8307656479985610  0.4959929515838368
  0.9147486249594294  0.8376147361656407  0.0039733041992562
  0.9891887735136180  0.1681308121872789  0.1280614805779479
  0.9960673625036094  0.1590429102846755  0.6231759317000396
  0.9962344585852847  0.4988763530728448  0.1210496752679475
  0.3491804010913739  0.1773357411227465  0.1210879558765185
  0.1696629249443120  0.3355229061252558  0.3782472612833203
  0.9979352161997426  0.5074874354560706  0.6260652083962839
  0.3392036468298940  0.1706777464956986  0.6359037198763531
  0.1709177167987050  0.3326797594457176  0.8763678264917800
  0.9936318320315749  0.8333041195309150  0.1241163646803258
  0.3345647511246028  0.4938339023818159  0.1197139359448016
  0.1521234596223380  0.6623571760837521  0.3764241073309407
  0.0008751993627882  0.8296239602988038  0.6225665131527691
  0.6674109086117923  0.1729645818993504  0.1264640952726452
  0.5041462624804254  0.3219548090750877  0.3740650146742723
  0.3365628797731119  0.4952382663609640  0.6272919049126102
  0.1657521381660629  0.6663505194020374  0.8743955495928546
  0.6550388137320837  0.1767821586692193  0.6244593964697032
  0.4958262135096660  0.3270148151698251  0.8770420342611587
  0.3351336144891164  0.8320522258231549  0.1251187820308601
  0.1626664905498814  0.0021114181675301  0.3820324798676040
  0.6678074883912188  0.4994222840728284  0.1183596310151032
  0.5102645300325435  0.6667876780474344  0.3721070468099796
  0.3303847966951778  0.8357629628465517  0.6239976195822479
  0.1636313084243852  0.0014474360001415  0.8696166511109524
  0.8237905537037093  0.3247856443718931  0.3758982828112210
  0.6663527133656970  0.4964484818899138  0.6260965864555317
  0.5018969306677690  0.6599303226965461  0.8773082274465764
  0.8303215337289913  0.3428964617018266  0.8752109001229442
  0.6735195995230754  0.8269123131005571  0.1227913478986338
  0.5025915486392449  0.0146290746114275  0.3773079757977484
  0.8349519165466006  0.6679354069326777  0.3820290465266609
  0.6665124759476697  0.8250607384066413  0.6216013166304677
  0.5004163856324553  0.0160060597966876  0.8715156870416081
  0.8297561991605207  0.6578766166505474  0.8671948183889739
  0.8434621852903987  0.0018179046715474  0.3735164540011624
  0.8403468853404448  0.9987125677729196  0.8772377121474264
  0.9906159228181011  0.0847234670522639  0.2616103400814751
  0.9967318884768233  0.0832338488266942  0.7414315882676163
  0.9968931409614328  0.4161105134294942  0.2462070978747306
  0.3486195063308344  0.0881083059758225  0.2516844421664359
  0.1627737824055515  0.2508722911220360  0.5059514500630016
  0.9883789278276041  0.4219512814415012  0.7517117928091182
  0.3353323381381728  0.0919907411852776  0.7485757474531809
  0.1727755766103343  0.2541977856657525  0.9963664835131425
  0.9970443712345940  0.7475327411398638  0.2710734864716215
  0.3389154907493577  0.4131914810654180  0.2376908454652025
  0.1584700244646555  0.5833088222833851  0.5013619195974925
  0.0027801564329692  0.7459790935342596  0.7276585482963824
  0.6669931094264996  0.0909982218260055  0.2537267380915367
  0.5083411329760423  0.2457712448928220  0.4964420995513876
  0.3391625811443930  0.4132443168144846  0.7606662520126477
  0.1668894022617451  0.5862197931309723  0.9987215066196100
  0.6552213638515028  0.0888345493983138  0.7461294447556597
  0.5004689814107834  0.2496713845114797  0.0047103510273345
  0.3367486460324045  0.7491430577184772  0.2446544584687800
  0.1535729905807983  0.9197170358150828  0.5059549064161075
  0.6674288766334087  0.4067346131540930  0.2691163191401955
  0.5125204213171770  0.5821721133569397  0.4999064604839560
  0.3268560645911620  0.7491003363216819  0.7525804952435138
  0.1620152537440163  0.9133982740021480  0.9940938152975534
  0.8254162380474952  0.2497501005756675  0.4918759908785475
  0.6683462620198668  0.4162730644680721  0.7390694364458383
  0.5013540307684821  0.5826612542784986  0.9994287135029012
  0.8293655760880441  0.2518591966815436  0.0116682080106543
  0.6690084724253396  0.7480445982208153  0.2514365017848377
  0.5029999796676776  0.9216870329269824  0.4994802304579338
  0.8245724436033726  0.5820493020101125  0.5148610444493613
  0.6712398748627209  0.7445932121047036  0.7424187564813494
  0.5004544140265139  0.9202500502625739  0.0015575523903024
  0.8300382044121832  0.5807947380670910  0.9817764576993326
  0.8494927094312388  0.9187438783563664  0.4918487785837300
  0.8395229704842819  0.9172953542201228  0.0058854644087347
 
  0.00000000E+00  0.00000000E+00  0.00000000E+00
  0.00000000E+00  0.00000000E+00  0.00000000E+00
  0.00000000E+00  0.00000000E+00  0.00000000E+00
  0.00000000E+00  0.00000000E+00  0.00000000E+00
  0.00000000E+00  0.00000000E+00  0.00000000E+00
  0.00000000E+00  0.00000000E+00  0.00000000E+00
  0.00000000E+00  0.00000000E+00  0.00000000E+00
  0.00000000E+00  0.00000000E+00  0.00000000E+00
  0.00000000E+00  0.00000000E+00  0.00000000E+00
  0.00000000E+00  0.00000000E+00  0.00000000E+00
  0.00000000E+00  0.00000000E+00  0.00000000E+00
  0.00000000E+00  0.00000000E+00  0.00000000E+00
  0.00000000E+00  0.00000000E+00  0.00000000E+00
  0.00000000E+00  0.00000000E+00  0.00000000E+00
  0.00000000E+00  0.00000000E+00  0.00000000E+00
  0.00000000E+00  0.00000000E+00  0.00000000E+00
  0.00000000E+00  0.00000000E+00  0.00000000E+00
  0.00000000E+00  0.00000000E+00  0.00000000E+00
  0.00000000E+00  0.00000000E+00  0.00000000E+00
  0.00000000E+00  0.00000000E+00  0.00000000E+00
  0.00000000E+00  0.00000000E+00  0.00000000E+00
  0.00000000E+00  0.00000000E+00  0.00000000E+00
  0.00000000E+00  0.00000000E+00  0.00000000E+00
  0.00000000E+00  0.00000000E+00  0.00000000E+00
  0.00000000E+00  0.00000000E+00  0.00000000E+00
  0.00000000E+00  0.00000000E+00  0.00000000E+00
  0.00000000E+00  0.00000000E+00  0.00000000E+00
  0.00000000E+00  0.00000000E+00  0.00000000E+00
  0.00000000E+00  0.00000000E+00  0.00000000E+00
  0.00000000E+00  0.00000000E+00  0.00000000E+00
  0.00000000E+00  0.00000000E+00  0.00000000E+00
  0.00000000E+00  0.00000000E+00  0.00000000E+00
  0.00000000E+00  0.00000000E+00  0.00000000E+00
  0.00000000E+00  0.00000000E+00  0.00000000E+00
  0.00000000E+00  0.00000000E+00  0.00000000E+00
  0.00000000E+00  0.00000000E+00  0.00000000E+00
  0.00000000E+00  0.00000000E+00  0.00000000E+00
  0.00000000E+00  0.00000000E+00  0.00000000E+00
  0.00000000E+00  0.00000000E+00  0.00000000E+00
  0.00000000E+00  0.00000000E+00  0.00000000E+00
  0.00000000E+00  0.00000000E+00  0.00000000E+00
  0.00000000E+00  0.00000000E+00  0.00000000E+00
  0.00000000E+00  0.00000000E+00  0.00000000E+00
  0.00000000E+00  0.00000000E+00  0.00000000E+00
  0.00000000E+00  0.00000000E+00  0.00000000E+00
  0.00000000E+00  0.00000000E+00  0.00000000E+00
  0.00000000E+00  0.00000000E+00  0.00000000E+00
  0.00000000E+00  0.00000000E+00  0.00000000E+00
  0.00000000E+00  0.00000000E+00  0.00000000E+00
  0.00000000E+00  0.00000000E+00  0.00000000E+00
  0.00000000E+00  0.00000000E+00  0.00000000E+00
  0.00000000E+00  0.00000000E+00  0.00000000E+00
  0.00000000E+00  0.00000000E+00  0.00000000E+00
  0.00000000E+00  0.00000000E+00  0.00000000E+00
  0.00000000E+00  0.00000000E+00  0.00000000E+00
  0.00000000E+00  0.00000000E+00  0.00000000E+00
  0.00000000E+00  0.00000000E+00  0.00000000E+00
  0.00000000E+00  0.00000000E+00  0.00000000E+00
  0.00000000E+00  0.00000000E+00  0.00000000E+00
  0.00000000E+00  0.00000000E+00  0.00000000E+00
  0.00000000E+00  0.00000000E+00  0.00000000E+00
  0.00000000E+00  0.00000000E+00  0.00000000E+00
  0.00000000E+00  0.00000000E+00  0.00000000E+00
  0.00000000E+00  0.00000000E+00  0.00000000E+00
  0.00000000E+00  0.00000000E+00  0.00000000E+00
  0.00000000E+00  0.00000000E+00  0.00000000E+00
  0.00000000E+00  0.00000000E+00  0.00000000E+00
  0.00000000E+00  0.00000000E+00  0.00000000E+00
  0.00000000E+00  0.00000000E+00  0.00000000E+00
  0.00000000E+00  0.00000000E+00  0.00000000E+00
  0.00000000E+00  0.00000000E+00  0.00000000E+00
  0.00000000E+00  0.00000000E+00  0.00000000E+00
  0.00000000E+00  0.00000000E+00  0.00000000E+00
  0.00000000E+00  0.00000000E+00  0.00000000E+00
  0.00000000E+00  0.00000000E+00  0.00000000E+00
  0.00000000E+00  0.00000000E+00  0.00000000E+00
  0.00000000E+00  0.00000000E+00  0.00000000E+00
  0.00000000E+00  0.00000000E+00  0.00000000E+00
  0.00000000E+00  0.00000000E+00  0.00000000E+00
  0.00000000E+00  0.00000000E+00  0.00000000E+00
  0.00000000E+00  0.00000000E+00  0.00000000E+00
  0.00000000E+00  0.00000000E+00  0.00000000E+00
  0.00000000E+00  0.00000000E+00  0.00000000E+00
  0.00000000E+00  0.00000000E+00  0.00000000E+00
  0.00000000E+00  0.00000000E+00  0.00000000E+00
  0.00000000E+00  0.00000000E+00  0.00000000E+00
  0.00000000E+00  0.00000000E+00  0.00000000E+00
  0.00000000E+00  0.00000000E+00  0.00000000E+00
  0.00000000E+00  0.00000000E+00  0.00000000E+00
  0.00000000E+00  0.00000000E+00  0.00000000E+00
  0.00000000E+00  0.00000000E+00  0.00000000E+00
  0.00000000E+00  0.00000000E+00  0.00000000E+00
  0.00000000E+00  0.00000000E+00  0.00000000E+00
  0.00000000E+00  0.00000000E+00  0.00000000E+00
  0.00000000E+00  0.00000000E+00  0.00000000E+00
  0.00000000E+00  0.00000000E+00  0.00000000E+00
  0.00000000E+00  0.00000000E+00  0.00000000E+00
  0.00000000E+00  0.00000000E+00  0.00000000E+00
  0.00000000E+00  0.00000000E+00  0.00000000E+00
  0.00000000E+00  0.00000000E+00  0.00000000E+00
  0.00000000E+00  0.00000000E+00  0.00000000E+00
  0.00000000E+00  0.00000000E+00  0.00000000E+00
  0.00000000E+00  0.00000000E+00  0.00000000E+00
  0.00000000E+00  0.00000000E+00  0.00000000E+00
  0.00000000E+00  0.00000000E+00  0.00000000E+00
  0.00000000E+00  0.00000000E+00  0.00000000E+00
  0.00000000E+00  0.00000000E+00  0.00000000E+00
  0.00000000E+00  0.00000000E+00  0.00000000E+00
  0.00000000E+00  0.00000000E+00  0.00000000E+00
  0.00000000E+00  0.00000000E+00  0.00000000E+00
  0.00000000E+00  0.00000000E+00  0.00000000E+00
  0.00000000E+00  0.00000000E+00  0.00000000E+00
  0.00000000E+00  0.00000000E+00  0.00000000E+00
  0.00000000E+00  0.00000000E+00  0.00000000E+00
  0.00000000E+00  0.00000000E+00  0.00000000E+00
  0.00000000E+00  0.00000000E+00  0.00000000E+00
  0.00000000E+00  0.00000000E+00  0.00000000E+00
  0.00000000E+00  0.00000000E+00  0.00000000E+00
  0.00000000E+00  0.00000000E+00  0.00000000E+00
  0.00000000E+00  0.00000000E+00  0.00000000E+00
  0.00000000E+00  0.00000000E+00  0.00000000E+00
  0.00000000E+00  0.00000000E+00  0.00000000E+00
  0.00000000E+00  0.00000000E+00  0.00000000E+00
  0.00000000E+00  0.00000000E+00  0.00000000E+00
  0.00000000E+00  0.00000000E+00  0.00000000E+00
  0.00000000E+00  0.00000000E+00  0.00000000E+00
  0.00000000E+00  0.00000000E+00  0.00000000E+00
  0.00000000E+00  0.00000000E+00  0.00000000E+00
  0.00000000E+00  0.00000000E+00  0.00000000E+00
  0.00000000E+00  0.00000000E+00  0.00000000E+00
  0.00000000E+00  0.00000000E+00  0.00000000E+00
  0.00000000E+00  0.00000000E+00  0.00000000E+00
  0.00000000E+00  0.00000000E+00  0.00000000E+00
  0.00000000E+00  0.00000000E+00  0.00000000E+00
  0.00000000E+00  0.00000000E+00  0.00000000E+00
  0.00000000E+00  0.00000000E+00  0.00000000E+00
  0.00000000E+00  0.00000000E+00  0.00000000E+00
  0.00000000E+00  0.00000000E+00  0.00000000E+00
  0.00000000E+00  0.00000000E+00  0.00000000E+00
  0.00000000E+00  0.00000000E+00  0.00000000E+00
  0.00000000E+00  0.00000000E+00  0.00000000E+00
  0.00000000E+00  0.00000000E+00  0.00000000E+00
  0.00000000E+00  0.00000000E+00  0.00000000E+00
  0.00000000E+00  0.00000000E+00  0.00000000E+00
  0.00000000E+00  0.00000000E+00  0.00000000E+00
  0.00000000E+00  0.00000000E+00  0.00000000E+00
  0.00000000E+00  0.00000000E+00  0.00000000E+00
  0.00000000E+00  0.00000000E+00  0.00000000E+00
  0.00000000E+00  0.00000000E+00  0.00000000E+00
  0.00000000E+00  0.00000000E+00  0.00000000E+00
  0.00000000E+00  0.00000000E+00  0.00000000E+00
  0.00000000E+00  0.00000000E+00  0.00000000E+00
  0.00000000E+00  0.00000000E+00  0.00000000E+00
  0.00000000E+00  0.00000000E+00  0.00000000E+00
  0.00000000E+00  0.00000000E+00  0.00000000E+00
  0.00000000E+00  0.00000000E+00  0.00000000E+00
  0.00000000E+00  0.00000000E+00  0.00000000E+00
  0.00000000E+00  0.00000000E+00  0.00000000E+00
  0.00000000E+00  0.00000000E+00  0.00000000E+00
  0.00000000E+00  0.00000000E+00  0.00000000E+00
  0.00000000E+00  0.00000000E+00  0.00000000E+00
  0.00000000E+00  0.00000000E+00  0.00000000E+00
  0.00000000E+00  0.00000000E+00  0.00000000E+00
  0.00000000E+00  0.00000000E+00  0.00000000E+00
  0.00000000E+00  0.00000000E+00  0.00000000E+00
  0.00000000E+00  0.00000000E+00  0.00000000E+00
  0.00000000E+00  0.00000000E+00  0.00000000E+00
  0.00000000E+00  0.00000000E+00  0.00000000E+00
  0.00000000E+00  0.00000000E+00  0.00000000E+00
  0.00000000E+00  0.00000000E+00  0.00000000E+00
  0.00000000E+00  0.00000000E+00  0.00000000E+00
  0.00000000E+00  0.00000000E+00  0.00000000E+00
  0.00000000E+00  0.00000000E+00  0.00000000E+00
  0.00000000E+00  0.00000000E+00  0.00000000E+00
  0.00000000E+00  0.00000000E+00  0.00000000E+00
  0.00000000E+00  0.00000000E+00  0.00000000E+00
  0.00000000E+00  0.00000000E+00  0.00000000E+00
  0.00000000E+00  0.00000000E+00  0.00000000E+00
  0.00000000E+00  0.00000000E+00  0.00000000E+00
  0.00000000E+00  0.00000000E+00  0.00000000E+00
  0.00000000E+00  0.00000000E+00  0.00000000E+00
  0.00000000E+00  0.00000000E+00  0.00000000E+00
  0.00000000E+00  0.00000000E+00  0.00000000E+00
  0.00000000E+00  0.00000000E+00  0.00000000E+00
  0.00000000E+00  0.00000000E+00  0.00000000E+00
  0.00000000E+00  0.00000000E+00  0.00000000E+00
  0.00000000E+00  0.00000000E+00  0.00000000E+00
  0.00000000E+00  0.00000000E+00  0.00000000E+00
  0.00000000E+00  0.00000000E+00  0.00000000E+00
  0.00000000E+00  0.00000000E+00  0.00000000E+00
  0.00000000E+00  0.00000000E+00  0.00000000E+00
  0.00000000E+00  0.00000000E+00  0.00000000E+00
  0.00000000E+00  0.00000000E+00  0.00000000E+00
  0.00000000E+00  0.00000000E+00  0.00000000E+00
  0.00000000E+00  0.00000000E+00  0.00000000E+00
  0.00000000E+00  0.00000000E+00  0.00000000E+00
  0.00000000E+00  0.00000000E+00  0.00000000E+00
  0.00000000E+00  0.00000000E+00  0.00000000E+00
  0.00000000E+00  0.00000000E+00  0.00000000E+00
  0.00000000E+00  0.00000000E+00  0.00000000E+00
  0.00000000E+00  0.00000000E+00  0.00000000E+00
  0.00000000E+00  0.00000000E+00  0.00000000E+00
  0.00000000E+00  0.00000000E+00  0.00000000E+00
  0.00000000E+00  0.00000000E+00  0.00000000E+00
  0.00000000E+00  0.00000000E+00  0.00000000E+00
  0.00000000E+00  0.00000000E+00  0.00000000E+00
  0.00000000E+00  0.00000000E+00  0.00000000E+00
  0.00000000E+00  0.00000000E+00  0.00000000E+00
  0.00000000E+00  0.00000000E+00  0.00000000E+00
  0.00000000E+00  0.00000000E+00  0.00000000E+00
  0.00000000E+00  0.00000000E+00  0.00000000E+00
  0.00000000E+00  0.00000000E+00  0.00000000E+00
  0.00000000E+00  0.00000000E+00  0.00000000E+00
  0.00000000E+00  0.00000000E+00  0.00000000E+00
  0.00000000E+00  0.00000000E+00  0.00000000E+00
  0.00000000E+00  0.00000000E+00  0.00000000E+00
  0.00000000E+00  0.00000000E+00  0.00000000E+00
  0.00000000E+00  0.00000000E+00  0.00000000E+00
  0.00000000E+00  0.00000000E+00  0.00000000E+00
  0.00000000E+00  0.00000000E+00  0.00000000E+00
  0.00000000E+00  0.00000000E+00  0.00000000E+00
  0.00000000E+00  0.00000000E+00  0.00000000E+00
  0.00000000E+00  0.00000000E+00  0.00000000E+00
  0.00000000E+00  0.00000000E+00  0.00000000E+00
  0.00000000E+00  0.00000000E+00  0.00000000E+00
  0.00000000E+00  0.00000000E+00  0.00000000E+00
  0.00000000E+00  0.00000000E+00  0.00000000E+00
  0.00000000E+00  0.00000000E+00  0.00000000E+00
  0.00000000E+00  0.00000000E+00  0.00000000E+00
  0.00000000E+00  0.00000000E+00  0.00000000E+00
  0.00000000E+00  0.00000000E+00  0.00000000E+00
  0.00000000E+00  0.00000000E+00  0.00000000E+00
  0.00000000E+00  0.00000000E+00  0.00000000E+00
  0.00000000E+00  0.00000000E+00  0.00000000E+00
  0.00000000E+00  0.00000000E+00  0.00000000E+00
  0.00000000E+00  0.00000000E+00  0.00000000E+00
  0.00000000E+00  0.00000000E+00  0.00000000E+00
  0.00000000E+00  0.00000000E+00  0.00000000E+00
  0.00000000E+00  0.00000000E+00  0.00000000E+00
  0.00000000E+00  0.00000000E+00  0.00000000E+00
  0.00000000E+00  0.00000000E+00  0.00000000E+00
  0.00000000E+00  0.00000000E+00  0.00000000E+00
  0.00000000E+00  0.00000000E+00  0.00000000E+00
  0.00000000E+00  0.00000000E+00  0.00000000E+00
  0.00000000E+00  0.00000000E+00  0.00000000E+00
  0.00000000E+00  0.00000000E+00  0.00000000E+00
  0.00000000E+00  0.00000000E+00  0.00000000E+00
  0.00000000E+00  0.00000000E+00  0.00000000E+00
  0.00000000E+00  0.00000000E+00  0.00000000E+00
  0.00000000E+00  0.00000000E+00  0.00000000E+00
  0.00000000E+00  0.00000000E+00  0.00000000E+00
  0.00000000E+00  0.00000000E+00  0.00000000E+00
