       N       E                     dE             d eps       ncg     rms          rms(c)
DAV:   1     0.144689260423E+05    0.14469E+05   -0.26872E+05138304   0.255E+03
DAV:   2     0.272485833060E+04   -0.11744E+05   -0.10969E+05137760   0.825E+02
DAV:   3    -0.197341642533E+03   -0.29222E+04   -0.26667E+04168392   0.427E+02
DAV:   4    -0.656716122661E+03   -0.45937E+03   -0.43677E+03233240   0.236E+02
DAV:   5    -0.689078884305E+03   -0.32363E+02   -0.31178E+02231712   0.745E+01
DAV:   6    -0.691432824503E+03   -0.23539E+01   -0.22938E+01238000   0.170E+01
DAV:   7    -0.691608267729E+03   -0.17544E+00   -0.17293E+00233944   0.463E+00
DAV:   8    -0.691626505589E+03   -0.18238E-01   -0.18090E-01253408   0.136E+00
DAV:   9    -0.691628094625E+03   -0.15890E-02   -0.15821E-02243368   0.401E-01
DAV:  10    -0.691628265695E+03   -0.17107E-03   -0.17066E-03255616   0.113E-01
DAV:  11    -0.691628279334E+03   -0.13639E-04   -0.13624E-04236008   0.282E-02
DAV:  12    -0.691628280747E+03   -0.14133E-05   -0.14143E-05190736   0.754E-03
DAV:  13    -0.691628280897E+03   -0.14976E-06   -0.15056E-06147792   0.264E-03
DAV:  14    -0.691628280916E+03   -0.19041E-07   -0.17496E-07138632   0.124E-03
   1 F= -.69162828E+03 E0= -.69162828E+03  d E =0.000000E+00
