POSCAR                                  
   1.00000000000000     
    10.0325677232539423   -0.0034318193427636    0.0105474935844767
    -0.0034230089337751   10.0197134850428480   -0.0021572076320010
     0.0070379879355534   -0.0014410386634500    6.6382442097185335
   Mg   Zr   Na   Ca   H 
     9     9     9     9   216
Direct
  0.1648080205228704  0.1643056380006757  0.2489980947149692
  0.1655854686108063  0.5012828062013071  0.2496175737171040
  0.3329189014614301  0.3339860534148582  0.0003490688495439
  0.8373341190140329  0.1621644776678811  0.2479975920681118
  0.4962287928315974  0.4945664000558234  0.7520081190252088
  0.6681264347389012  0.3335688668630053  0.9980775688704813
  0.5008210638137174  0.8367887332014471  0.7523684273956310
  0.9981933712463114  0.9944530500801001  0.4987847260268473
  0.9972757690747126  0.9989826699653673  0.0020011693526344
  0.1672752025750173  0.1644303022977348  0.7515964146594724
  0.4983345815629974  0.1636763032048620  0.2482071363147483
  0.1781271488589306  0.5076842622614256  0.7492172390114747
  0.4995222448709937  0.5104468447140428  0.2469279092442249
  0.6570681893055030  0.3382401497181234  0.5029196519437966
  0.3290912490706665  0.9943468737206194  0.5037288379954039
  0.0061103746558461  0.3300034510983110  0.4941647244501893
  0.8235272064374649  0.5088121813116062  0.7542135340941637
  0.6722809772625319  0.9876677537674393  0.5009747056236201
  0.3354273161253740  0.3367511582341234  0.4954256049067576
  0.4995181842385635  0.1664148145543668  0.7512144959871379
  0.3368743063231855  0.6631603026161365  0.5023144581884421
  0.1635594693657191  0.8322734143415742  0.7496543340588105
  0.5031908036411848  0.8275397169261167  0.2515354177436735
  0.6633436501507962  0.6679632494178622  0.5030320415061340
  0.6645483933627270  0.6681730170791186  0.9993503755451019
  0.8331779221246884  0.8316453902409255  0.2500628108235186
  0.8358579393729267  0.8354389251228677  0.7524639081568050
  0.1679686920639558  0.8336610196318760  0.2472453548432450
  0.3375369119090864  0.6699421722532214  0.0000684917891473
  0.8305984077437153  0.1599473019698179  0.7475245282735241
  0.8374530972523552  0.4996173815700830  0.2480485943559511
  0.3328468713058013 -0.0000081221318531 -0.0000305875510181
  0.9993805560984410  0.3322641967888710  0.0007761930593971
  0.9993596564637142  0.6772927202737343  0.5002687894079509
  0.6699536657430302  0.9986863213137542  0.0007856331111969
  0.9981623606261165  0.6699074060679034  0.0015437490245301
  0.1583530945800309  0.0810556706275225  0.0159399776405288
  0.1640937026995640  0.0840979530757155  0.4933640027399108
  0.1699678920628491  0.4169435931000782  0.0114814883896337
  0.5023274133280630  0.0840672948596852  0.9887450991724014
  0.3232363540104955  0.2532657015345390  0.2501010793148369
  0.1733227552146597  0.4175307843466011  0.4846471775865153
  0.5032702777169915  0.0847140245131051  0.5095561756051982
  0.3378608552384086  0.2521087203702669  0.7445500337609408
  0.1659679874315504  0.7514358004509191  0.9882072069910585
  0.4980930296392622  0.4115561773967547  0.9952659398912274
  0.3291332229050006  0.5872635797976709  0.2556588837757407
  0.1741316191325913  0.7482958189960933  0.5036680659609669
  0.8386578821662138  0.0824333081826410  0.0135124955082378
  0.6672800668966550  0.2501089534490350  0.2424424224299123
  0.4906313657309440  0.4162525089425343  0.5078233186503835
  0.3483610499512776  0.5870895211280110  0.7464275928507562
  0.8338619458407786  0.0851903213439802  0.4882350591910821
  0.6626591096249755  0.2497771665787528  0.7576830662797964
  0.5104111894880273  0.7545858957210981  0.9972044795648660
  0.3414319076729456  0.9124064570951710  0.2456024679152804
  0.8269061536126247  0.4162630444073449  0.9990219311928502
  0.6688414078329031  0.5855843826691611  0.2537287439702183
  0.4999490223164345  0.7529963710141634  0.5117675928917834
  0.3278907420256033  0.9143493826653752  0.7528279180129600
  0.0047760157961449  0.2466255809650682  0.2455682587184052
  0.8345419139580711  0.4157858406514003  0.5001190504865457
  0.6507837666448296  0.5851177638548449  0.7511739102861856
  0.9972482114404264  0.2489136552852956  0.7509619784666871
  0.8292710199447163  0.7509137938065313  0.9917653043979503
  0.6666133329614065  0.9122000519939267  0.2458357461934263
  0.0045102249907879  0.5824065429848678  0.2588446789663096
  0.8256510350561396  0.7461452718725982  0.5089355277081558
  0.6695311823220688  0.9103276902546011  0.7586998358697714
  0.0022908685072376  0.5840319900795279  0.7424052879516188
  0.9965349447612368  0.9154441808691646  0.2270870823579127
  0.0012648790991883  0.9161319042118994  0.7755737992785052
  0.0837804172474981  0.1669163528256617  0.0107053985431894
  0.0832744790847738  0.1537068516632143  0.4811921820491394
  0.0854908493732309  0.5001290212907600  0.9986432270178341
  0.4136990734941244  0.1779335265138778  0.9913823851401552
  0.2538373146558691  0.3377669271868687  0.2513892149172681
  0.0853248191045952  0.5056886659203423  0.5000650564820578
  0.4145785282819633  0.1719407211486042  0.5087456500640483
  0.2538334380219407  0.3349505277608457  0.7376823650243617
  0.0867648456209981  0.8386062199984859  0.9961977779471328
  0.4164137125334762  0.4941300821366981  0.9916606545038570
  0.2508248615973203  0.6599372633516489  0.2591279813176576
  0.0823867914092454  0.8434309346123465  0.5079698693774959
  0.7512794926313181  0.1680022835991385  0.0136479073244103
  0.5829609169866151  0.3319517341045052  0.2278164180369834
  0.4160202838656963  0.4993664032589377  0.5038352088192868
  0.2502816915268755  0.6765831107257309  0.7395671481557108
  0.7512955689176428  0.1688071967222029  0.4833798304960178
  0.5803265831943983  0.3315689972796302  0.7650729183680544
  0.4170219094603833  0.8342146483819490  0.9876350074933556
  0.2478623937211823  0.0066253932611585  0.2535712005097152
  0.7455308943009866  0.5063306996373111  0.0076808971235639
  0.5905942046517794  0.6756772487428579  0.2498652026890658
  0.4187896076590438  0.8262488271162139  0.5113614501424631
  0.2449120467216089  0.9912202491401076  0.7538716327764468
  0.9132070561853778  0.3191625347624089  0.2500620279439438
  0.7464330673663705  0.5062104921870885  0.4951534218163153
  0.5871872121375546  0.6851628459326364  0.7510546567223007
  0.9160532679904588  0.3356175741984802  0.7461712101820263
  0.7423221920876067  0.8264353669928377  0.0112417079427172
  0.5854585092871406  0.9943759425974270  0.2509164708660430
  0.9167358091246667  0.6736011874022605  0.2509584549613072
  0.7508036603940426  0.8240046336958841  0.5017934581592908
  0.5833092439140695  0.9928377810090172  0.7502506140727417
  0.9170453642392028  0.6717836510037567  0.7513821853961816
  0.9173644520762920  0.9952275922100149  0.2695626489376786
  0.9179634157514367  0.9938671076428490  0.7307837852034063
  0.1587549698489839  0.0089495499554210  0.1224479013196708
  0.1488795059262306  0.9923894276051264  0.6293741060327324
  0.1683410982004321  0.3311215976768500  0.1229781948657216
  0.5008987599509668  0.9815476650624786  0.1212439962339632
  0.3220967214443313  0.1754136990914211  0.3744696608913968
  0.1802449101070475  0.3360684181048267  0.6234269154335838
  0.5006845643103408  0.9985923396780390  0.6281089113742081
  0.3388469637436715  0.1732118131900159  0.8761320673171739
  0.1658272085654325  0.6573504726577096  0.1275410609355666
  0.5046303060304930  0.3386944806232954  0.1203372838078437
  0.3276622417224911  0.5010148652790511  0.3740636701953150
  0.1777522360364295  0.6763027487142496  0.6221581084422215
  0.8371007493363063  0.9996501428062292  0.1260150030547439
  0.6744093989450435  0.1677243955905091  0.3721776809947032
  0.4899821987958073  0.3357734050494489  0.6279917654088081
  0.3430776703488929  0.4940914996567717  0.8807444777526015
  0.8494031856758523  0.9927694717517722  0.6280225974317194
  0.6614433541886868  0.1716034074866082  0.8739200663436175
  0.5071655345391256  0.6736013392227150  0.1215589930830978
  0.3393144158612136  0.8196976620105140  0.3747618072203536
  0.8279640162606271  0.3241945623861359  0.1263621231035063
  0.6694652167207500  0.5123115897234071  0.3731460752920601
  0.5000010826298602  0.6526142221746827  0.6298803973511354
  0.3330854501253222  0.8360639776186821  0.8764941052433812
  0.0042258498398628  0.1537291605046792  0.3744135743453122
  0.8290110110882241  0.3291972490842511  0.6236683079620670
  0.6524438671855033  0.4984866051548255  0.8782161888369628
  0.9963068573511826  0.1518646359484137  0.8760027070478665
  0.8228722004857940  0.6687406262689156  0.1272342446188349
  0.6695294741596288  0.8220235195676785  0.3702642318040186
  0.0063661633214553  0.5096153595462243  0.3749476672608726
  0.8231762347177950  0.6840667905360373  0.6222043619590421
  0.6703941649129527  0.8344588767962690  0.8758284753814933
  0.0029274044041008  0.5011082657541567  0.8735451486049207
  0.9962451449524052  0.8386611444647424  0.3707761273902924
  0.9981490205727042  0.8443771265585028  0.8728556886017795
  0.0803711967353689  0.9995877172257387  0.2688540005786580
  0.0792464453309418  0.9898683219534807  0.7316475075481261
  0.0878815261221284  0.3236956074336825  0.2438701234345962
  0.4168488791729832  0.9950762729188964  0.2530779955076069
  0.2514731128457767  0.1756597288547647  0.4821742216032540
  0.0831790987531752  0.3416279845268864  0.7531532362024081
  0.4178962943406804  0.0004649760462522  0.7487645226643769
  0.2500755254359173  0.1697129456464869  0.0145184193788502
  0.0847340048547071  0.6678384526452374  0.2485211301696084
  0.4129976351308565  0.3358236396938026  0.2421274172732071
  0.2550968538832354  0.4987941630590451  0.4855498424313581
  0.0819446503802114  0.6700154273351876  0.7514919737545459
  0.7556068999700684  0.9971832211327660  0.2488747453225169
  0.5815116099488774  0.1615333970222773  0.5054361589004835
  0.4148809927680624  0.3292203972574671  0.7557624139138275
  0.2534415824593678  0.4988300168309903  0.0176079446050109
  0.7542779053515104  0.9908631446666953  0.7532960740448339
  0.5824401313264945  0.1742334205795719  0.9951257165681517
  0.4157815288668840  0.6707643470287198  0.2625620259601920
  0.2510151395115629  0.8233613760617317  0.5115021294826287
  0.7504374052247998  0.3281083651085459  0.2486062176515654
  0.5814712934291384  0.5072109542994688  0.5086199020720626
  0.4152617704869961  0.6780668057109202  0.7456362091811327
  0.2522066094259167  0.8329883648881271  0.9839237744584499
  0.9150128162669834  0.1576367642398416  0.4884361870188576
  0.7506986610748080  0.3294702613583046  0.7525392853551132
  0.5823381547697813  0.4989118089131973  0.9892726764121119
  0.9152182279031503  0.1650672761361145  0.0036106205633487
  0.7533622131010186  0.6711474470928452  0.2504694367387266
  0.5805970148369071  0.8249349389996610  0.5086347161258193
  0.9165906223164406  0.5015168524047439  0.5063695299857491
  0.7502549405333363  0.6769393493196147  0.7524195818560450
  0.5809998965961884  0.8258360975677257  0.9920068310886394
  0.9174775973052024  0.5007342943561559  0.9932715593769947
  0.9155993748713834  0.8438133186373108  0.4998586486477590
  0.9092765720342270  0.8392526762461416  0.0025553941417485
  0.0017166619967408  0.1555574178135478  0.1255521485389985
  0.9993775124806428  0.1502877917533621  0.6232186812620154
  0.0080931000026436  0.5007639419277199  0.1234599939565003
  0.3213743131567914  0.1699963604300017  0.1257186625032457
  0.1756116934569105  0.3393673828852526  0.3704247096487821
  0.0024006221629881  0.5086044971677294  0.6253460734705696
  0.3370007771035625  0.1768929685252379  0.6227757413033661
  0.1746803672807071  0.3333302267237598  0.8773225684956563
  0.9961897514296184  0.8443626092142130  0.1248898269814234
  0.3256444983870008  0.4990891927460753  0.1247289230668033
  0.1735733701524034  0.6600722702366202  0.3761501985934752
  0.0008967645307070  0.8405759912058764  0.6267331861451375
  0.6786858397713170  0.1717886715267214  0.1244272740324007
  0.4922602554990402  0.3398002522256334  0.3712739937503737
  0.3456960776304460  0.4989267261011408  0.6198120888819502
  0.1693325174921949  0.6768466648267455  0.8771437783771231
  0.6593759240518480  0.1656980644043947  0.6249223110784983
  0.5006491980266672  0.3327146260779047  0.8784739770657460
  0.3431226769508234  0.8369536457912401  0.1280141814737978
  0.1481648525239458  0.0029997197941829  0.3675789368738788
  0.6700146510439745  0.5009486813245964  0.1197059821003922
  0.5003909170782888  0.6701754141190599  0.3808975458313427
  0.3281411839345681  0.8255794845046178  0.6242979285880128
  0.1607895578221799  0.9955474584423215  0.8772724937177440
  0.8273603043337723  0.3282234036142786  0.3726728894555661
  0.6495193798594521  0.5120130750421006  0.6283492986823089
  0.5047798827375377  0.6554980304538391  0.8702432251993271
  0.8249401990624216  0.3239769375183123  0.8766108663048510
  0.6763322848865158  0.8301511055589721  0.1222253446517129
  0.4998060923263393  0.9853239212137106  0.3754101675568883
  0.8235224851635099  0.6697477530403101  0.3744210165606436
  0.6736583741975638  0.8266562972036868  0.6258451373984051
  0.5016752816432211  0.0010648346554929  0.8738681227167040
  0.8234040372846615  0.6834822165551454  0.8791630644535399
  0.8491114751248142  0.9937417527048422  0.3677551874539017
  0.8376488462987166  0.9941146052580617  0.8768449348047691
  0.9953517453316892  0.0840392798217145  0.2377911239410420
  0.9989578543107375  0.0818149397383665  0.7664939208093906
  0.0098578568817802  0.4148009431209572  0.2482743413490008
  0.3274645223034908  0.0840386831476698  0.2506540784020185
  0.1746479307817018  0.2503900301177007  0.4862086122586416
  0.0018921216366888  0.4150147583951506  0.7494083587510677
  0.3400748347576796  0.0862480814933952  0.7528259179790299
  0.1709343268990913  0.2524678472995494  0.0124036868775358
  0.9932145495905518  0.7519499210405379  0.2502535422503837
  0.3285501673360390  0.4146200424611673  0.2460982620710579
  0.1650966240680974  0.5854508492715200  0.4849223797221869
  0.9977241122787184  0.7547713316470578  0.7531454649245195
  0.6759770617702553  0.0860001103066126  0.2535782538336752
  0.4914303860518938  0.2482593626646247  0.5086084228318759
  0.3370217928418615  0.4124754392423529  0.7509085935612309
  0.1682847483126413  0.5849115395877547  0.0157586396663302
  0.6587612531071367  0.0863776733894429  0.7480488206864960
  0.5012589269046969  0.2496654881436187  0.9947013240831603
  0.3390119422505999  0.7510771476643660  0.2679452105127506
  0.1615668522473817  0.9134467877644389  0.5036987866960855
  0.6669450980338610  0.4156521197021923  0.2358905417239549
  0.5011114875804534  0.5920644185854008  0.5312973353927866
  0.3460821934044968  0.7495702961931278  0.7400612277904226
  0.1530602539888535  0.9155400352217173  0.9891073999613036
  0.8315989607607382  0.2485446910142777  0.4968580819059468
  0.6605580666917474  0.4159248878147862  0.7630098096883997
  0.5060764330709070  0.5891642834975523  0.9682851656493460
  0.8312363394040793  0.2497902831490908  0.9949248331282274
  0.6650342659168299  0.7469219647113705  0.2581372059423468
  0.4994511559019631  0.9156979476850134  0.4847809109883703
  0.8308839126952913  0.5857444037706098  0.4964948055460117
  0.6549016315288017  0.7476200770550453  0.7477175714184420
  0.5027574655926691  0.9173510283663387  0.0175374958612181
  0.8251534923612713  0.5880840963949540  0.0068829678300558
  0.8401243949726912  0.9070705454521549  0.4966033270543007
  0.8448074388334623  0.9141779270577586  0.0044046618948188
 
  0.00000000E+00  0.00000000E+00  0.00000000E+00
  0.00000000E+00  0.00000000E+00  0.00000000E+00
  0.00000000E+00  0.00000000E+00  0.00000000E+00
  0.00000000E+00  0.00000000E+00  0.00000000E+00
  0.00000000E+00  0.00000000E+00  0.00000000E+00
  0.00000000E+00  0.00000000E+00  0.00000000E+00
  0.00000000E+00  0.00000000E+00  0.00000000E+00
  0.00000000E+00  0.00000000E+00  0.00000000E+00
  0.00000000E+00  0.00000000E+00  0.00000000E+00
  0.00000000E+00  0.00000000E+00  0.00000000E+00
  0.00000000E+00  0.00000000E+00  0.00000000E+00
  0.00000000E+00  0.00000000E+00  0.00000000E+00
  0.00000000E+00  0.00000000E+00  0.00000000E+00
  0.00000000E+00  0.00000000E+00  0.00000000E+00
  0.00000000E+00  0.00000000E+00  0.00000000E+00
  0.00000000E+00  0.00000000E+00  0.00000000E+00
  0.00000000E+00  0.00000000E+00  0.00000000E+00
  0.00000000E+00  0.00000000E+00  0.00000000E+00
  0.00000000E+00  0.00000000E+00  0.00000000E+00
  0.00000000E+00  0.00000000E+00  0.00000000E+00
  0.00000000E+00  0.00000000E+00  0.00000000E+00
  0.00000000E+00  0.00000000E+00  0.00000000E+00
  0.00000000E+00  0.00000000E+00  0.00000000E+00
  0.00000000E+00  0.00000000E+00  0.00000000E+00
  0.00000000E+00  0.00000000E+00  0.00000000E+00
  0.00000000E+00  0.00000000E+00  0.00000000E+00
  0.00000000E+00  0.00000000E+00  0.00000000E+00
  0.00000000E+00  0.00000000E+00  0.00000000E+00
  0.00000000E+00  0.00000000E+00  0.00000000E+00
  0.00000000E+00  0.00000000E+00  0.00000000E+00
  0.00000000E+00  0.00000000E+00  0.00000000E+00
  0.00000000E+00  0.00000000E+00  0.00000000E+00
  0.00000000E+00  0.00000000E+00  0.00000000E+00
  0.00000000E+00  0.00000000E+00  0.00000000E+00
  0.00000000E+00  0.00000000E+00  0.00000000E+00
  0.00000000E+00  0.00000000E+00  0.00000000E+00
  0.00000000E+00  0.00000000E+00  0.00000000E+00
  0.00000000E+00  0.00000000E+00  0.00000000E+00
  0.00000000E+00  0.00000000E+00  0.00000000E+00
  0.00000000E+00  0.00000000E+00  0.00000000E+00
  0.00000000E+00  0.00000000E+00  0.00000000E+00
  0.00000000E+00  0.00000000E+00  0.00000000E+00
  0.00000000E+00  0.00000000E+00  0.00000000E+00
  0.00000000E+00  0.00000000E+00  0.00000000E+00
  0.00000000E+00  0.00000000E+00  0.00000000E+00
  0.00000000E+00  0.00000000E+00  0.00000000E+00
  0.00000000E+00  0.00000000E+00  0.00000000E+00
  0.00000000E+00  0.00000000E+00  0.00000000E+00
  0.00000000E+00  0.00000000E+00  0.00000000E+00
  0.00000000E+00  0.00000000E+00  0.00000000E+00
  0.00000000E+00  0.00000000E+00  0.00000000E+00
  0.00000000E+00  0.00000000E+00  0.00000000E+00
  0.00000000E+00  0.00000000E+00  0.00000000E+00
  0.00000000E+00  0.00000000E+00  0.00000000E+00
  0.00000000E+00  0.00000000E+00  0.00000000E+00
  0.00000000E+00  0.00000000E+00  0.00000000E+00
  0.00000000E+00  0.00000000E+00  0.00000000E+00
  0.00000000E+00  0.00000000E+00  0.00000000E+00
  0.00000000E+00  0.00000000E+00  0.00000000E+00
  0.00000000E+00  0.00000000E+00  0.00000000E+00
  0.00000000E+00  0.00000000E+00  0.00000000E+00
  0.00000000E+00  0.00000000E+00  0.00000000E+00
  0.00000000E+00  0.00000000E+00  0.00000000E+00
  0.00000000E+00  0.00000000E+00  0.00000000E+00
  0.00000000E+00  0.00000000E+00  0.00000000E+00
  0.00000000E+00  0.00000000E+00  0.00000000E+00
  0.00000000E+00  0.00000000E+00  0.00000000E+00
  0.00000000E+00  0.00000000E+00  0.00000000E+00
  0.00000000E+00  0.00000000E+00  0.00000000E+00
  0.00000000E+00  0.00000000E+00  0.00000000E+00
  0.00000000E+00  0.00000000E+00  0.00000000E+00
  0.00000000E+00  0.00000000E+00  0.00000000E+00
  0.00000000E+00  0.00000000E+00  0.00000000E+00
  0.00000000E+00  0.00000000E+00  0.00000000E+00
  0.00000000E+00  0.00000000E+00  0.00000000E+00
  0.00000000E+00  0.00000000E+00  0.00000000E+00
  0.00000000E+00  0.00000000E+00  0.00000000E+00
  0.00000000E+00  0.00000000E+00  0.00000000E+00
  0.00000000E+00  0.00000000E+00  0.00000000E+00
  0.00000000E+00  0.00000000E+00  0.00000000E+00
  0.00000000E+00  0.00000000E+00  0.00000000E+00
  0.00000000E+00  0.00000000E+00  0.00000000E+00
  0.00000000E+00  0.00000000E+00  0.00000000E+00
  0.00000000E+00  0.00000000E+00  0.00000000E+00
  0.00000000E+00  0.00000000E+00  0.00000000E+00
  0.00000000E+00  0.00000000E+00  0.00000000E+00
  0.00000000E+00  0.00000000E+00  0.00000000E+00
  0.00000000E+00  0.00000000E+00  0.00000000E+00
  0.00000000E+00  0.00000000E+00  0.00000000E+00
  0.00000000E+00  0.00000000E+00  0.00000000E+00
  0.00000000E+00  0.00000000E+00  0.00000000E+00
  0.00000000E+00  0.00000000E+00  0.00000000E+00
  0.00000000E+00  0.00000000E+00  0.00000000E+00
  0.00000000E+00  0.00000000E+00  0.00000000E+00
  0.00000000E+00  0.00000000E+00  0.00000000E+00
  0.00000000E+00  0.00000000E+00  0.00000000E+00
  0.00000000E+00  0.00000000E+00  0.00000000E+00
  0.00000000E+00  0.00000000E+00  0.00000000E+00
  0.00000000E+00  0.00000000E+00  0.00000000E+00
  0.00000000E+00  0.00000000E+00  0.00000000E+00
  0.00000000E+00  0.00000000E+00  0.00000000E+00
  0.00000000E+00  0.00000000E+00  0.00000000E+00
  0.00000000E+00  0.00000000E+00  0.00000000E+00
  0.00000000E+00  0.00000000E+00  0.00000000E+00
  0.00000000E+00  0.00000000E+00  0.00000000E+00
  0.00000000E+00  0.00000000E+00  0.00000000E+00
  0.00000000E+00  0.00000000E+00  0.00000000E+00
  0.00000000E+00  0.00000000E+00  0.00000000E+00
  0.00000000E+00  0.00000000E+00  0.00000000E+00
  0.00000000E+00  0.00000000E+00  0.00000000E+00
  0.00000000E+00  0.00000000E+00  0.00000000E+00
  0.00000000E+00  0.00000000E+00  0.00000000E+00
  0.00000000E+00  0.00000000E+00  0.00000000E+00
  0.00000000E+00  0.00000000E+00  0.00000000E+00
  0.00000000E+00  0.00000000E+00  0.00000000E+00
  0.00000000E+00  0.00000000E+00  0.00000000E+00
  0.00000000E+00  0.00000000E+00  0.00000000E+00
  0.00000000E+00  0.00000000E+00  0.00000000E+00
  0.00000000E+00  0.00000000E+00  0.00000000E+00
  0.00000000E+00  0.00000000E+00  0.00000000E+00
  0.00000000E+00  0.00000000E+00  0.00000000E+00
  0.00000000E+00  0.00000000E+00  0.00000000E+00
  0.00000000E+00  0.00000000E+00  0.00000000E+00
  0.00000000E+00  0.00000000E+00  0.00000000E+00
  0.00000000E+00  0.00000000E+00  0.00000000E+00
  0.00000000E+00  0.00000000E+00  0.00000000E+00
  0.00000000E+00  0.00000000E+00  0.00000000E+00
  0.00000000E+00  0.00000000E+00  0.00000000E+00
  0.00000000E+00  0.00000000E+00  0.00000000E+00
  0.00000000E+00  0.00000000E+00  0.00000000E+00
  0.00000000E+00  0.00000000E+00  0.00000000E+00
  0.00000000E+00  0.00000000E+00  0.00000000E+00
  0.00000000E+00  0.00000000E+00  0.00000000E+00
  0.00000000E+00  0.00000000E+00  0.00000000E+00
  0.00000000E+00  0.00000000E+00  0.00000000E+00
  0.00000000E+00  0.00000000E+00  0.00000000E+00
  0.00000000E+00  0.00000000E+00  0.00000000E+00
  0.00000000E+00  0.00000000E+00  0.00000000E+00
  0.00000000E+00  0.00000000E+00  0.00000000E+00
  0.00000000E+00  0.00000000E+00  0.00000000E+00
  0.00000000E+00  0.00000000E+00  0.00000000E+00
  0.00000000E+00  0.00000000E+00  0.00000000E+00
  0.00000000E+00  0.00000000E+00  0.00000000E+00
  0.00000000E+00  0.00000000E+00  0.00000000E+00
  0.00000000E+00  0.00000000E+00  0.00000000E+00
  0.00000000E+00  0.00000000E+00  0.00000000E+00
  0.00000000E+00  0.00000000E+00  0.00000000E+00
  0.00000000E+00  0.00000000E+00  0.00000000E+00
  0.00000000E+00  0.00000000E+00  0.00000000E+00
  0.00000000E+00  0.00000000E+00  0.00000000E+00
  0.00000000E+00  0.00000000E+00  0.00000000E+00
  0.00000000E+00  0.00000000E+00  0.00000000E+00
  0.00000000E+00  0.00000000E+00  0.00000000E+00
  0.00000000E+00  0.00000000E+00  0.00000000E+00
  0.00000000E+00  0.00000000E+00  0.00000000E+00
  0.00000000E+00  0.00000000E+00  0.00000000E+00
  0.00000000E+00  0.00000000E+00  0.00000000E+00
  0.00000000E+00  0.00000000E+00  0.00000000E+00
  0.00000000E+00  0.00000000E+00  0.00000000E+00
  0.00000000E+00  0.00000000E+00  0.00000000E+00
  0.00000000E+00  0.00000000E+00  0.00000000E+00
  0.00000000E+00  0.00000000E+00  0.00000000E+00
  0.00000000E+00  0.00000000E+00  0.00000000E+00
  0.00000000E+00  0.00000000E+00  0.00000000E+00
  0.00000000E+00  0.00000000E+00  0.00000000E+00
  0.00000000E+00  0.00000000E+00  0.00000000E+00
  0.00000000E+00  0.00000000E+00  0.00000000E+00
  0.00000000E+00  0.00000000E+00  0.00000000E+00
  0.00000000E+00  0.00000000E+00  0.00000000E+00
  0.00000000E+00  0.00000000E+00  0.00000000E+00
  0.00000000E+00  0.00000000E+00  0.00000000E+00
  0.00000000E+00  0.00000000E+00  0.00000000E+00
  0.00000000E+00  0.00000000E+00  0.00000000E+00
  0.00000000E+00  0.00000000E+00  0.00000000E+00
  0.00000000E+00  0.00000000E+00  0.00000000E+00
  0.00000000E+00  0.00000000E+00  0.00000000E+00
  0.00000000E+00  0.00000000E+00  0.00000000E+00
  0.00000000E+00  0.00000000E+00  0.00000000E+00
  0.00000000E+00  0.00000000E+00  0.00000000E+00
  0.00000000E+00  0.00000000E+00  0.00000000E+00
  0.00000000E+00  0.00000000E+00  0.00000000E+00
  0.00000000E+00  0.00000000E+00  0.00000000E+00
  0.00000000E+00  0.00000000E+00  0.00000000E+00
  0.00000000E+00  0.00000000E+00  0.00000000E+00
  0.00000000E+00  0.00000000E+00  0.00000000E+00
  0.00000000E+00  0.00000000E+00  0.00000000E+00
  0.00000000E+00  0.00000000E+00  0.00000000E+00
  0.00000000E+00  0.00000000E+00  0.00000000E+00
  0.00000000E+00  0.00000000E+00  0.00000000E+00
  0.00000000E+00  0.00000000E+00  0.00000000E+00
  0.00000000E+00  0.00000000E+00  0.00000000E+00
  0.00000000E+00  0.00000000E+00  0.00000000E+00
  0.00000000E+00  0.00000000E+00  0.00000000E+00
  0.00000000E+00  0.00000000E+00  0.00000000E+00
  0.00000000E+00  0.00000000E+00  0.00000000E+00
  0.00000000E+00  0.00000000E+00  0.00000000E+00
  0.00000000E+00  0.00000000E+00  0.00000000E+00
  0.00000000E+00  0.00000000E+00  0.00000000E+00
  0.00000000E+00  0.00000000E+00  0.00000000E+00
  0.00000000E+00  0.00000000E+00  0.00000000E+00
  0.00000000E+00  0.00000000E+00  0.00000000E+00
  0.00000000E+00  0.00000000E+00  0.00000000E+00
  0.00000000E+00  0.00000000E+00  0.00000000E+00
  0.00000000E+00  0.00000000E+00  0.00000000E+00
  0.00000000E+00  0.00000000E+00  0.00000000E+00
  0.00000000E+00  0.00000000E+00  0.00000000E+00
  0.00000000E+00  0.00000000E+00  0.00000000E+00
  0.00000000E+00  0.00000000E+00  0.00000000E+00
  0.00000000E+00  0.00000000E+00  0.00000000E+00
  0.00000000E+00  0.00000000E+00  0.00000000E+00
  0.00000000E+00  0.00000000E+00  0.00000000E+00
  0.00000000E+00  0.00000000E+00  0.00000000E+00
  0.00000000E+00  0.00000000E+00  0.00000000E+00
  0.00000000E+00  0.00000000E+00  0.00000000E+00
  0.00000000E+00  0.00000000E+00  0.00000000E+00
  0.00000000E+00  0.00000000E+00  0.00000000E+00
  0.00000000E+00  0.00000000E+00  0.00000000E+00
  0.00000000E+00  0.00000000E+00  0.00000000E+00
  0.00000000E+00  0.00000000E+00  0.00000000E+00
  0.00000000E+00  0.00000000E+00  0.00000000E+00
  0.00000000E+00  0.00000000E+00  0.00000000E+00
  0.00000000E+00  0.00000000E+00  0.00000000E+00
  0.00000000E+00  0.00000000E+00  0.00000000E+00
  0.00000000E+00  0.00000000E+00  0.00000000E+00
  0.00000000E+00  0.00000000E+00  0.00000000E+00
  0.00000000E+00  0.00000000E+00  0.00000000E+00
  0.00000000E+00  0.00000000E+00  0.00000000E+00
  0.00000000E+00  0.00000000E+00  0.00000000E+00
  0.00000000E+00  0.00000000E+00  0.00000000E+00
  0.00000000E+00  0.00000000E+00  0.00000000E+00
  0.00000000E+00  0.00000000E+00  0.00000000E+00
  0.00000000E+00  0.00000000E+00  0.00000000E+00
  0.00000000E+00  0.00000000E+00  0.00000000E+00
  0.00000000E+00  0.00000000E+00  0.00000000E+00
  0.00000000E+00  0.00000000E+00  0.00000000E+00
  0.00000000E+00  0.00000000E+00  0.00000000E+00
  0.00000000E+00  0.00000000E+00  0.00000000E+00
  0.00000000E+00  0.00000000E+00  0.00000000E+00
  0.00000000E+00  0.00000000E+00  0.00000000E+00
  0.00000000E+00  0.00000000E+00  0.00000000E+00
  0.00000000E+00  0.00000000E+00  0.00000000E+00
  0.00000000E+00  0.00000000E+00  0.00000000E+00
  0.00000000E+00  0.00000000E+00  0.00000000E+00
  0.00000000E+00  0.00000000E+00  0.00000000E+00
  0.00000000E+00  0.00000000E+00  0.00000000E+00
  0.00000000E+00  0.00000000E+00  0.00000000E+00
  0.00000000E+00  0.00000000E+00  0.00000000E+00
  0.00000000E+00  0.00000000E+00  0.00000000E+00
  0.00000000E+00  0.00000000E+00  0.00000000E+00
  0.00000000E+00  0.00000000E+00  0.00000000E+00
  0.00000000E+00  0.00000000E+00  0.00000000E+00
  0.00000000E+00  0.00000000E+00  0.00000000E+00
