POSCAR                                  
   1.00000000000000     
    10.3545898579814981   -0.0095877765298064   -0.0874938057379920
    -0.0104474897556464   10.2682459430636133    0.0268160854084251
    -0.0593583973634084    0.0179585897816030    6.8314156873700371
   La   Hf   Y    Ca   H 
     9     9     9     9   216
Direct
  0.1704771380914565  0.1688013143034937  0.2788169611625264
  0.1687390248489677  0.8228845330067642  0.2692617839334233
  0.3245681169520793  0.6674752944457936  0.4832031286626943
  0.3190590812825675  0.0037644802081900  0.4880395362700369
  0.8491301718581212  0.4998209708030998  0.2600937467712043
  0.0052436643594405  0.3311546972981105  0.4832059194724323
  0.8396979182554389  0.5042171528617061  0.7515197098058337
  0.6633989185650080  0.9984145056912013  0.4917804624445949
  0.9920804608533871  0.6612198607511033  0.4987812486754848
  0.1549503884362196  0.1670271359592377  0.7751593488340305
  0.1836309870325294  0.4927722932208951  0.2157381372696676
  0.5129719240618655  0.1568116016733185  0.7466655446068202
  0.3555160681235847  0.3144144153463131  0.9791013789417065
  0.3529346884881761  0.6808458944912275  0.9878938954913110
  0.8313374383858729  0.1631576816881548  0.7509017784312348
  0.3306265626511617  0.0016828458875864  0.9916929888744335
  0.6644040873043409  0.6694429622780333  0.9963195405755343
  0.9904024280542814  0.3162989505163267  0.0004760370856260
  0.5084309736226942  0.1679282737170595  0.2402693577278185
  0.3349181673091408  0.3335072363099272  0.5143441018671666
  0.1739123301453205  0.4990270255006877  0.7831708896541372
  0.1571189370775699  0.8287143697307542  0.7706407788005833
  0.6651321895072471  0.3380795235757006  0.4969954137821304
  0.4964960750793352  0.5056602925379039  0.7447439442060997
  0.6689197355839838  0.3383722374122229  0.9983648035798538
  0.6581577874615192  0.6691000476932487  0.4990518774810297
  0.8276083861403620  0.8412312608840011  0.2481831947895472
  0.5009133158042900  0.4998455212519772  0.2425132349973467
  0.8293658044511858  0.1616749257154524  0.2475264094180289
  0.5049509532274001  0.8334113107703018  0.2391527233664945
  0.4994354298419879  0.8426009134260397  0.7430880263511597
  0.8268456013670686  0.8402103358980852  0.7527239241345072
  0.6738240223456344  0.0002121855450028  0.9960559190046254
  0.9851030365441247  0.6799302876147166  0.9963800749633833
  0.9939885960513308  0.9999633387534743  0.5102518189818781
  0.9960923413864080  0.9952027800004686  0.0033632710187064
  0.1585326966853700  0.0831517180482138  0.0215921255546263
  0.1521476609990202  0.0821497273364997  0.5384526586288985
  0.2358869148057039  0.4218412250019981  0.9973856487184776
  0.5098963782029884  0.0758040818212464  0.9978317004040633
  0.3450740430735735  0.2538451691323544  0.2491855725544951
  0.1711638964844013  0.4154824852737420  0.5353358766463145
  0.4919810717183992  0.0840425948044512  0.4932937766294643
  0.3542296065820096  0.2359777065051318  0.7457566158665188
  0.1742680599057067  0.7371670268998614  0.0092502159123242
  0.5026696372376733  0.4215814041057016  0.9961109659170830
  0.3438350206270187  0.5766123279700821  0.2170431646667197
  0.1568723226713118  0.7452065868832136  0.5305869331726853
  0.8370231728331206  0.0808268940612109  0.9998757273433725
  0.6717838684410466  0.2519692896805665  0.2468457407730469
  0.5000169986698566  0.4160586895385592  0.4893871219347261
  0.3337806544141841  0.5884500435222364  0.7516369517307666
  0.8351646606242227  0.0826149676348464  0.5021205508324655
  0.6678365223997815  0.2543786444371392  0.7476029136636839
  0.5111785415162586  0.7632789657684711  0.9897329130238504
  0.3428177087475248  0.9136673800381061  0.2310615680075045
  0.8360577405047991  0.4183741021175749  0.0051018037365864
  0.6664060207886067  0.5804588797567760  0.2477298111365300
  0.4945488304218060  0.7557736899413001  0.4998876069029308
  0.3303799679392441  0.9216225113273140  0.7501126218188290
  0.9939407196359440  0.2365404070562818  0.2393786020541384
  0.8293188224326045  0.4060444439506057  0.5078031658028053
  0.6643116964680118  0.5874913017537793  0.7489728377117473
  0.9910054345360919  0.2479179464429961  0.7423632113609884
  0.8196750697751582  0.7590247732734596  0.9975272432307349
  0.6600804021632385  0.9154627562595365  0.2287600754301522
  0.0152760113115420  0.5788091124487451  0.2143179780904489
  0.8255226218677834  0.7589979670145723  0.5066796947251433
  0.6631045391538777  0.9143280505972484  0.7596465002064363
  0.0131153940563848  0.5793394732134303  0.7817939975957131
  0.9963295851296508  0.9193890262510465  0.2575654979129638
  0.9904903276189287  0.9216777713161477  0.7538625295423174
  0.0790085988732585  0.1587672327081364  0.0212998761969345
  0.0728019561694069  0.1578041151522669  0.5294237702212143
  0.1066873759450004  0.4321823910891140  0.0051247800581962
  0.4226911052582736  0.1499719646093141  0.9764094112393948
  0.2684467820891925  0.3329722296544091  0.2490019001218329
  0.0967467051280266  0.4991493409005798  0.5157227889113187
  0.4194218139435506  0.1695520717219310  0.4976209680219981
  0.2501157761107535  0.3187099722473761  0.7631411594115107
  0.0762700464839199  0.8347296804653439  0.0158199553847496
  0.4116482049431198  0.5000188288792629  0.0023101658959561
  0.2452834992973791  0.6582905166568906  0.1946755415419545
  0.0673004124763779  0.8385040154554488  0.5202261416872318
  0.7475126749603049  0.1684951284851195  0.0049145438916227
  0.5840025098391948  0.3397562712276354  0.2462823097091373
  0.4149041805060634  0.4986597036697091  0.4855965665967119
  0.2483668164578035  0.6683933893179841  0.7611963121722667
  0.7466572066387513  0.1704739053320026  0.4920923646194026
  0.5893968580367286  0.3309015801804804  0.7463380006072384
  0.4245584964991025  0.8474813685216205  0.9915226987165724
  0.2439088468873862  0.9974122980691007  0.2211957348789255
  0.7609541474705424  0.5006965876654661  0.0081344527712162
  0.5859605525033942  0.6652356924935390  0.2386890006086020
  0.4141240661244296  0.8358900527490221  0.4924084302097071
  0.2377861906397740  0.0002260827033922  0.7469072570357440
  0.9115965064338383  0.3177249451405615  0.2312512707068493
  0.7440696677867749  0.5046091130856851  0.5003546496111326
  0.5805638633962857  0.6751841601825959  0.7503796582228190
  0.9168417897405163  0.3235841366941301  0.7449130967868598
  0.7445808251589128  0.8317660225193819  0.9921827882589014
  0.5825159394915431  0.9965131129333287  0.2254526887822692
  0.9056698915893975  0.6811267812322797  0.2316014013543750
  0.7464046648737011  0.8296690673624667  0.5045921851334256
  0.5875628083172799  0.9980998588002237  0.7595167538529424
  0.9097895553061264  0.6856595131715224  0.7557895876931298
  0.9181048920318204  0.0037918123656269  0.2524536763859757
  0.9175834929720139  0.9995319284897235  0.7536217961261755
  0.1501932762698388  0.9979172667593375  0.1374751392155389
  0.1581479453282029  0.9970638565013914  0.6445899719050274
  0.2059351269713190  0.3272848442039091  0.1242564557394203
  0.5030651108927202  0.9997195722727810  0.1111885570656810
  0.3544574358655410  0.1779412637714941  0.3751201447129660
  0.1697915458217807  0.3438643317864916  0.6336536301727094
  0.4884835278992412  0.0001538196160311  0.6156132351293664
  0.3160491456573169  0.1594748718216934  0.8683164248497945
  0.1394515156583296  0.6587219897925181  0.1225924069903712
  0.5030239489357839  0.3376538268170037  0.1269554911150479
  0.3393210013671109  0.4899308128828466  0.3682666727642641
  0.1627570133073917  0.6583821954955056  0.6377572662363988
  0.8346573802501069  0.0053830624208402  0.1245650795049187
  0.6742764888038835  0.1747771797264903  0.3748836125928250
  0.5033820631828618  0.3320263014212159  0.6217083569801787
  0.3405864688106348  0.5089527140167149  0.8859783587414825
  0.8357838117166665  0.9975644196311748  0.6171992188323756
  0.6734373080808354  0.1660250179684439  0.8733449240172959
  0.5049069215168984  0.6677867124173247  0.1235570322739505
  0.3552517474442070  0.8383230484080357  0.3624171506233935
  0.8313594581359922  0.3268474025487791  0.1287259217199974
  0.6658843375648615  0.5063589708269376  0.3656320575200240
  0.4956576364067047  0.6769882861377639  0.6153518875457777
  0.3306637614878554  0.8394515769660060  0.8692090577141158
  0.9859933138191082  0.1543278702638418  0.3818396128569574
  0.8352050232078696  0.3249855702738884  0.6201426196369653
  0.6658616296669706  0.5047687751002670  0.8740025928007995
  0.9905592035449402  0.1578940712269556  0.8803879676047899
  0.8310544187313980  0.6719675206318101  0.1256172851738029
  0.6617659384366945  0.8255177218997858  0.3619023407711452
  0.0456683238195623  0.5016591786237754  0.3760258687050424
  0.8213073890310270  0.6830902621590411  0.6275619941013346
  0.6646795163457142  0.8372278479548427  0.8744214227246090
  0.0090143328546901  0.5071674163186159  0.8889378702386637
  0.9913383195224696  0.8414455648832089  0.3861060178543525
  0.9897734791731807  0.8365785444471143  0.8755495248148861
  0.0779077411162206  0.9966774077550014  0.2509977116459297
  0.0724926411402720  0.0007312873497298  0.7607748507732239
  0.1015648586119013  0.3351231243630792  0.2079149547030852
  0.4218734597378457  0.0000131612165006  0.2332353190824747
  0.2539706888447029  0.1733084903156410  0.5590090232366265
  0.0813116406156951  0.3296105754503458  0.7581872761181714
  0.4112546766464149  0.0057826548632747  0.7489663060006109
  0.2428594503384502  0.1657949995105454  0.0158288660748553
  0.0745441673403562  0.6618256640328610  0.2284007541716235
  0.4251784449457929  0.3343213123162130  0.2519110612301318
  0.2499749361860282  0.4944217947902203  0.4836739408922881
  0.0801611099325612  0.6621357056258432  0.7645194189153770
  0.7498018598172038  0.0053804991143949  0.2364165554680113
  0.5883429957226127  0.1737486222200673  0.4971837444000258
  0.4309018514626359  0.3301729091031049  0.7457063310454686
  0.2460916886192308  0.5587615268034511  0.0044727644651417
  0.7505445496668983  0.0033453395066090  0.7526776511593738
  0.5894791830450146  0.1571518510144330  0.9934649018514961
  0.4274390436850624  0.6651504167215094  0.2354732911203072
  0.2456432985189494  0.8339258529909586  0.5358391705766152
  0.7523304202231813  0.3277303192958527  0.2479218775019731
  0.5768045595133913  0.5022234313597522  0.4935084705479795
  0.4184311585691916  0.6785631126226264  0.7392952589624002
  0.2479563844554917  0.8310766775104668  0.0125040278105999
  0.9144320384071420  0.1611827657603584  0.4939609280527719
  0.7504804916369778  0.3273388272372344  0.7481119732411585
  0.5800474373156632  0.5049364632013393  0.0004451999036661
  0.9123529520604308  0.1514684640006152  0.0129118340887189
  0.7452530999821647  0.6709860642913270  0.2432623058774652
  0.5769840549405387  0.8302836341749327  0.4951458556212529
  0.9263380101554830  0.4917157227236046  0.5141968850598744
  0.7448471492540421  0.6778989797580408  0.7516423613492123
  0.5786037001969930  0.8472393543501440  0.9910125656302498
  0.9351465387913649  0.4953755585198465  0.0055433444349902
  0.9093505367362553  0.8363270067887711  0.5076084148583178
  0.9082221294451784  0.8400677216636154  0.0003241283836601
  0.9923215075530862  0.1547415047726233  0.1258335769882137
  0.9893106237222327  0.1635798258165124  0.6306520123244042
  0.0143345593185984  0.5192925727818576  0.1102773925804357
  0.3344972364300389  0.1706497782479559  0.1289559878229340
  0.1771372222575778  0.3552663786931305  0.3797845873288495
  0.0189555960306436  0.4916327645334562  0.6377193375017853
  0.3570200747685561  0.1657402678640878  0.6276666929283294
  0.1601350405963586  0.3264223103589501  0.8960505664942957
  0.9977743065794513  0.8326727611697038  0.1305755822871291
  0.3483625115363296  0.4667566847926423  0.1159087500495204
  0.1545565449356161  0.6306119335769722  0.3722516600227479
  0.9892636682234155  0.8352676682314240  0.6293250334050597
  0.6732504890377200  0.1645502942371451  0.1133599884696963
  0.4950896334224097  0.3380924542776782  0.3752623104004584
  0.3258612534999372  0.5006135589356902  0.6269265860976247
  0.1571770989113261  0.6655102868917240  0.9003588818708508
  0.6735733101249082  0.1720235213029326  0.6197120890585381
  0.5102230356594433  0.3328397670920680  0.8621647429443868
  0.3411221165835769  0.8409555513097260  0.1156122388048857
  0.1408414313046080  0.9948725079265017  0.3873091331129928
  0.6708356206366375  0.5057316542003676  0.1295537751279880
  0.4969423473206191  0.6648660737910888  0.3655361059351634
  0.3304405644948005  0.8349758972279133  0.6304502412304700
  0.1630559835849041  0.9994304207486380  0.8892409041516274
  0.8266810094408470  0.3172131138083216  0.3716186832974131
  0.6630461769544027  0.5030042308668570  0.6269504784924393
  0.5075197874980546  0.6764840754108334  0.8599124104230569
  0.8331693555978816  0.3316944514316660  0.8735290809896412
  0.6624631183156140  0.8339766580272752  0.1165936387170134
  0.4885991790969442  0.9942176260132314  0.3592990494712893
  0.8181086279576988  0.6788322260253707  0.3731051131779424
  0.6626734772727119  0.8282518634951685  0.6305796692508991
  0.4996034586310074  0.9992621944028457  0.8736620398638877
  0.8238201907286182  0.6773793765392284  0.8718365929590917
  0.8414903065953041  0.0060465301636370  0.3739157350324049
  0.8326662157957472  0.9983490190919611  0.8811816229744522
  0.9952513604666322  0.0770931256466412  0.2501141456481193
  0.9931802799187679  0.0760157872404648  0.7565840813016180
  0.0166126939266604  0.4181300469921041  0.2141414324519317
  0.3445202786610082  0.0835802285532239  0.2303078705042765
  0.1705934446169337  0.2534151523548687  0.5383700687588515
  0.0090775263761884  0.4142726978705227  0.7675615511758735
  0.3191449526163552  0.0814205843396039  0.7478680504042785
  0.1691367751949997  0.2527099447783030  0.0147390266129648
  0.9904511520509018  0.7569960770573871  0.2408104756172307
  0.3427799841674570  0.4166963022954420  0.2574865731493290
  0.1600856447902856  0.5794846637553377  0.5339423709913333
  0.9840229989395155  0.7557034415479436  0.7527473913594065
  0.6694016316960827  0.0825996429099334  0.2334793148408849
  0.4987514462430838  0.2533770473073957  0.4985450590019482
  0.3369365184585789  0.4173398855258910  0.7644691566424555
  0.1115275215544429  0.5748029126784431  0.0074959205069192
  0.6735461056572021  0.0785891080608607  0.7539428463440103
  0.5152748249332717  0.2440625441103208  0.9874513932436528
  0.3460647077202950  0.7522881886556476  0.2276256515258979
  0.1494864358330830  0.9165768915675159  0.5271008585046815
  0.6663304205333986  0.4247452314021842  0.2463469147845387
  0.4975003645320442  0.5860490765994584  0.4850110973009691
  0.3399278389569460  0.7604963771259392  0.7401104221516093
  0.1638140614804655  0.9134965449244490  0.0161989510563743
  0.8334685865475393  0.2446082664599203  0.5012709795430439
  0.6621542264724596  0.4228324277440834  0.7479686579082028
  0.4982427990707947  0.5800861421737338  0.0016671869833473
  0.8255276850094546  0.2406328466212457  0.9999242005898807
  0.6635899971361638  0.7505578419703909  0.2456012430988963
  0.4902513822385188  0.9209796679935280  0.4899410370688813
  0.8164444852772093  0.5919253957148740  0.4997069947621711
  0.6616451891445365  0.7559902913161238  0.7447757874508270
  0.5121401804515529  0.9176255145851329  0.9920803472647322
  0.8267656194503559  0.5899958681547446  0.0093482491712962
  0.8376315725664085  0.9230927724562861  0.5129714412122155
  0.8331887223118315  0.9211302012520903  0.9914919498810875
 
  0.00000000E+00  0.00000000E+00  0.00000000E+00
  0.00000000E+00  0.00000000E+00  0.00000000E+00
  0.00000000E+00  0.00000000E+00  0.00000000E+00
  0.00000000E+00  0.00000000E+00  0.00000000E+00
  0.00000000E+00  0.00000000E+00  0.00000000E+00
  0.00000000E+00  0.00000000E+00  0.00000000E+00
  0.00000000E+00  0.00000000E+00  0.00000000E+00
  0.00000000E+00  0.00000000E+00  0.00000000E+00
  0.00000000E+00  0.00000000E+00  0.00000000E+00
  0.00000000E+00  0.00000000E+00  0.00000000E+00
  0.00000000E+00  0.00000000E+00  0.00000000E+00
  0.00000000E+00  0.00000000E+00  0.00000000E+00
  0.00000000E+00  0.00000000E+00  0.00000000E+00
  0.00000000E+00  0.00000000E+00  0.00000000E+00
  0.00000000E+00  0.00000000E+00  0.00000000E+00
  0.00000000E+00  0.00000000E+00  0.00000000E+00
  0.00000000E+00  0.00000000E+00  0.00000000E+00
  0.00000000E+00  0.00000000E+00  0.00000000E+00
  0.00000000E+00  0.00000000E+00  0.00000000E+00
  0.00000000E+00  0.00000000E+00  0.00000000E+00
  0.00000000E+00  0.00000000E+00  0.00000000E+00
  0.00000000E+00  0.00000000E+00  0.00000000E+00
  0.00000000E+00  0.00000000E+00  0.00000000E+00
  0.00000000E+00  0.00000000E+00  0.00000000E+00
  0.00000000E+00  0.00000000E+00  0.00000000E+00
  0.00000000E+00  0.00000000E+00  0.00000000E+00
  0.00000000E+00  0.00000000E+00  0.00000000E+00
  0.00000000E+00  0.00000000E+00  0.00000000E+00
  0.00000000E+00  0.00000000E+00  0.00000000E+00
  0.00000000E+00  0.00000000E+00  0.00000000E+00
  0.00000000E+00  0.00000000E+00  0.00000000E+00
  0.00000000E+00  0.00000000E+00  0.00000000E+00
  0.00000000E+00  0.00000000E+00  0.00000000E+00
  0.00000000E+00  0.00000000E+00  0.00000000E+00
  0.00000000E+00  0.00000000E+00  0.00000000E+00
  0.00000000E+00  0.00000000E+00  0.00000000E+00
  0.00000000E+00  0.00000000E+00  0.00000000E+00
  0.00000000E+00  0.00000000E+00  0.00000000E+00
  0.00000000E+00  0.00000000E+00  0.00000000E+00
  0.00000000E+00  0.00000000E+00  0.00000000E+00
  0.00000000E+00  0.00000000E+00  0.00000000E+00
  0.00000000E+00  0.00000000E+00  0.00000000E+00
  0.00000000E+00  0.00000000E+00  0.00000000E+00
  0.00000000E+00  0.00000000E+00  0.00000000E+00
  0.00000000E+00  0.00000000E+00  0.00000000E+00
  0.00000000E+00  0.00000000E+00  0.00000000E+00
  0.00000000E+00  0.00000000E+00  0.00000000E+00
  0.00000000E+00  0.00000000E+00  0.00000000E+00
  0.00000000E+00  0.00000000E+00  0.00000000E+00
  0.00000000E+00  0.00000000E+00  0.00000000E+00
  0.00000000E+00  0.00000000E+00  0.00000000E+00
  0.00000000E+00  0.00000000E+00  0.00000000E+00
  0.00000000E+00  0.00000000E+00  0.00000000E+00
  0.00000000E+00  0.00000000E+00  0.00000000E+00
  0.00000000E+00  0.00000000E+00  0.00000000E+00
  0.00000000E+00  0.00000000E+00  0.00000000E+00
  0.00000000E+00  0.00000000E+00  0.00000000E+00
  0.00000000E+00  0.00000000E+00  0.00000000E+00
  0.00000000E+00  0.00000000E+00  0.00000000E+00
  0.00000000E+00  0.00000000E+00  0.00000000E+00
  0.00000000E+00  0.00000000E+00  0.00000000E+00
  0.00000000E+00  0.00000000E+00  0.00000000E+00
  0.00000000E+00  0.00000000E+00  0.00000000E+00
  0.00000000E+00  0.00000000E+00  0.00000000E+00
  0.00000000E+00  0.00000000E+00  0.00000000E+00
  0.00000000E+00  0.00000000E+00  0.00000000E+00
  0.00000000E+00  0.00000000E+00  0.00000000E+00
  0.00000000E+00  0.00000000E+00  0.00000000E+00
  0.00000000E+00  0.00000000E+00  0.00000000E+00
  0.00000000E+00  0.00000000E+00  0.00000000E+00
  0.00000000E+00  0.00000000E+00  0.00000000E+00
  0.00000000E+00  0.00000000E+00  0.00000000E+00
  0.00000000E+00  0.00000000E+00  0.00000000E+00
  0.00000000E+00  0.00000000E+00  0.00000000E+00
  0.00000000E+00  0.00000000E+00  0.00000000E+00
  0.00000000E+00  0.00000000E+00  0.00000000E+00
  0.00000000E+00  0.00000000E+00  0.00000000E+00
  0.00000000E+00  0.00000000E+00  0.00000000E+00
  0.00000000E+00  0.00000000E+00  0.00000000E+00
  0.00000000E+00  0.00000000E+00  0.00000000E+00
  0.00000000E+00  0.00000000E+00  0.00000000E+00
  0.00000000E+00  0.00000000E+00  0.00000000E+00
  0.00000000E+00  0.00000000E+00  0.00000000E+00
  0.00000000E+00  0.00000000E+00  0.00000000E+00
  0.00000000E+00  0.00000000E+00  0.00000000E+00
  0.00000000E+00  0.00000000E+00  0.00000000E+00
  0.00000000E+00  0.00000000E+00  0.00000000E+00
  0.00000000E+00  0.00000000E+00  0.00000000E+00
  0.00000000E+00  0.00000000E+00  0.00000000E+00
  0.00000000E+00  0.00000000E+00  0.00000000E+00
  0.00000000E+00  0.00000000E+00  0.00000000E+00
  0.00000000E+00  0.00000000E+00  0.00000000E+00
  0.00000000E+00  0.00000000E+00  0.00000000E+00
  0.00000000E+00  0.00000000E+00  0.00000000E+00
  0.00000000E+00  0.00000000E+00  0.00000000E+00
  0.00000000E+00  0.00000000E+00  0.00000000E+00
  0.00000000E+00  0.00000000E+00  0.00000000E+00
  0.00000000E+00  0.00000000E+00  0.00000000E+00
  0.00000000E+00  0.00000000E+00  0.00000000E+00
  0.00000000E+00  0.00000000E+00  0.00000000E+00
  0.00000000E+00  0.00000000E+00  0.00000000E+00
  0.00000000E+00  0.00000000E+00  0.00000000E+00
  0.00000000E+00  0.00000000E+00  0.00000000E+00
  0.00000000E+00  0.00000000E+00  0.00000000E+00
  0.00000000E+00  0.00000000E+00  0.00000000E+00
  0.00000000E+00  0.00000000E+00  0.00000000E+00
  0.00000000E+00  0.00000000E+00  0.00000000E+00
  0.00000000E+00  0.00000000E+00  0.00000000E+00
  0.00000000E+00  0.00000000E+00  0.00000000E+00
  0.00000000E+00  0.00000000E+00  0.00000000E+00
  0.00000000E+00  0.00000000E+00  0.00000000E+00
  0.00000000E+00  0.00000000E+00  0.00000000E+00
  0.00000000E+00  0.00000000E+00  0.00000000E+00
  0.00000000E+00  0.00000000E+00  0.00000000E+00
  0.00000000E+00  0.00000000E+00  0.00000000E+00
  0.00000000E+00  0.00000000E+00  0.00000000E+00
  0.00000000E+00  0.00000000E+00  0.00000000E+00
  0.00000000E+00  0.00000000E+00  0.00000000E+00
  0.00000000E+00  0.00000000E+00  0.00000000E+00
  0.00000000E+00  0.00000000E+00  0.00000000E+00
  0.00000000E+00  0.00000000E+00  0.00000000E+00
  0.00000000E+00  0.00000000E+00  0.00000000E+00
  0.00000000E+00  0.00000000E+00  0.00000000E+00
  0.00000000E+00  0.00000000E+00  0.00000000E+00
  0.00000000E+00  0.00000000E+00  0.00000000E+00
  0.00000000E+00  0.00000000E+00  0.00000000E+00
  0.00000000E+00  0.00000000E+00  0.00000000E+00
  0.00000000E+00  0.00000000E+00  0.00000000E+00
  0.00000000E+00  0.00000000E+00  0.00000000E+00
  0.00000000E+00  0.00000000E+00  0.00000000E+00
  0.00000000E+00  0.00000000E+00  0.00000000E+00
  0.00000000E+00  0.00000000E+00  0.00000000E+00
  0.00000000E+00  0.00000000E+00  0.00000000E+00
  0.00000000E+00  0.00000000E+00  0.00000000E+00
  0.00000000E+00  0.00000000E+00  0.00000000E+00
  0.00000000E+00  0.00000000E+00  0.00000000E+00
  0.00000000E+00  0.00000000E+00  0.00000000E+00
  0.00000000E+00  0.00000000E+00  0.00000000E+00
  0.00000000E+00  0.00000000E+00  0.00000000E+00
  0.00000000E+00  0.00000000E+00  0.00000000E+00
  0.00000000E+00  0.00000000E+00  0.00000000E+00
  0.00000000E+00  0.00000000E+00  0.00000000E+00
  0.00000000E+00  0.00000000E+00  0.00000000E+00
  0.00000000E+00  0.00000000E+00  0.00000000E+00
  0.00000000E+00  0.00000000E+00  0.00000000E+00
  0.00000000E+00  0.00000000E+00  0.00000000E+00
  0.00000000E+00  0.00000000E+00  0.00000000E+00
  0.00000000E+00  0.00000000E+00  0.00000000E+00
  0.00000000E+00  0.00000000E+00  0.00000000E+00
  0.00000000E+00  0.00000000E+00  0.00000000E+00
  0.00000000E+00  0.00000000E+00  0.00000000E+00
  0.00000000E+00  0.00000000E+00  0.00000000E+00
  0.00000000E+00  0.00000000E+00  0.00000000E+00
  0.00000000E+00  0.00000000E+00  0.00000000E+00
  0.00000000E+00  0.00000000E+00  0.00000000E+00
  0.00000000E+00  0.00000000E+00  0.00000000E+00
  0.00000000E+00  0.00000000E+00  0.00000000E+00
  0.00000000E+00  0.00000000E+00  0.00000000E+00
  0.00000000E+00  0.00000000E+00  0.00000000E+00
  0.00000000E+00  0.00000000E+00  0.00000000E+00
  0.00000000E+00  0.00000000E+00  0.00000000E+00
  0.00000000E+00  0.00000000E+00  0.00000000E+00
  0.00000000E+00  0.00000000E+00  0.00000000E+00
  0.00000000E+00  0.00000000E+00  0.00000000E+00
  0.00000000E+00  0.00000000E+00  0.00000000E+00
  0.00000000E+00  0.00000000E+00  0.00000000E+00
  0.00000000E+00  0.00000000E+00  0.00000000E+00
  0.00000000E+00  0.00000000E+00  0.00000000E+00
  0.00000000E+00  0.00000000E+00  0.00000000E+00
  0.00000000E+00  0.00000000E+00  0.00000000E+00
  0.00000000E+00  0.00000000E+00  0.00000000E+00
  0.00000000E+00  0.00000000E+00  0.00000000E+00
  0.00000000E+00  0.00000000E+00  0.00000000E+00
  0.00000000E+00  0.00000000E+00  0.00000000E+00
  0.00000000E+00  0.00000000E+00  0.00000000E+00
  0.00000000E+00  0.00000000E+00  0.00000000E+00
  0.00000000E+00  0.00000000E+00  0.00000000E+00
  0.00000000E+00  0.00000000E+00  0.00000000E+00
  0.00000000E+00  0.00000000E+00  0.00000000E+00
  0.00000000E+00  0.00000000E+00  0.00000000E+00
  0.00000000E+00  0.00000000E+00  0.00000000E+00
  0.00000000E+00  0.00000000E+00  0.00000000E+00
  0.00000000E+00  0.00000000E+00  0.00000000E+00
  0.00000000E+00  0.00000000E+00  0.00000000E+00
  0.00000000E+00  0.00000000E+00  0.00000000E+00
  0.00000000E+00  0.00000000E+00  0.00000000E+00
  0.00000000E+00  0.00000000E+00  0.00000000E+00
  0.00000000E+00  0.00000000E+00  0.00000000E+00
  0.00000000E+00  0.00000000E+00  0.00000000E+00
  0.00000000E+00  0.00000000E+00  0.00000000E+00
  0.00000000E+00  0.00000000E+00  0.00000000E+00
  0.00000000E+00  0.00000000E+00  0.00000000E+00
  0.00000000E+00  0.00000000E+00  0.00000000E+00
  0.00000000E+00  0.00000000E+00  0.00000000E+00
  0.00000000E+00  0.00000000E+00  0.00000000E+00
  0.00000000E+00  0.00000000E+00  0.00000000E+00
  0.00000000E+00  0.00000000E+00  0.00000000E+00
  0.00000000E+00  0.00000000E+00  0.00000000E+00
  0.00000000E+00  0.00000000E+00  0.00000000E+00
  0.00000000E+00  0.00000000E+00  0.00000000E+00
  0.00000000E+00  0.00000000E+00  0.00000000E+00
  0.00000000E+00  0.00000000E+00  0.00000000E+00
  0.00000000E+00  0.00000000E+00  0.00000000E+00
  0.00000000E+00  0.00000000E+00  0.00000000E+00
  0.00000000E+00  0.00000000E+00  0.00000000E+00
  0.00000000E+00  0.00000000E+00  0.00000000E+00
  0.00000000E+00  0.00000000E+00  0.00000000E+00
  0.00000000E+00  0.00000000E+00  0.00000000E+00
  0.00000000E+00  0.00000000E+00  0.00000000E+00
  0.00000000E+00  0.00000000E+00  0.00000000E+00
  0.00000000E+00  0.00000000E+00  0.00000000E+00
  0.00000000E+00  0.00000000E+00  0.00000000E+00
  0.00000000E+00  0.00000000E+00  0.00000000E+00
  0.00000000E+00  0.00000000E+00  0.00000000E+00
  0.00000000E+00  0.00000000E+00  0.00000000E+00
  0.00000000E+00  0.00000000E+00  0.00000000E+00
  0.00000000E+00  0.00000000E+00  0.00000000E+00
  0.00000000E+00  0.00000000E+00  0.00000000E+00
  0.00000000E+00  0.00000000E+00  0.00000000E+00
  0.00000000E+00  0.00000000E+00  0.00000000E+00
  0.00000000E+00  0.00000000E+00  0.00000000E+00
  0.00000000E+00  0.00000000E+00  0.00000000E+00
  0.00000000E+00  0.00000000E+00  0.00000000E+00
  0.00000000E+00  0.00000000E+00  0.00000000E+00
  0.00000000E+00  0.00000000E+00  0.00000000E+00
  0.00000000E+00  0.00000000E+00  0.00000000E+00
  0.00000000E+00  0.00000000E+00  0.00000000E+00
  0.00000000E+00  0.00000000E+00  0.00000000E+00
  0.00000000E+00  0.00000000E+00  0.00000000E+00
  0.00000000E+00  0.00000000E+00  0.00000000E+00
  0.00000000E+00  0.00000000E+00  0.00000000E+00
  0.00000000E+00  0.00000000E+00  0.00000000E+00
  0.00000000E+00  0.00000000E+00  0.00000000E+00
  0.00000000E+00  0.00000000E+00  0.00000000E+00
  0.00000000E+00  0.00000000E+00  0.00000000E+00
  0.00000000E+00  0.00000000E+00  0.00000000E+00
  0.00000000E+00  0.00000000E+00  0.00000000E+00
  0.00000000E+00  0.00000000E+00  0.00000000E+00
  0.00000000E+00  0.00000000E+00  0.00000000E+00
  0.00000000E+00  0.00000000E+00  0.00000000E+00
  0.00000000E+00  0.00000000E+00  0.00000000E+00
  0.00000000E+00  0.00000000E+00  0.00000000E+00
  0.00000000E+00  0.00000000E+00  0.00000000E+00
  0.00000000E+00  0.00000000E+00  0.00000000E+00
  0.00000000E+00  0.00000000E+00  0.00000000E+00
  0.00000000E+00  0.00000000E+00  0.00000000E+00
  0.00000000E+00  0.00000000E+00  0.00000000E+00
  0.00000000E+00  0.00000000E+00  0.00000000E+00
  0.00000000E+00  0.00000000E+00  0.00000000E+00
  0.00000000E+00  0.00000000E+00  0.00000000E+00
  0.00000000E+00  0.00000000E+00  0.00000000E+00
  0.00000000E+00  0.00000000E+00  0.00000000E+00
