generated by phonopy                    
   1.00000000000000     
     0.0000000000000000    3.2587370280021055    3.2587370280021939
     3.2587370280021433    0.0000000000000000    3.2587370280021939
     3.2587370280021433    3.2587370280021055    0.0000000000000000
   Na   Zr   Ti   Ce   H 
     1     1     1     1    24
Direct
  0.2500000000000000  0.2500000000000000  0.2500000000000000
  0.7500000000000000  0.7500000000000000  0.7500000000000000
  0.0000000000000000  0.0000000000000000  0.0000000000000000
  0.5000000000000000  0.5000000000000000  0.5000000000000000
  0.1283939128603819  0.8928259648714629  0.6228665519809482
  0.8928259648714629  0.1283939128603819  0.3559135702872069
  0.6228665519809482  0.3559135702872069  0.1283939128603819
  0.3559135702872069  0.6228665519809482  0.8928259648714629
  0.6228665519809482  0.1283939128603819  0.8928259648714629
  0.3559135702872069  0.8928259648714629  0.1283939128603819
  0.1283939128603819  0.6228665519809482  0.3559135702872069
  0.8928259648714629  0.3559135702872069  0.6228665519809482
  0.8928259648714629  0.6228665519809482  0.1283939128603819
  0.1283939128603819  0.3559135702872069  0.8928259648714629
  0.3559135702872069  0.1283939128603819  0.6228665519809482
  0.6228665519809482  0.8928259648714629  0.3559135702872069
  0.1283939128603819  0.3559135702872069  0.6228665519809482
  0.3559135702872069  0.1283939128603819  0.8928259648714629
  0.6228665519809482  0.8928259648714629  0.1283939128603819
  0.8928259648714629  0.6228665519809482  0.3559135702872069
  0.6228665519809482  0.1283939128603819  0.3559135702872069
  0.8928259648714629  0.3559135702872069  0.1283939128603819
  0.1283939128603819  0.6228665519809482  0.8928259648714629
  0.3559135702872069  0.8928259648714629  0.6228665519809482
  0.3559135702872069  0.6228665519809482  0.1283939128603819
  0.1283939128603819  0.8928259648714629  0.3559135702872069
  0.8928259648714629  0.1283939128603819  0.6228665519809482
  0.6228665519809482  0.3559135702872069  0.8928259648714629
 
  0.00000000E+00  0.00000000E+00  0.00000000E+00
  0.00000000E+00  0.00000000E+00  0.00000000E+00
  0.00000000E+00  0.00000000E+00  0.00000000E+00
  0.00000000E+00  0.00000000E+00  0.00000000E+00
  0.00000000E+00  0.00000000E+00  0.00000000E+00
  0.00000000E+00  0.00000000E+00  0.00000000E+00
  0.00000000E+00  0.00000000E+00  0.00000000E+00
  0.00000000E+00  0.00000000E+00  0.00000000E+00
  0.00000000E+00  0.00000000E+00  0.00000000E+00
  0.00000000E+00  0.00000000E+00  0.00000000E+00
  0.00000000E+00  0.00000000E+00  0.00000000E+00
  0.00000000E+00  0.00000000E+00  0.00000000E+00
  0.00000000E+00  0.00000000E+00  0.00000000E+00
  0.00000000E+00  0.00000000E+00  0.00000000E+00
  0.00000000E+00  0.00000000E+00  0.00000000E+00
  0.00000000E+00  0.00000000E+00  0.00000000E+00
  0.00000000E+00  0.00000000E+00  0.00000000E+00
  0.00000000E+00  0.00000000E+00  0.00000000E+00
  0.00000000E+00  0.00000000E+00  0.00000000E+00
  0.00000000E+00  0.00000000E+00  0.00000000E+00
  0.00000000E+00  0.00000000E+00  0.00000000E+00
  0.00000000E+00  0.00000000E+00  0.00000000E+00
  0.00000000E+00  0.00000000E+00  0.00000000E+00
  0.00000000E+00  0.00000000E+00  0.00000000E+00
  0.00000000E+00  0.00000000E+00  0.00000000E+00
  0.00000000E+00  0.00000000E+00  0.00000000E+00
  0.00000000E+00  0.00000000E+00  0.00000000E+00
  0.00000000E+00  0.00000000E+00  0.00000000E+00
