generated by phonopy                    
   1.00000000000000     
     0.0000000000000000    3.2488796359150980    3.2488796359151979
     3.2488796359151397    0.0000000000000000    3.2488796359151979
     3.2488796359151397    3.2488796359150980    0.0000000000000000
   Na   Hf   Sc   Y    H 
     1     1     1     1    24
Direct
  0.2500000000000000  0.2500000000000000  0.2500000000000000
  0.7500000000000000  0.7500000000000000  0.7500000000000000
  0.0000000000000000  0.0000000000000000  0.0000000000000000
  0.5000000000000000  0.5000000000000000  0.5000000000000000
  0.1320996522599174  0.8913869923314124  0.6183353059044450
  0.8913869923314124  0.1320996522599174  0.3581780495042253
  0.6183353059044450  0.3581780495042253  0.1320996522599174
  0.3581780495042253  0.6183353059044450  0.8913869923314124
  0.6183353059044450  0.1320996522599174  0.8913869923314124
  0.3581780495042253  0.8913869923314124  0.1320996522599174
  0.1320996522599174  0.6183353059044450  0.3581780495042253
  0.8913869923314124  0.3581780495042253  0.6183353059044450
  0.8913869923314124  0.6183353059044450  0.1320996522599174
  0.1320996522599174  0.3581780495042253  0.8913869923314124
  0.3581780495042253  0.1320996522599174  0.6183353059044450
  0.6183353059044450  0.8913869923314124  0.3581780495042253
  0.1320996522599174  0.3581780495042253  0.6183353059044450
  0.3581780495042253  0.1320996522599174  0.8913869923314124
  0.6183353059044450  0.8913869923314124  0.1320996522599174
  0.8913869923314124  0.6183353059044450  0.3581780495042253
  0.6183353059044450  0.1320996522599174  0.3581780495042253
  0.8913869923314124  0.3581780495042253  0.1320996522599174
  0.1320996522599174  0.6183353059044450  0.8913869923314124
  0.3581780495042253  0.8913869923314124  0.6183353059044450
  0.3581780495042253  0.6183353059044450  0.1320996522599174
  0.1320996522599174  0.8913869923314124  0.3581780495042253
  0.8913869923314124  0.1320996522599174  0.6183353059044450
  0.6183353059044450  0.3581780495042253  0.8913869923314124
 
  0.00000000E+00  0.00000000E+00  0.00000000E+00
  0.00000000E+00  0.00000000E+00  0.00000000E+00
  0.00000000E+00  0.00000000E+00  0.00000000E+00
  0.00000000E+00  0.00000000E+00  0.00000000E+00
  0.00000000E+00  0.00000000E+00  0.00000000E+00
  0.00000000E+00  0.00000000E+00  0.00000000E+00
  0.00000000E+00  0.00000000E+00  0.00000000E+00
  0.00000000E+00  0.00000000E+00  0.00000000E+00
  0.00000000E+00  0.00000000E+00  0.00000000E+00
  0.00000000E+00  0.00000000E+00  0.00000000E+00
  0.00000000E+00  0.00000000E+00  0.00000000E+00
  0.00000000E+00  0.00000000E+00  0.00000000E+00
  0.00000000E+00  0.00000000E+00  0.00000000E+00
  0.00000000E+00  0.00000000E+00  0.00000000E+00
  0.00000000E+00  0.00000000E+00  0.00000000E+00
  0.00000000E+00  0.00000000E+00  0.00000000E+00
  0.00000000E+00  0.00000000E+00  0.00000000E+00
  0.00000000E+00  0.00000000E+00  0.00000000E+00
  0.00000000E+00  0.00000000E+00  0.00000000E+00
  0.00000000E+00  0.00000000E+00  0.00000000E+00
  0.00000000E+00  0.00000000E+00  0.00000000E+00
  0.00000000E+00  0.00000000E+00  0.00000000E+00
  0.00000000E+00  0.00000000E+00  0.00000000E+00
  0.00000000E+00  0.00000000E+00  0.00000000E+00
  0.00000000E+00  0.00000000E+00  0.00000000E+00
  0.00000000E+00  0.00000000E+00  0.00000000E+00
  0.00000000E+00  0.00000000E+00  0.00000000E+00
  0.00000000E+00  0.00000000E+00  0.00000000E+00
