generated by phonopy                    
   1.00000000000000     
     0.0000000000000000    3.4766045936168766    3.4766045936169410
     3.4766045936169028    0.0000000000000000    3.4766045936169410
     3.4766045936169028    3.4766045936168766    0.0000000000000000
   Sc   Y    Hf   Ce   H 
     1     1     1     1    24
Direct
  0.2500000000000000  0.2500000000000000  0.2500000000000000
  0.7500000000000000  0.7500000000000000  0.7500000000000000
  0.0000000000000000  0.0000000000000000  0.0000000000000000
  0.5000000000000000  0.5000000000000000  0.5000000000000000
  0.1265453797577436  0.8836084585075739  0.6202464859239356
  0.8836084585075739  0.1265453797577436  0.3695996758107398
  0.6202464859239356  0.3695996758107398  0.1265453797577436
  0.3695996758107398  0.6202464859239356  0.8836084585075739
  0.6202464859239356  0.1265453797577436  0.8836084585075739
  0.3695996758107398  0.8836084585075739  0.1265453797577436
  0.1265453797577436  0.6202464859239356  0.3695996758107398
  0.8836084585075739  0.3695996758107398  0.6202464859239356
  0.8836084585075739  0.6202464859239356  0.1265453797577436
  0.1265453797577436  0.3695996758107398  0.8836084585075739
  0.3695996758107398  0.1265453797577436  0.6202464859239356
  0.6202464859239356  0.8836084585075739  0.3695996758107398
  0.1265453797577436  0.3695996758107398  0.6202464859239356
  0.3695996758107398  0.1265453797577436  0.8836084585075739
  0.6202464859239356  0.8836084585075739  0.1265453797577436
  0.8836084585075739  0.6202464859239356  0.3695996758107398
  0.6202464859239356  0.1265453797577436  0.3695996758107398
  0.8836084585075739  0.3695996758107398  0.1265453797577436
  0.1265453797577436  0.6202464859239356  0.8836084585075739
  0.3695996758107398  0.8836084585075739  0.6202464859239356
  0.3695996758107398  0.6202464859239356  0.1265453797577436
  0.1265453797577436  0.8836084585075739  0.3695996758107398
  0.8836084585075739  0.1265453797577436  0.6202464859239356
  0.6202464859239356  0.3695996758107398  0.8836084585075739
 
  0.00000000E+00  0.00000000E+00  0.00000000E+00
  0.00000000E+00  0.00000000E+00  0.00000000E+00
  0.00000000E+00  0.00000000E+00  0.00000000E+00
  0.00000000E+00  0.00000000E+00  0.00000000E+00
  0.00000000E+00  0.00000000E+00  0.00000000E+00
  0.00000000E+00  0.00000000E+00  0.00000000E+00
  0.00000000E+00  0.00000000E+00  0.00000000E+00
  0.00000000E+00  0.00000000E+00  0.00000000E+00
  0.00000000E+00  0.00000000E+00  0.00000000E+00
  0.00000000E+00  0.00000000E+00  0.00000000E+00
  0.00000000E+00  0.00000000E+00  0.00000000E+00
  0.00000000E+00  0.00000000E+00  0.00000000E+00
  0.00000000E+00  0.00000000E+00  0.00000000E+00
  0.00000000E+00  0.00000000E+00  0.00000000E+00
  0.00000000E+00  0.00000000E+00  0.00000000E+00
  0.00000000E+00  0.00000000E+00  0.00000000E+00
  0.00000000E+00  0.00000000E+00  0.00000000E+00
  0.00000000E+00  0.00000000E+00  0.00000000E+00
  0.00000000E+00  0.00000000E+00  0.00000000E+00
  0.00000000E+00  0.00000000E+00  0.00000000E+00
  0.00000000E+00  0.00000000E+00  0.00000000E+00
  0.00000000E+00  0.00000000E+00  0.00000000E+00
  0.00000000E+00  0.00000000E+00  0.00000000E+00
  0.00000000E+00  0.00000000E+00  0.00000000E+00
  0.00000000E+00  0.00000000E+00  0.00000000E+00
  0.00000000E+00  0.00000000E+00  0.00000000E+00
  0.00000000E+00  0.00000000E+00  0.00000000E+00
  0.00000000E+00  0.00000000E+00  0.00000000E+00
