generated by phonopy                    
   1.00000000000000     
     0.0000000000000000    3.5264953771055505    3.5264953771056726
     3.5264953771055989    0.0000000000000000    3.5264953771056726
     3.5264953771055989    3.5264953771055505    0.0000000000000000
   Sr   Y    Zr   Ce   H 
     1     1     1     1    24
Direct
  0.2500000000000000  0.2500000000000000  0.2500000000000000
  0.7500000000000000  0.7500000000000000  0.7500000000000000
  0.0000000000000000  0.0000000000000000  0.0000000000000000
  0.5000000000000000  0.5000000000000000  0.5000000000000000
  0.1213595730571626  0.8760446827531396  0.6295560142921559
  0.8760446827531396  0.1213595730571626  0.3730397298975490
  0.6295560142921559  0.3730397298975490  0.1213595730571626
  0.3730397298975490  0.6295560142921559  0.8760446827531396
  0.6295560142921559  0.1213595730571626  0.8760446827531396
  0.3730397298975490  0.8760446827531396  0.1213595730571626
  0.1213595730571626  0.6295560142921559  0.3730397298975490
  0.8760446827531396  0.3730397298975490  0.6295560142921559
  0.8760446827531396  0.6295560142921559  0.1213595730571626
  0.1213595730571626  0.3730397298975490  0.8760446827531396
  0.3730397298975490  0.1213595730571626  0.6295560142921559
  0.6295560142921559  0.8760446827531396  0.3730397298975490
  0.1213595730571626  0.3730397298975490  0.6295560142921559
  0.3730397298975490  0.1213595730571626  0.8760446827531396
  0.6295560142921559  0.8760446827531396  0.1213595730571626
  0.8760446827531396  0.6295560142921559  0.3730397298975490
  0.6295560142921559  0.1213595730571626  0.3730397298975490
  0.8760446827531396  0.3730397298975490  0.1213595730571626
  0.1213595730571626  0.6295560142921559  0.8760446827531396
  0.3730397298975490  0.8760446827531396  0.6295560142921559
  0.3730397298975490  0.6295560142921559  0.1213595730571626
  0.1213595730571626  0.8760446827531396  0.3730397298975490
  0.8760446827531396  0.1213595730571626  0.6295560142921559
  0.6295560142921559  0.3730397298975490  0.8760446827531396
 
  0.00000000E+00  0.00000000E+00  0.00000000E+00
  0.00000000E+00  0.00000000E+00  0.00000000E+00
  0.00000000E+00  0.00000000E+00  0.00000000E+00
  0.00000000E+00  0.00000000E+00  0.00000000E+00
  0.00000000E+00  0.00000000E+00  0.00000000E+00
  0.00000000E+00  0.00000000E+00  0.00000000E+00
  0.00000000E+00  0.00000000E+00  0.00000000E+00
  0.00000000E+00  0.00000000E+00  0.00000000E+00
  0.00000000E+00  0.00000000E+00  0.00000000E+00
  0.00000000E+00  0.00000000E+00  0.00000000E+00
  0.00000000E+00  0.00000000E+00  0.00000000E+00
  0.00000000E+00  0.00000000E+00  0.00000000E+00
  0.00000000E+00  0.00000000E+00  0.00000000E+00
  0.00000000E+00  0.00000000E+00  0.00000000E+00
  0.00000000E+00  0.00000000E+00  0.00000000E+00
  0.00000000E+00  0.00000000E+00  0.00000000E+00
  0.00000000E+00  0.00000000E+00  0.00000000E+00
  0.00000000E+00  0.00000000E+00  0.00000000E+00
  0.00000000E+00  0.00000000E+00  0.00000000E+00
  0.00000000E+00  0.00000000E+00  0.00000000E+00
  0.00000000E+00  0.00000000E+00  0.00000000E+00
  0.00000000E+00  0.00000000E+00  0.00000000E+00
  0.00000000E+00  0.00000000E+00  0.00000000E+00
  0.00000000E+00  0.00000000E+00  0.00000000E+00
  0.00000000E+00  0.00000000E+00  0.00000000E+00
  0.00000000E+00  0.00000000E+00  0.00000000E+00
  0.00000000E+00  0.00000000E+00  0.00000000E+00
  0.00000000E+00  0.00000000E+00  0.00000000E+00
