generated by phonopy                    
   1.00000000000000     
     0.0000000000000000    3.3577571554802050    3.3577571554802832
     3.3577571554802397    0.0000000000000000    3.3577571554802832
     3.3577571554802397    3.3577571554802050    0.0000000000000000
   Mg   Zr   Ca   Sc   H 
     1     1     1     1    24
Direct
  0.2500000000000000  0.2500000000000000  0.2500000000000000
  0.7500000000000000  0.7500000000000000  0.7500000000000000
  0.0000000000000000  0.0000000000000000  0.0000000000000000
  0.5000000000000000  0.5000000000000000  0.5000000000000000
  0.1362746257763447  0.8824347908531891  0.6171978801292468
  0.8824347908531891  0.1362746257763447  0.3640927032412193
  0.6171978801292468  0.3640927032412193  0.1362746257763447
  0.3640927032412193  0.6171978801292468  0.8824347908531891
  0.6171978801292468  0.1362746257763447  0.8824347908531891
  0.3640927032412193  0.8824347908531891  0.1362746257763447
  0.1362746257763447  0.6171978801292468  0.3640927032412193
  0.8824347908531891  0.3640927032412193  0.6171978801292468
  0.8824347908531891  0.6171978801292468  0.1362746257763447
  0.1362746257763447  0.3640927032412193  0.8824347908531891
  0.3640927032412193  0.1362746257763447  0.6171978801292468
  0.6171978801292468  0.8824347908531891  0.3640927032412193
  0.1362746257763447  0.3640927032412193  0.6171978801292468
  0.3640927032412193  0.1362746257763447  0.8824347908531891
  0.6171978801292468  0.8824347908531891  0.1362746257763447
  0.8824347908531891  0.6171978801292468  0.3640927032412193
  0.6171978801292468  0.1362746257763447  0.3640927032412193
  0.8824347908531891  0.3640927032412193  0.1362746257763447
  0.1362746257763447  0.6171978801292468  0.8824347908531891
  0.3640927032412193  0.8824347908531891  0.6171978801292468
  0.3640927032412193  0.6171978801292468  0.1362746257763447
  0.1362746257763447  0.8824347908531891  0.3640927032412193
  0.8824347908531891  0.1362746257763447  0.6171978801292468
  0.6171978801292468  0.3640927032412193  0.8824347908531891
 
  0.00000000E+00  0.00000000E+00  0.00000000E+00
  0.00000000E+00  0.00000000E+00  0.00000000E+00
  0.00000000E+00  0.00000000E+00  0.00000000E+00
  0.00000000E+00  0.00000000E+00  0.00000000E+00
  0.00000000E+00  0.00000000E+00  0.00000000E+00
  0.00000000E+00  0.00000000E+00  0.00000000E+00
  0.00000000E+00  0.00000000E+00  0.00000000E+00
  0.00000000E+00  0.00000000E+00  0.00000000E+00
  0.00000000E+00  0.00000000E+00  0.00000000E+00
  0.00000000E+00  0.00000000E+00  0.00000000E+00
  0.00000000E+00  0.00000000E+00  0.00000000E+00
  0.00000000E+00  0.00000000E+00  0.00000000E+00
  0.00000000E+00  0.00000000E+00  0.00000000E+00
  0.00000000E+00  0.00000000E+00  0.00000000E+00
  0.00000000E+00  0.00000000E+00  0.00000000E+00
  0.00000000E+00  0.00000000E+00  0.00000000E+00
  0.00000000E+00  0.00000000E+00  0.00000000E+00
  0.00000000E+00  0.00000000E+00  0.00000000E+00
  0.00000000E+00  0.00000000E+00  0.00000000E+00
  0.00000000E+00  0.00000000E+00  0.00000000E+00
  0.00000000E+00  0.00000000E+00  0.00000000E+00
  0.00000000E+00  0.00000000E+00  0.00000000E+00
  0.00000000E+00  0.00000000E+00  0.00000000E+00
  0.00000000E+00  0.00000000E+00  0.00000000E+00
  0.00000000E+00  0.00000000E+00  0.00000000E+00
  0.00000000E+00  0.00000000E+00  0.00000000E+00
  0.00000000E+00  0.00000000E+00  0.00000000E+00
  0.00000000E+00  0.00000000E+00  0.00000000E+00
