POSCAR                                  
   1.00000000000000     
    10.0754992597702220   -0.0186716912038913    0.0088274179103026
    -0.0185906700553120   10.0945548125327331    0.0123972140706220
     0.0059068551781287    0.0082776488878827    6.7181022561317869
   Mg   Zr   Ca   Sc   H 
     9     9     9     9   216
Direct
  0.1684232892534894  0.1690918171081108  0.2470493557656397
  0.1630192478177861  0.8348011075802475  0.7537084459976455
  0.8308582018261035  0.1664591270183493  0.2461628003964549
  0.6656956403657759  0.3307954506837447  0.4996626179966768
  0.5030400441013114  0.8320034897260271  0.7542894673959282
  0.9966883409260419  0.3354257623552570  0.0039482223359926
  0.8328454053816898  0.8329727863393401  0.7510684975889177
  0.9985812177834958  0.6632043538239643  0.9971667958172645
  0.0013612711344493  0.0003953248064548  0.9986088110786824
  0.1601175865088749  0.1575182239684878  0.7491991757802339
  0.1644234907877689  0.5096039540009656  0.7551694073330353
  0.5032118846232194  0.1662959858185005  0.7523930207100875
  0.3280422837499017  0.3308123835806143  0.0023643268611622
  0.3300184732891580  0.6659451398732514  0.5012514508558752
  0.8371392810985014  0.1624713610615629  0.7537369193094534
  0.3326171216180427  0.9994290019181520  0.4987395854951373
  0.6704293926716005  0.6706942485491751  0.5018704888588701
  0.9974150028003876  0.3330991421508216  0.4935224139637313
  0.1643849375439999  0.4978514892223060  0.2470281654032007
  0.5009354311253560  0.1670015369897442  0.2519965282758889
  0.3370594761071288  0.3359630686926423  0.4997389782268442
  0.4988750484276352  0.8336969466829629  0.2508526809569673
  0.8344868863604233  0.4986962926953851  0.2487792210300555
  0.6711508912571134  0.6675482606964707  0.0018207029856327
  0.8389076741171735  0.8365130426464589  0.2470932923827363
  0.6688687365527315  0.0027968358233110  0.4989152960911127
  0.9974570293137717  0.9966065008085749  0.4919138149587212
  0.1621804833561313  0.8321595253847534  0.2424812955143452
  0.5024876701186471  0.4990600273122396  0.2500832290017954
  0.5055920166704055  0.5021403407824607  0.7521270230562322
  0.3338973717900799  0.6737303725175252  0.9979426716177642
  0.6751809702911586  0.3340706251591143  0.0034234279373635
  0.3294131118075754  0.9954180043469449  0.0009016639961033
  0.8324552527786295  0.5030812622818175  0.7537140148455421
  0.9990643977602218  0.6715183888949667  0.5027231923252629
  0.6680812733121186  0.9946490174376734  0.0016667936814727
  0.1608396782084185  0.0797692265240002  0.0155088795882392
  0.1611186324144569  0.0828987146815336  0.4791275600541809
  0.1581316793831391  0.4145977663488765  0.9981588488289148
  0.5018687448273198  0.0842248149655447  0.0018541426335830
  0.3321986407746564  0.2481534930032865  0.2521532931834471
  0.1662281827632626  0.4176126212514077  0.5050021257897157
  0.5023263780882274  0.0829536131323323  0.5006294725683631
  0.3282566822486999  0.2500106923283880  0.7471601720047616
  0.1612553954315956  0.7515073633506262  0.9968953399533831
  0.5010501998244266  0.4163733469669708  0.9997310605399150
  0.3341483661759455  0.5829685565827560  0.2370816519048589
  0.1648569990492561  0.7513583751122468  0.4902710322562811
  0.8348111229308870  0.0799310109996654  0.0121524978016438
  0.6687063666628319  0.2515011567320258  0.2451187603922733
  0.5091961361731023  0.4176536211003139  0.5059153049143674
  0.3410424955155875  0.5838679727326550  0.7635935513490253
  0.8346195836314365  0.0853212362422937  0.4885355272809306
  0.6710587612008325  0.2549483584462635  0.7514773558709535
  0.4996136471981742  0.7501422146979877  0.9948606324589662
  0.3237787637112888  0.9130863325652427  0.2438478916419911
  0.8384073627915356  0.4145261305708985  0.9978561120556435
  0.6654929499263176  0.5812148402510715  0.2532176932922354
  0.4966185233458731  0.7520143071119847  0.5114419697459098
  0.3440791291570449  0.9133025879584977  0.7509089428603275
  0.9970055330158587  0.2435385419397704  0.2247778894590340
  0.8256364335511392  0.4170985091619173  0.5048513461097102
  0.6686514117119131  0.5818134939234767  0.7522905042709311
  0.9992137793557134  0.2543627049212489  0.7730145087850815
  0.8420290488408071  0.7505082279162139  0.9870028427107798
  0.6706992482790071  0.9163166118165762  0.2499643311615500
  0.0002186005068907  0.5825321042857468  0.2352707789861910
  0.8381957686110297  0.7514142907313683  0.5086354896570953
  0.6706573865408529  0.9166697437725873  0.7501913654939969
  0.9922355895912176  0.5852802579626371  0.7620926622602653
  0.0067699317022587  0.9175503085745405  0.2277124689132606
  0.9881648402404437  0.9140708634870762  0.7532563634390499
  0.0818801540442422  0.1572796337849027  0.0093692773815022
  0.0843257295285866  0.1634811685297208  0.4735306594543758
  0.0816679161286089  0.5008292096554925  0.9982920558873971
  0.4170935268640505  0.1626187469463858  0.0037550723084934
  0.2487159269331016  0.3314490191968389  0.2542837085386083
  0.0808510894801842  0.5073273674290633  0.5000665204256975
  0.4146803841490083  0.1666475886895640  0.5005413569821400
  0.2467994831044606  0.3333755510552123  0.7470207057017362
  0.0797044457094742  0.8451779345527939  0.9802807919192063
  0.4198418764008949  0.4978913199672448  0.9978034061609549
  0.2491399123165223  0.6655043956346205  0.2443180689838726
  0.0821546517900629  0.8320223664093476  0.5224627330245113
  0.7505182855371331  0.1592281471512891  0.0084516823648855
  0.5847385095765034  0.3333323034928313  0.2423717683160831
  0.4198671194386847  0.5031584963469768  0.5048168645611781
  0.2507152197669171  0.6794024845668361  0.7571688411375916
  0.7499495134100869  0.1733108747234269  0.4994262196854820
  0.5854232572562239  0.3367883665665019  0.7581371072939902
  0.4160345342905103  0.8357976010704817  0.9932916401572882
  0.2458326426770441  0.9987944355188532  0.2430499801114010
  0.7497420744652388  0.4977568872270837  0.9987866615670171
  0.5803526744071235  0.6652507295936303  0.2481279347972389
  0.4176149482065270  0.8312405111457224  0.5130379105775802
  0.2503665046719235  0.9896195567860389  0.7568713430476421
  0.9138811659746935  0.3237314464026753  0.2460244305763766
  0.7500127132655265  0.4945284508381746  0.5028905031198363
  0.5816835283341746  0.6726386127096191  0.7531199687613963
  0.9175231671807680  0.3374701349089335  0.7524843130865335
  0.7526688159108090  0.8367148672020193  0.9885700740435439
  0.5804816752448687  0.0004229805314608  0.2457969537781111
  0.9172504505933432  0.6684052052581748  0.2572731505385661
  0.7524461765969477  0.8378820546096932  0.5088912028851524
  0.5821913856765448  0.9899449001280658  0.7520444289553225
  0.9169490981039203  0.6704862298747258  0.7473955400103591
  0.9181498098398819  0.0113388616582455  0.2289659820501342
  0.9185471089219277  0.9860452488314024  0.7587460031146875
  0.1670702711684626  0.9974945707992759  0.1233238741784817
  0.1637910599293591  0.9907815165783092  0.6212939653596479
  0.1542413348477680  0.3264817417841641  0.1237115965705584
  0.4977501809624343  0.9994570855168519  0.1233407012382486
  0.3272529321097224  0.1681871941964417  0.3735743919571846
  0.1653821605749641  0.3310302988246150  0.6269332448313989
  0.5001143978309770  0.9951415989161987  0.6277439847649617
  0.3309122461434697  0.1583209242736459  0.8759267489405573
  0.1602469035643139  0.6682441503973848  0.1223336592143980
  0.5098744098749961  0.3358588377934524  0.1251193846300822
  0.3347347965744021  0.5010985043729121  0.3708085153005101
  0.1604601439447890  0.6818206529831556  0.6280676217604366
  0.8331867820513708  0.0028319923979865  0.1225549070321108
  0.6739048003279180  0.1732008465838888  0.3729700364601172
  0.5073064139297543  0.3397041463546344  0.6268489682814433
  0.3421042306176858  0.5053703347836560  0.8790520321698736
  0.8338180122886669  0.9980269539597089  0.6243121540901342
  0.6689718458987173  0.1678677170083915  0.8821103404230541
  0.4995654599023212  0.6643526933056236  0.1261295729544258
  0.3247145387405297  0.8311880291128446  0.3701639321119217
  0.8365109748944306  0.3279775202885631  0.1256779720813839
  0.6664531056999721  0.4891405792230188  0.3767403151611077
  0.4987609024605746  0.6640724397174509  0.6285840012328308
  0.3248426728618981  0.8361353789183283  0.8744565298189926
  0.9935294547497691  0.1663308963713064  0.3691315713512466
  0.8284642383633383  0.3350573463744126  0.6269271234900273
  0.6664483241169634  0.4972092937465433  0.8766611589778179
  0.9987785074472697  0.1784122243131208  0.8830710008698759
  0.8434469887239473  0.6672398102189234  0.1239536218469723
  0.6693334941453273  0.8389696967428790  0.3734043309098709
  0.9996699483719027  0.5071835873843042  0.3763018170487626
  0.8395235110371999  0.6700932537755833  0.6304502408891608
  0.6662663081550946  0.8330986036493968  0.8758205544935933
  0.9943145083770375  0.4981985644995035  0.8754770409050963
  0.0062470365002696  0.8266512757362392  0.3707778265883945
  0.0055379889817857  0.8216009542245075  0.8773191080894804
  0.0835057478652601  0.0138948266629839  0.2397542728747339
  0.0799992820193438  0.9867884871890737  0.7541344459195756
  0.0833373606870680  0.3228849629473274  0.2424552125851491
  0.4167262883267000  0.9987833276523901  0.2391804062885896
  0.2477962545661043  0.1711150262379917  0.4975303069799608
  0.0809644206004023  0.3342903193452855  0.7545759048956029
  0.4198715875956438  0.9939425300049294  0.7588292399206225
  0.2468457028747792  0.1589953678281475  0.0064807353940566
  0.0853409760673287  0.6677871059688698  0.2521825753374216
  0.4201654363521570  0.3357713863905474  0.2468744723724328
  0.2486239035331224  0.4979497923238156  0.4989199446362917
  0.0816431107576037  0.6756964687793001  0.7529014137014940
  0.7491378961495485  0.0024084962718121  0.2448797420063542
  0.5856553496670074  0.1685747459774163  0.5001230433916177
  0.4176594923000962  0.3367524221028262  0.7546500377955851
  0.2525383687157685  0.5049607654364934  0.0029934097150175
  0.7479212473381551  0.9903989969309777  0.7555318278586398
  0.5869783260176078  0.1674462340563352  0.0050448667352683
  0.4157793775215950  0.6666958470196107  0.2471072384732551
  0.2461034352888518  0.8326655222414203  0.5213229861353028
  0.7489294821767558  0.3316030268521502  0.2572967637173065
  0.5834883388137442  0.5036532340491249  0.5040215941134534
  0.4209719404835468  0.6674253690005401  0.7535505045741573
  0.2484937953328767  0.8346856079594787  0.9800656758494526
  0.9145997084394324  0.1647817801205491  0.4737252525065685
  0.7504382183421185  0.3354612229359759  0.7446566509132779
  0.5822118458950172  0.4972313015998822  0.0002610295758529
  0.9161559886576853  0.1520684754602044  0.0107659268469789
  0.7526710159913961  0.6673052486456541  0.2528904968924266
  0.5811593675765749  0.8379000868226285  0.5157581530301556
  0.9148447620662594  0.5063892983474076  0.5070109486202483
  0.7521132366845507  0.6726033257044151  0.7526650916003490
  0.5820760671024487  0.8344216422694046  0.9910660503713444
  0.9171357743594655  0.4947721809112977  0.9944117335084215
  0.9172408772876963  0.8290726084793008  0.5127164169826202
  0.9189821967175789  0.8490817314787407  0.9920023546475960
  0.9982031605385373  0.1773804239827186  0.1261902975773097
  0.9980479550946413  0.1680981140577771  0.6168204643231050
  0.9988417007385522  0.5064949878462386  0.1294585997123008
  0.3304465683213849  0.1587210997460602  0.1241605569871709
  0.1686261592479283  0.3270592867777680  0.3729361101793316
  0.9942017888151469  0.5018320470563751  0.6242238390103410
  0.3306836560642310  0.1688188615808528  0.6277893255574583
  0.1555870935193937  0.3300360240206146  0.8750046783502157
  0.0016908777155109  0.8140707344944786  0.1207830948574653
  0.3369101925911338  0.5091776592009722  0.1257517022700725
  0.1588322857458380  0.6687904599863899  0.3686877264766721
  0.0105242484506078  0.8310100744771560  0.6223144822562290
  0.6698717215816430  0.1680765734448713  0.1253641107610690
  0.5081155681084368  0.3351365340857839  0.3746160117394339
  0.3384150639250194  0.4993550979622228  0.6296582466035971
  0.1604293165419861  0.6799176699044054  0.8784816969186693
  0.6713255572414951  0.1733075486332680  0.6236756998423161
  0.5101228815043086  0.3399211199178680  0.8788803663582883
  0.3275377309029182  0.8335862220024168  0.1277342541504112
  0.1653997200646273  0.9997556451267897  0.3674973888090065
  0.6655975155091838  0.4966032275110308  0.1272801963271277
  0.4985834336967230  0.6636715646937361  0.3748294996163679
  0.3181563285483691  0.8336833702365212  0.6271557444002980
  0.1692650704625507  0.9920842042814044  0.8757172221798228
  0.8240380954485715  0.3257837481691368  0.3731601633141892
  0.6668870319517453  0.4927099979725682  0.6240380909620171
  0.5002043416619202  0.6657915333951152  0.8770522404918779
  0.8363950272803322  0.3358036444901558  0.8748164672240222
  0.6687417332729595  0.8335331700435518  0.1281854092604036
  0.5023735136618157  0.0002276348418917  0.3724560799932704
  0.8409968249960684  0.6673639558468523  0.3723415055635968
  0.6713669565475726  0.8375368260152101  0.6258031466290177
  0.4963468918290204  0.9941399207667203  0.8775356301035515
  0.8389526355405934  0.6707953516416296  0.8753857372337563
  0.8312357044282948  0.0094912867966102  0.3682217612837277
  0.8316590113204541  0.9961946769745111  0.8786541329373705
  0.0108049058741173  0.0830287940695911  0.2386226133671840
  0.9949219562593399  0.0756876246583005  0.7623764463381804
  0.9985260005926335  0.4166691979200934  0.2340455917153008
  0.3227363660336806  0.0823714582853583  0.2418716741325397
  0.1702103222488560  0.2508157154400976  0.5010715394431386
  0.9983866132980950  0.4178472349083080  0.7634147325628859
  0.3341804623639462  0.0802327158691156  0.7588110310170961
  0.1567851127166477  0.2473778693905047  0.0002716780564072
  0.0010308651692057  0.7496475046018531  0.2204858472036051
  0.3363594651748940  0.4201111207053998  0.2500975706497499
  0.1585000725490815  0.5858275724660373  0.4935662819021189
  0.9888773694646602  0.7530326802504348  0.7701509115455920
  0.6730179005093220  0.0843646212526679  0.2427191859467186
  0.5045438136012024  0.2546937106023464  0.4996648919928504
  0.3334277880749070  0.4173162887792756  0.7518509836488008
  0.1668805387867991  0.5884909781998786  0.0066558056413299
  0.6701231348873051  0.0801809746347004  0.7570353094885718
  0.5053494261079834  0.2525267917683820  0.0052376841775867
  0.3302108151693233  0.7500253807642210  0.2441052162593493
  0.1643959132035349  0.9131463760396343  0.4887915802339791
  0.6668979092680090  0.4163945704880021  0.2677877013865668
  0.5039993148147204  0.5815395229854019  0.5004796631210411
  0.3482462801965482  0.7529067258528030  0.7536055693152619
  0.1553141738371409  0.9152138245247414  0.0025927546834907
  0.8282438523459419  0.2525976437643820  0.5010407054882720
  0.6677096936848059  0.4169341230176755  0.7352222596106159
  0.4989397469162000  0.5819755293222002  0.9997755670630681
  0.8372625464641743  0.2493864273683926  0.0049383783851127
  0.6673067926251690  0.7520139045777015  0.2453772843204689
  0.5024890951914429  0.9138229229507573  0.5136845365756528
  0.8370836138792868  0.5820138029372188  0.5027210904473520
  0.6676298735953452  0.7523057002665965  0.7567607409173291
  0.4980796359956443  0.9175934535825760  0.9934789881120309
  0.8401677187798526  0.5835230128125701  0.9970587073852144
  0.8319382593803155  0.9160917346358843  0.5096666301961079
  0.8497889181237497  0.9147343053111570  0.9907515672666278
 
  0.00000000E+00  0.00000000E+00  0.00000000E+00
  0.00000000E+00  0.00000000E+00  0.00000000E+00
  0.00000000E+00  0.00000000E+00  0.00000000E+00
  0.00000000E+00  0.00000000E+00  0.00000000E+00
  0.00000000E+00  0.00000000E+00  0.00000000E+00
  0.00000000E+00  0.00000000E+00  0.00000000E+00
  0.00000000E+00  0.00000000E+00  0.00000000E+00
  0.00000000E+00  0.00000000E+00  0.00000000E+00
  0.00000000E+00  0.00000000E+00  0.00000000E+00
  0.00000000E+00  0.00000000E+00  0.00000000E+00
  0.00000000E+00  0.00000000E+00  0.00000000E+00
  0.00000000E+00  0.00000000E+00  0.00000000E+00
  0.00000000E+00  0.00000000E+00  0.00000000E+00
  0.00000000E+00  0.00000000E+00  0.00000000E+00
  0.00000000E+00  0.00000000E+00  0.00000000E+00
  0.00000000E+00  0.00000000E+00  0.00000000E+00
  0.00000000E+00  0.00000000E+00  0.00000000E+00
  0.00000000E+00  0.00000000E+00  0.00000000E+00
  0.00000000E+00  0.00000000E+00  0.00000000E+00
  0.00000000E+00  0.00000000E+00  0.00000000E+00
  0.00000000E+00  0.00000000E+00  0.00000000E+00
  0.00000000E+00  0.00000000E+00  0.00000000E+00
  0.00000000E+00  0.00000000E+00  0.00000000E+00
  0.00000000E+00  0.00000000E+00  0.00000000E+00
  0.00000000E+00  0.00000000E+00  0.00000000E+00
  0.00000000E+00  0.00000000E+00  0.00000000E+00
  0.00000000E+00  0.00000000E+00  0.00000000E+00
  0.00000000E+00  0.00000000E+00  0.00000000E+00
  0.00000000E+00  0.00000000E+00  0.00000000E+00
  0.00000000E+00  0.00000000E+00  0.00000000E+00
  0.00000000E+00  0.00000000E+00  0.00000000E+00
  0.00000000E+00  0.00000000E+00  0.00000000E+00
  0.00000000E+00  0.00000000E+00  0.00000000E+00
  0.00000000E+00  0.00000000E+00  0.00000000E+00
  0.00000000E+00  0.00000000E+00  0.00000000E+00
  0.00000000E+00  0.00000000E+00  0.00000000E+00
  0.00000000E+00  0.00000000E+00  0.00000000E+00
  0.00000000E+00  0.00000000E+00  0.00000000E+00
  0.00000000E+00  0.00000000E+00  0.00000000E+00
  0.00000000E+00  0.00000000E+00  0.00000000E+00
  0.00000000E+00  0.00000000E+00  0.00000000E+00
  0.00000000E+00  0.00000000E+00  0.00000000E+00
  0.00000000E+00  0.00000000E+00  0.00000000E+00
  0.00000000E+00  0.00000000E+00  0.00000000E+00
  0.00000000E+00  0.00000000E+00  0.00000000E+00
  0.00000000E+00  0.00000000E+00  0.00000000E+00
  0.00000000E+00  0.00000000E+00  0.00000000E+00
  0.00000000E+00  0.00000000E+00  0.00000000E+00
  0.00000000E+00  0.00000000E+00  0.00000000E+00
  0.00000000E+00  0.00000000E+00  0.00000000E+00
  0.00000000E+00  0.00000000E+00  0.00000000E+00
  0.00000000E+00  0.00000000E+00  0.00000000E+00
  0.00000000E+00  0.00000000E+00  0.00000000E+00
  0.00000000E+00  0.00000000E+00  0.00000000E+00
  0.00000000E+00  0.00000000E+00  0.00000000E+00
  0.00000000E+00  0.00000000E+00  0.00000000E+00
  0.00000000E+00  0.00000000E+00  0.00000000E+00
  0.00000000E+00  0.00000000E+00  0.00000000E+00
  0.00000000E+00  0.00000000E+00  0.00000000E+00
  0.00000000E+00  0.00000000E+00  0.00000000E+00
  0.00000000E+00  0.00000000E+00  0.00000000E+00
  0.00000000E+00  0.00000000E+00  0.00000000E+00
  0.00000000E+00  0.00000000E+00  0.00000000E+00
  0.00000000E+00  0.00000000E+00  0.00000000E+00
  0.00000000E+00  0.00000000E+00  0.00000000E+00
  0.00000000E+00  0.00000000E+00  0.00000000E+00
  0.00000000E+00  0.00000000E+00  0.00000000E+00
  0.00000000E+00  0.00000000E+00  0.00000000E+00
  0.00000000E+00  0.00000000E+00  0.00000000E+00
  0.00000000E+00  0.00000000E+00  0.00000000E+00
  0.00000000E+00  0.00000000E+00  0.00000000E+00
  0.00000000E+00  0.00000000E+00  0.00000000E+00
  0.00000000E+00  0.00000000E+00  0.00000000E+00
  0.00000000E+00  0.00000000E+00  0.00000000E+00
  0.00000000E+00  0.00000000E+00  0.00000000E+00
  0.00000000E+00  0.00000000E+00  0.00000000E+00
  0.00000000E+00  0.00000000E+00  0.00000000E+00
  0.00000000E+00  0.00000000E+00  0.00000000E+00
  0.00000000E+00  0.00000000E+00  0.00000000E+00
  0.00000000E+00  0.00000000E+00  0.00000000E+00
  0.00000000E+00  0.00000000E+00  0.00000000E+00
  0.00000000E+00  0.00000000E+00  0.00000000E+00
  0.00000000E+00  0.00000000E+00  0.00000000E+00
  0.00000000E+00  0.00000000E+00  0.00000000E+00
  0.00000000E+00  0.00000000E+00  0.00000000E+00
  0.00000000E+00  0.00000000E+00  0.00000000E+00
  0.00000000E+00  0.00000000E+00  0.00000000E+00
  0.00000000E+00  0.00000000E+00  0.00000000E+00
  0.00000000E+00  0.00000000E+00  0.00000000E+00
  0.00000000E+00  0.00000000E+00  0.00000000E+00
  0.00000000E+00  0.00000000E+00  0.00000000E+00
  0.00000000E+00  0.00000000E+00  0.00000000E+00
  0.00000000E+00  0.00000000E+00  0.00000000E+00
  0.00000000E+00  0.00000000E+00  0.00000000E+00
  0.00000000E+00  0.00000000E+00  0.00000000E+00
  0.00000000E+00  0.00000000E+00  0.00000000E+00
  0.00000000E+00  0.00000000E+00  0.00000000E+00
  0.00000000E+00  0.00000000E+00  0.00000000E+00
  0.00000000E+00  0.00000000E+00  0.00000000E+00
  0.00000000E+00  0.00000000E+00  0.00000000E+00
  0.00000000E+00  0.00000000E+00  0.00000000E+00
  0.00000000E+00  0.00000000E+00  0.00000000E+00
  0.00000000E+00  0.00000000E+00  0.00000000E+00
  0.00000000E+00  0.00000000E+00  0.00000000E+00
  0.00000000E+00  0.00000000E+00  0.00000000E+00
  0.00000000E+00  0.00000000E+00  0.00000000E+00
  0.00000000E+00  0.00000000E+00  0.00000000E+00
  0.00000000E+00  0.00000000E+00  0.00000000E+00
  0.00000000E+00  0.00000000E+00  0.00000000E+00
  0.00000000E+00  0.00000000E+00  0.00000000E+00
  0.00000000E+00  0.00000000E+00  0.00000000E+00
  0.00000000E+00  0.00000000E+00  0.00000000E+00
  0.00000000E+00  0.00000000E+00  0.00000000E+00
  0.00000000E+00  0.00000000E+00  0.00000000E+00
  0.00000000E+00  0.00000000E+00  0.00000000E+00
  0.00000000E+00  0.00000000E+00  0.00000000E+00
  0.00000000E+00  0.00000000E+00  0.00000000E+00
  0.00000000E+00  0.00000000E+00  0.00000000E+00
  0.00000000E+00  0.00000000E+00  0.00000000E+00
  0.00000000E+00  0.00000000E+00  0.00000000E+00
  0.00000000E+00  0.00000000E+00  0.00000000E+00
  0.00000000E+00  0.00000000E+00  0.00000000E+00
  0.00000000E+00  0.00000000E+00  0.00000000E+00
  0.00000000E+00  0.00000000E+00  0.00000000E+00
  0.00000000E+00  0.00000000E+00  0.00000000E+00
  0.00000000E+00  0.00000000E+00  0.00000000E+00
  0.00000000E+00  0.00000000E+00  0.00000000E+00
  0.00000000E+00  0.00000000E+00  0.00000000E+00
  0.00000000E+00  0.00000000E+00  0.00000000E+00
  0.00000000E+00  0.00000000E+00  0.00000000E+00
  0.00000000E+00  0.00000000E+00  0.00000000E+00
  0.00000000E+00  0.00000000E+00  0.00000000E+00
  0.00000000E+00  0.00000000E+00  0.00000000E+00
  0.00000000E+00  0.00000000E+00  0.00000000E+00
  0.00000000E+00  0.00000000E+00  0.00000000E+00
  0.00000000E+00  0.00000000E+00  0.00000000E+00
  0.00000000E+00  0.00000000E+00  0.00000000E+00
  0.00000000E+00  0.00000000E+00  0.00000000E+00
  0.00000000E+00  0.00000000E+00  0.00000000E+00
  0.00000000E+00  0.00000000E+00  0.00000000E+00
  0.00000000E+00  0.00000000E+00  0.00000000E+00
  0.00000000E+00  0.00000000E+00  0.00000000E+00
  0.00000000E+00  0.00000000E+00  0.00000000E+00
  0.00000000E+00  0.00000000E+00  0.00000000E+00
  0.00000000E+00  0.00000000E+00  0.00000000E+00
  0.00000000E+00  0.00000000E+00  0.00000000E+00
  0.00000000E+00  0.00000000E+00  0.00000000E+00
  0.00000000E+00  0.00000000E+00  0.00000000E+00
  0.00000000E+00  0.00000000E+00  0.00000000E+00
  0.00000000E+00  0.00000000E+00  0.00000000E+00
  0.00000000E+00  0.00000000E+00  0.00000000E+00
  0.00000000E+00  0.00000000E+00  0.00000000E+00
  0.00000000E+00  0.00000000E+00  0.00000000E+00
  0.00000000E+00  0.00000000E+00  0.00000000E+00
  0.00000000E+00  0.00000000E+00  0.00000000E+00
  0.00000000E+00  0.00000000E+00  0.00000000E+00
  0.00000000E+00  0.00000000E+00  0.00000000E+00
  0.00000000E+00  0.00000000E+00  0.00000000E+00
  0.00000000E+00  0.00000000E+00  0.00000000E+00
  0.00000000E+00  0.00000000E+00  0.00000000E+00
  0.00000000E+00  0.00000000E+00  0.00000000E+00
  0.00000000E+00  0.00000000E+00  0.00000000E+00
  0.00000000E+00  0.00000000E+00  0.00000000E+00
  0.00000000E+00  0.00000000E+00  0.00000000E+00
  0.00000000E+00  0.00000000E+00  0.00000000E+00
  0.00000000E+00  0.00000000E+00  0.00000000E+00
  0.00000000E+00  0.00000000E+00  0.00000000E+00
  0.00000000E+00  0.00000000E+00  0.00000000E+00
  0.00000000E+00  0.00000000E+00  0.00000000E+00
  0.00000000E+00  0.00000000E+00  0.00000000E+00
  0.00000000E+00  0.00000000E+00  0.00000000E+00
  0.00000000E+00  0.00000000E+00  0.00000000E+00
  0.00000000E+00  0.00000000E+00  0.00000000E+00
  0.00000000E+00  0.00000000E+00  0.00000000E+00
  0.00000000E+00  0.00000000E+00  0.00000000E+00
  0.00000000E+00  0.00000000E+00  0.00000000E+00
  0.00000000E+00  0.00000000E+00  0.00000000E+00
  0.00000000E+00  0.00000000E+00  0.00000000E+00
  0.00000000E+00  0.00000000E+00  0.00000000E+00
  0.00000000E+00  0.00000000E+00  0.00000000E+00
  0.00000000E+00  0.00000000E+00  0.00000000E+00
  0.00000000E+00  0.00000000E+00  0.00000000E+00
  0.00000000E+00  0.00000000E+00  0.00000000E+00
  0.00000000E+00  0.00000000E+00  0.00000000E+00
  0.00000000E+00  0.00000000E+00  0.00000000E+00
  0.00000000E+00  0.00000000E+00  0.00000000E+00
  0.00000000E+00  0.00000000E+00  0.00000000E+00
  0.00000000E+00  0.00000000E+00  0.00000000E+00
  0.00000000E+00  0.00000000E+00  0.00000000E+00
  0.00000000E+00  0.00000000E+00  0.00000000E+00
  0.00000000E+00  0.00000000E+00  0.00000000E+00
  0.00000000E+00  0.00000000E+00  0.00000000E+00
  0.00000000E+00  0.00000000E+00  0.00000000E+00
  0.00000000E+00  0.00000000E+00  0.00000000E+00
  0.00000000E+00  0.00000000E+00  0.00000000E+00
  0.00000000E+00  0.00000000E+00  0.00000000E+00
  0.00000000E+00  0.00000000E+00  0.00000000E+00
  0.00000000E+00  0.00000000E+00  0.00000000E+00
  0.00000000E+00  0.00000000E+00  0.00000000E+00
  0.00000000E+00  0.00000000E+00  0.00000000E+00
  0.00000000E+00  0.00000000E+00  0.00000000E+00
  0.00000000E+00  0.00000000E+00  0.00000000E+00
  0.00000000E+00  0.00000000E+00  0.00000000E+00
  0.00000000E+00  0.00000000E+00  0.00000000E+00
  0.00000000E+00  0.00000000E+00  0.00000000E+00
  0.00000000E+00  0.00000000E+00  0.00000000E+00
  0.00000000E+00  0.00000000E+00  0.00000000E+00
  0.00000000E+00  0.00000000E+00  0.00000000E+00
  0.00000000E+00  0.00000000E+00  0.00000000E+00
  0.00000000E+00  0.00000000E+00  0.00000000E+00
  0.00000000E+00  0.00000000E+00  0.00000000E+00
  0.00000000E+00  0.00000000E+00  0.00000000E+00
  0.00000000E+00  0.00000000E+00  0.00000000E+00
  0.00000000E+00  0.00000000E+00  0.00000000E+00
  0.00000000E+00  0.00000000E+00  0.00000000E+00
  0.00000000E+00  0.00000000E+00  0.00000000E+00
  0.00000000E+00  0.00000000E+00  0.00000000E+00
  0.00000000E+00  0.00000000E+00  0.00000000E+00
  0.00000000E+00  0.00000000E+00  0.00000000E+00
  0.00000000E+00  0.00000000E+00  0.00000000E+00
  0.00000000E+00  0.00000000E+00  0.00000000E+00
  0.00000000E+00  0.00000000E+00  0.00000000E+00
  0.00000000E+00  0.00000000E+00  0.00000000E+00
  0.00000000E+00  0.00000000E+00  0.00000000E+00
  0.00000000E+00  0.00000000E+00  0.00000000E+00
  0.00000000E+00  0.00000000E+00  0.00000000E+00
  0.00000000E+00  0.00000000E+00  0.00000000E+00
  0.00000000E+00  0.00000000E+00  0.00000000E+00
  0.00000000E+00  0.00000000E+00  0.00000000E+00
  0.00000000E+00  0.00000000E+00  0.00000000E+00
  0.00000000E+00  0.00000000E+00  0.00000000E+00
  0.00000000E+00  0.00000000E+00  0.00000000E+00
  0.00000000E+00  0.00000000E+00  0.00000000E+00
  0.00000000E+00  0.00000000E+00  0.00000000E+00
  0.00000000E+00  0.00000000E+00  0.00000000E+00
  0.00000000E+00  0.00000000E+00  0.00000000E+00
  0.00000000E+00  0.00000000E+00  0.00000000E+00
  0.00000000E+00  0.00000000E+00  0.00000000E+00
  0.00000000E+00  0.00000000E+00  0.00000000E+00
  0.00000000E+00  0.00000000E+00  0.00000000E+00
  0.00000000E+00  0.00000000E+00  0.00000000E+00
  0.00000000E+00  0.00000000E+00  0.00000000E+00
  0.00000000E+00  0.00000000E+00  0.00000000E+00
  0.00000000E+00  0.00000000E+00  0.00000000E+00
  0.00000000E+00  0.00000000E+00  0.00000000E+00
  0.00000000E+00  0.00000000E+00  0.00000000E+00
  0.00000000E+00  0.00000000E+00  0.00000000E+00
  0.00000000E+00  0.00000000E+00  0.00000000E+00
  0.00000000E+00  0.00000000E+00  0.00000000E+00
  0.00000000E+00  0.00000000E+00  0.00000000E+00
  0.00000000E+00  0.00000000E+00  0.00000000E+00
  0.00000000E+00  0.00000000E+00  0.00000000E+00
