generated by phonopy                    
   1.00000000000000     
     0.0000000000000000    3.4127543768907227    3.4127543768909137
     3.4127543768907986    0.0000000000000000    3.4127543768909137
     3.4127543768907986    3.4127543768907227    0.0000000000000000
   Sr   Y    Hf   Th   H 
     1     1     1     1    24
Direct
  0.2500000000000000  0.2500000000000000  0.2500000000000000
  0.7500000000000000  0.7500000000000000  0.7500000000000000
  0.0000000000000000  0.0000000000000000  0.0000000000000000
  0.5000000000000000  0.5000000000000000  0.5000000000000000
  0.1157242436174499  0.8815980958206566  0.6314970333387819
  0.8815980958206566  0.1157242436174499  0.3711806272231115
  0.6314970333387819  0.3711806272231115  0.1157242436174499
  0.3711806272231115  0.6314970333387819  0.8815980958206566
  0.6314970333387819  0.1157242436174499  0.8815980958206566
  0.3711806272231115  0.8815980958206566  0.1157242436174499
  0.1157242436174499  0.6314970333387819  0.3711806272231115
  0.8815980958206566  0.3711806272231115  0.6314970333387819
  0.8815980958206566  0.6314970333387819  0.1157242436174499
  0.1157242436174499  0.3711806272231115  0.8815980958206566
  0.3711806272231115  0.1157242436174499  0.6314970333387819
  0.6314970333387819  0.8815980958206566  0.3711806272231115
  0.1157242436174499  0.3711806272231115  0.6314970333387819
  0.3711806272231115  0.1157242436174499  0.8815980958206566
  0.6314970333387819  0.8815980958206566  0.1157242436174499
  0.8815980958206566  0.6314970333387819  0.3711806272231115
  0.6314970333387819  0.1157242436174499  0.3711806272231115
  0.8815980958206566  0.3711806272231115  0.1157242436174499
  0.1157242436174499  0.6314970333387819  0.8815980958206566
  0.3711806272231115  0.8815980958206566  0.6314970333387819
  0.3711806272231115  0.6314970333387819  0.1157242436174499
  0.1157242436174499  0.8815980958206566  0.3711806272231115
  0.8815980958206566  0.1157242436174499  0.6314970333387819
  0.6314970333387819  0.3711806272231115  0.8815980958206566
 
  0.00000000E+00  0.00000000E+00  0.00000000E+00
  0.00000000E+00  0.00000000E+00  0.00000000E+00
  0.00000000E+00  0.00000000E+00  0.00000000E+00
  0.00000000E+00  0.00000000E+00  0.00000000E+00
  0.00000000E+00  0.00000000E+00  0.00000000E+00
  0.00000000E+00  0.00000000E+00  0.00000000E+00
  0.00000000E+00  0.00000000E+00  0.00000000E+00
  0.00000000E+00  0.00000000E+00  0.00000000E+00
  0.00000000E+00  0.00000000E+00  0.00000000E+00
  0.00000000E+00  0.00000000E+00  0.00000000E+00
  0.00000000E+00  0.00000000E+00  0.00000000E+00
  0.00000000E+00  0.00000000E+00  0.00000000E+00
  0.00000000E+00  0.00000000E+00  0.00000000E+00
  0.00000000E+00  0.00000000E+00  0.00000000E+00
  0.00000000E+00  0.00000000E+00  0.00000000E+00
  0.00000000E+00  0.00000000E+00  0.00000000E+00
  0.00000000E+00  0.00000000E+00  0.00000000E+00
  0.00000000E+00  0.00000000E+00  0.00000000E+00
  0.00000000E+00  0.00000000E+00  0.00000000E+00
  0.00000000E+00  0.00000000E+00  0.00000000E+00
  0.00000000E+00  0.00000000E+00  0.00000000E+00
  0.00000000E+00  0.00000000E+00  0.00000000E+00
  0.00000000E+00  0.00000000E+00  0.00000000E+00
  0.00000000E+00  0.00000000E+00  0.00000000E+00
  0.00000000E+00  0.00000000E+00  0.00000000E+00
  0.00000000E+00  0.00000000E+00  0.00000000E+00
  0.00000000E+00  0.00000000E+00  0.00000000E+00
  0.00000000E+00  0.00000000E+00  0.00000000E+00
