POSCAR                                  
   1.00000000000000     
     0.0000000000000000    0.0238068338598228    6.5329277139327715
     0.0000000000000000    6.5699518953659899    0.0238809540654921
    -3.2996939906684792    0.0000000000000000    0.0000000000000000
   Zr   Y    Na   Hf   H 
     2     2     2     2    48
Direct
  0.2453443270421616  0.2571351339939909  0.5000000000000000
  0.4945163482038168  0.5061823635109874  0.0000000000000000
  0.7506829683231473  0.2518286371576579  0.5000000000000000
  0.0046927498865159  0.9972551513051400  0.0000000000000000
  0.0023154849123443  0.5015440185622495  0.0000000000000000
  0.2490768595452835  0.7490420749660558  0.5000000000000000
  0.4946317596390202  0.9926344495591550  0.0000000000000000
  0.7577637005880007  0.7425771454922341  0.5000000000000000
  0.0025710155844294  0.1229572657908591  0.5000000000000000
  0.2370739719377326  0.3825692166333425  0.0000000000000000
  0.4951552565267150  0.1259755051874976  0.5000000000000000
  0.7582473208558724  0.3820549258343533  0.0000000000000000
  0.0151991063131476  0.6231028631000370  0.5000000000000000
  0.2517300141840337  0.8627907409190243  0.0000000000000000
  0.4821844154426813  0.6303531762214192  0.5000000000000000
  0.7505316825206876  0.8695090622068236  0.0000000000000000
  0.0027044428559577  0.2657041406571921  0.7592776762753033
  0.2375408189624437  0.5140177963026389  0.2488495048277883
  0.4930527962900513  0.2522814333047307  0.7480790937694266
  0.7610117280700521  0.5026564696597120  0.2384258518784108
  0.0140274233763833  0.7344013165543331  0.7545390518025314
  0.2529974785367131  0.9935553871633971  0.2618700536671170
  0.4924291939818701  0.7477626615094906  0.7366800550292254
  0.7472779907610274  0.9922659356136876  0.2505975591544782
  0.1291338883171420  0.9791559440242281  0.5000000000000000
  0.3713272438747808  0.2538595684736009  0.0000000000000000
  0.6224520114826007  0.9973617043687995  0.5000000000000000
  0.8805539424545401  0.2633363360377103  0.0000000000000000
  0.1263513682263024  0.5152040786030412  0.5000000000000000
  0.3641258695678786  0.7488963450623274  0.0000000000000000
  0.6201633215760936  0.5021988296714284  0.5000000000000000
  0.8834761288070467  0.7344198559167197  0.0000000000000000
  0.2529974785367131  0.9935553871633971  0.7381299463328830
  0.4930527962900513  0.2522814333047307  0.2519209062305734
  0.7472779907610274  0.9922659356136876  0.7494024408455218
  0.0027044428559577  0.2657041406571921  0.2407223237246967
  0.2375408189624437  0.5140177963026389  0.7511504951722117
  0.4924291939818701  0.7477626615094906  0.2633199449707746
  0.7610117280700521  0.5026564696597120  0.7615741481215892
  0.0140274233763833  0.7344013165543331  0.2454609481974686
  0.1217859150967087  0.2677610223778828  0.0000000000000000
  0.3690933132307492  0.5163060108731230  0.5000000000000000
  0.6206065754576784  0.2510948893271987  0.0000000000000000
  0.8890463500365158  0.4991163959718321  0.5000000000000000
  0.1240917721546992  0.7381823994942707  0.0000000000000000
  0.3705096196148929  0.9872092095533702  0.5000000000000000
  0.6291570992263331  0.7455180839367728  0.0000000000000000
  0.8782891676271234  0.9954420169478269  0.5000000000000000
  0.2523848039869918  0.1325013585022319  0.0000000000000000
  0.4957199346370089  0.3777412633393311  0.5000000000000000
  0.7450623155653631  0.1232780161481486  0.0000000000000000
  0.9987775485736563  0.3863846687652881  0.5000000000000000
  0.2409011307280196  0.6237977658995604  0.0000000000000000
  0.4867720527035360  0.8682425417110977  0.5000000000000000
  0.7669947450785912  0.6194470072047338  0.0000000000000000
  0.0194231548012169  0.8707426758183274  0.5000000000000000
 
  0.00000000E+00  0.00000000E+00  0.00000000E+00
  0.00000000E+00  0.00000000E+00  0.00000000E+00
  0.00000000E+00  0.00000000E+00  0.00000000E+00
  0.00000000E+00  0.00000000E+00  0.00000000E+00
  0.00000000E+00  0.00000000E+00  0.00000000E+00
  0.00000000E+00  0.00000000E+00  0.00000000E+00
  0.00000000E+00  0.00000000E+00  0.00000000E+00
  0.00000000E+00  0.00000000E+00  0.00000000E+00
  0.00000000E+00  0.00000000E+00  0.00000000E+00
  0.00000000E+00  0.00000000E+00  0.00000000E+00
  0.00000000E+00  0.00000000E+00  0.00000000E+00
  0.00000000E+00  0.00000000E+00  0.00000000E+00
  0.00000000E+00  0.00000000E+00  0.00000000E+00
  0.00000000E+00  0.00000000E+00  0.00000000E+00
  0.00000000E+00  0.00000000E+00  0.00000000E+00
  0.00000000E+00  0.00000000E+00  0.00000000E+00
  0.00000000E+00  0.00000000E+00  0.00000000E+00
  0.00000000E+00  0.00000000E+00  0.00000000E+00
  0.00000000E+00  0.00000000E+00  0.00000000E+00
  0.00000000E+00  0.00000000E+00  0.00000000E+00
  0.00000000E+00  0.00000000E+00  0.00000000E+00
  0.00000000E+00  0.00000000E+00  0.00000000E+00
  0.00000000E+00  0.00000000E+00  0.00000000E+00
  0.00000000E+00  0.00000000E+00  0.00000000E+00
  0.00000000E+00  0.00000000E+00  0.00000000E+00
  0.00000000E+00  0.00000000E+00  0.00000000E+00
  0.00000000E+00  0.00000000E+00  0.00000000E+00
  0.00000000E+00  0.00000000E+00  0.00000000E+00
  0.00000000E+00  0.00000000E+00  0.00000000E+00
  0.00000000E+00  0.00000000E+00  0.00000000E+00
  0.00000000E+00  0.00000000E+00  0.00000000E+00
  0.00000000E+00  0.00000000E+00  0.00000000E+00
  0.00000000E+00  0.00000000E+00  0.00000000E+00
  0.00000000E+00  0.00000000E+00  0.00000000E+00
  0.00000000E+00  0.00000000E+00  0.00000000E+00
  0.00000000E+00  0.00000000E+00  0.00000000E+00
  0.00000000E+00  0.00000000E+00  0.00000000E+00
  0.00000000E+00  0.00000000E+00  0.00000000E+00
  0.00000000E+00  0.00000000E+00  0.00000000E+00
  0.00000000E+00  0.00000000E+00  0.00000000E+00
  0.00000000E+00  0.00000000E+00  0.00000000E+00
  0.00000000E+00  0.00000000E+00  0.00000000E+00
  0.00000000E+00  0.00000000E+00  0.00000000E+00
  0.00000000E+00  0.00000000E+00  0.00000000E+00
  0.00000000E+00  0.00000000E+00  0.00000000E+00
  0.00000000E+00  0.00000000E+00  0.00000000E+00
  0.00000000E+00  0.00000000E+00  0.00000000E+00
  0.00000000E+00  0.00000000E+00  0.00000000E+00
  0.00000000E+00  0.00000000E+00  0.00000000E+00
  0.00000000E+00  0.00000000E+00  0.00000000E+00
  0.00000000E+00  0.00000000E+00  0.00000000E+00
  0.00000000E+00  0.00000000E+00  0.00000000E+00
  0.00000000E+00  0.00000000E+00  0.00000000E+00
  0.00000000E+00  0.00000000E+00  0.00000000E+00
  0.00000000E+00  0.00000000E+00  0.00000000E+00
  0.00000000E+00  0.00000000E+00  0.00000000E+00
