       N       E                     dE             d eps       ncg     rms          rms(c)
DAV:   1     0.144732114174E+05    0.14473E+05   -0.26936E+05138368   0.254E+03
DAV:   2     0.273197883798E+04   -0.11741E+05   -0.10967E+05137760   0.824E+02
DAV:   3    -0.196241854159E+03   -0.29282E+04   -0.26717E+04168824   0.426E+02
DAV:   4    -0.656707366049E+03   -0.46047E+03   -0.43794E+03233112   0.236E+02
DAV:   5    -0.689063885535E+03   -0.32357E+02   -0.31179E+02231440   0.746E+01
DAV:   6    -0.691433258453E+03   -0.23694E+01   -0.23102E+01237920   0.171E+01
DAV:   7    -0.691612297236E+03   -0.17904E+00   -0.17660E+00234208   0.468E+00
DAV:   8    -0.691630973451E+03   -0.18676E-01   -0.18540E-01252888   0.137E+00
DAV:   9    -0.691632631966E+03   -0.16585E-02   -0.16532E-02243344   0.409E-01
DAV:  10    -0.691632812709E+03   -0.18074E-03   -0.18060E-03255304   0.116E-01
DAV:  11    -0.691632827469E+03   -0.14760E-04   -0.14780E-04236424   0.291E-02
DAV:  12    -0.691632829044E+03   -0.15753E-05   -0.15795E-05191696   0.788E-03
DAV:  13    -0.691632829214E+03   -0.17017E-06   -0.17205E-06148136   0.276E-03
DAV:  14    -0.691632829235E+03   -0.20569E-07   -0.20406E-07139464   0.128E-03
   1 F= -.69163283E+03 E0= -.69163283E+03  d E =0.000000E+00
