POSCAR                                  
   1.00000000000000     
    10.0293545910125861    0.0109111331007565    0.0000536612909552
     0.0109501122787675   10.0218128749576465   -0.0013579320808221
     0.0000461194814528   -0.0009160196179462    6.6472308011933654
   Mg   Na   Zr   Ca   H 
     9     9     9     9   216
Direct
  0.1586130566030620  0.1638355266899200  0.2537967137023716
  0.1676668534052083  0.4996884947681286  0.2564369272915345
  0.3278392223550774  0.3316020745289494  0.4982630847326952
  0.4998054012642449  0.5027368916768421  0.2547655540605567
  0.3382411572502677  0.9927757134276598  0.5011850544372769
  0.8359384589498627  0.4953082588528870  0.2553133213003917
  0.6674568960339307  0.6677514410095611  0.5009091845818591
  0.8348402260048942  0.8351739335373349  0.7479779756802299
  0.9941586816609678  0.0020707919347268  0.5021160091841967
  0.1624177642177184  0.1602252467492919  0.7407023232940358
  0.3270072284753013  0.6682807790414416  0.4996393154603426
  0.1658072916744757  0.8384991899918064  0.7458997066893983
  0.8356924510945017  0.1718363481891325  0.2515525645404085
  0.0020815105010891  0.3360302345613015  0.4995115719938747
  0.6706335509520300  0.9988031939014950  0.5004819416100101
  0.0037098834947788  0.6654659598930630  0.4976863539349774
  0.6717297638268791  0.9971998917980806  0.0000231024386506
  0.0013769292913944 -0.0003163784088944  0.0039017609669964
  0.5004005692023701  0.1647538757302504  0.2531256224603045
  0.1633445227726658  0.4988287638059195  0.7398893370533975
  0.5015244025506939  0.1624599789416265  0.7458073429202243
  0.3259803580723356  0.3310618784606504  0.0013729184956826
  0.3339755192194710  0.6679399909234178  0.0003862651387965
  0.6736014195744768  0.3354244293842964  0.0019015651992457
  0.3258743208830388  0.9984806675687602  0.9977892875520329
  0.0006025922022387  0.3257468923414599  0.0026487545684426
  0.8348329400501242  0.8421483414488059  0.2553322371909452
  0.1629003131972254  0.8312927646545991  0.2539423157733542
  0.6660800213200893  0.3351770403736762  0.4994701609542407
  0.5010976115587159  0.5020628680797420  0.7482781984339196
  0.8395024525455215  0.1616224965473622  0.7471399401912643
  0.5034366623702692  0.8291754109436344  0.2536144351201747
  0.4992928230444102  0.8305161161051194  0.7441183845423562
  0.8354554812788705  0.5078667935157901  0.7495189837742566
  0.6686814673778653  0.6719747687933562  0.0057463910219651
  0.9968551865879273  0.6733166509561200  0.9980096634914645
  0.1595958823166352  0.0833751780640514  0.9955834150024688
  0.1484996768947185  0.0866306150441742  0.4955081993621218
  0.1636458038012560  0.4193801463239755  0.0069672495500169
  0.5109043778759923  0.0810948454228908 -0.0000461270073711
  0.3243192595167144  0.2476243703259025  0.2718231513906649
  0.1678355200978681  0.4153609790750189  0.4874968169986907
  0.5031792595003926  0.0798029188175862  0.4969654438988076
  0.3230043659928203  0.2462817935447658  0.7282537804990877
  0.1653095079180775  0.7487550049263606  0.9846931171748627
  0.4980641290880272  0.4176872081892377  0.0097420042819319
  0.3385547792967379  0.5806860443072942  0.2558814903584867
  0.1630961765593434  0.7475486346996201  0.5140750888829164
  0.8340395068215924  0.0839524379049088  0.0092380553139010
  0.6717826009399547  0.2484327687030368  0.2533973132521104
  0.4870889740415365  0.4151264910480340  0.4936749275277051
  0.3333933125526531  0.5854366866779431  0.7331995687680508
  0.8414893114021867  0.0837308584826650  0.4868860699702744
  0.6726306724703648  0.2509157980321835  0.7487305779431440
  0.5009266226190445  0.7520484268781484  0.9969385326739608
  0.3339215352933635  0.9158630437231645  0.2555427842408902
  0.8378033907121805  0.4212583778957992  0.0089175931239760
  0.6859940480030409  0.5852278231542715  0.2553691504164678
  0.4906415469194491  0.7491334723230088  0.5006609109071694
  0.3317566943223392  0.9150213619263271  0.7412376069999742
  0.0023916949594619  0.2452566234469045  0.2751644720555290
  0.8375389631234786  0.4152865985948185  0.4963758828491353
  0.6674500969408117  0.5822859054339428  0.7480157529138969
  0.0065375451071653  0.2475896153566197  0.7292393754995108
  0.8334125339308971  0.7528553188324979  0.9994911012176081
  0.6653130346099755  0.9200561623392945  0.2575672857661259
  0.9824079293970049  0.5862704071799997  0.2521713422186343
  0.8429990672728880  0.7511527726826186  0.5037106261841195
  0.6635766454942247  0.9200358166817560  0.7430946921776452
  0.0009927901778378  0.5861955782727207  0.7409600512072670
  0.0011302716115799  0.9213090587753249  0.2567126979029483
  0.0091870465566771  0.9214415658398004  0.7385369830386367
  0.0861430097808894  0.1591987540129094  0.0023418674510311
  0.0822986738356425  0.1499709149179592  0.4980608168745795
  0.0818996602791878  0.5056705042384042  0.0268738113444036
  0.4137436147453800  0.1663163431155186  0.0021952609902209
  0.2481840540314953  0.3340973731393265  0.2603940385919459
  0.0789100326987241  0.5004300481036811  0.4785332486632895
  0.4121195136399854  0.1608378778021058  0.4955579828079398
  0.2494017761281484  0.3216692235516360  0.7372203675477439
  0.0866734646304637  0.8420486276141085  0.9904986454660069
  0.4197614131036037  0.4975696988138334  0.0149399306324225
  0.2498549333525484  0.6609480466481096  0.2597918002340695
  0.0828144680642720  0.8508676956445316  0.5071502316370080
  0.7517849034283826  0.1590001719696561  0.0041562395461023
  0.5819257122362086  0.3460094217849903  0.2522244021820644
  0.4186185738301472  0.5132251070645115  0.4933329419220188
  0.2441789660682997  0.6687350674576500  0.7385750352845716
  0.7457322107484577  0.1617013132252824  0.4917659345110615
  0.5817426128837214  0.3342825562830691  0.7495672557742589
  0.4181044501670094  0.8334567503049444  0.9996561312825898
  0.2462395355540952  0.0014838616948213  0.2834357637913693
  0.7527950247302464  0.5052484390659273  0.0121199974290101
  0.5849203210479003  0.6560487547000070  0.2657049577868607
  0.4196978433945058  0.8204148408293196  0.4974901524061942
  0.2438853040635224  0.0030758078811333  0.7187665570427595
  0.9174582076251038  0.3370554226499142  0.2581767046724803
  0.7500771503016773  0.5041390262698942  0.4922472640114999
  0.5857115836805409  0.6698542118723581  0.7444361586964355
  0.9174299489766505  0.3355057504738904  0.7426589148719615
  0.7467382373024589  0.8393048780328567  0.9759107069242170
  0.5867345681813297  0.9967851071585458  0.2511378546877329
  0.9184785460002688  0.6519827923560252  0.2571921042358842
  0.7480529274911299  0.8334996647577843  0.5204017119765179
  0.5902420782786924  0.9883131990461953  0.7499837668820339
  0.9181040700876875  0.6749086557590159  0.7331821826666276
  0.9165657906111916  0.0152151544441991  0.2436354868407240
  0.9153644635302901  0.9929241952809670  0.7611568240223017
  0.1616720033966883  0.0043142739769942  0.1290236404941344
  0.1761930166537782  0.0000903707747246  0.6190533994170256
  0.1654591104166774  0.3238677586047403  0.1346801152745900
  0.5038180241307791  0.9976133735155769  0.1212782633247213
  0.3213539889888725  0.1609467956199127  0.3783655313023925
  0.1637578732484843  0.3193406829571693  0.6175595374034115
  0.5008245500102271  0.9957259385012490  0.6206413130101316
  0.3226940736073641  0.1648517634097493  0.8658519926943650
  0.1620484660845085  0.6597981105913026  0.1292602572533673
  0.4971298962642207  0.3348667001517119  0.1274898274437783
  0.3290251105092379  0.4995685905169611  0.3760892224660112
  0.1665017802543747  0.6826679743103049  0.6131641127978422
  0.8396341709175615  0.0078442411349872  0.1203181700825821
  0.6788454633986551  0.1642896686562264  0.3792459902731827
  0.4927167278680843  0.3347387520140742  0.6228088851630529
  0.3293961773042612  0.4976871407402702  0.8723689969892917
  0.8363814138644829  0.9896161962764154  0.6262027386014809
  0.6702499291837807  0.1561715539550915  0.8755564598488166
  0.5010176593448979  0.6613907667244007  0.1283940081785237
  0.3310395801665885  0.8296096660387499  0.3757630524873390
  0.8372490748465490  0.3324589239234980  0.1311646114336677
  0.6666031447434400  0.5016018844786273  0.3777825972363780
  0.5042393182115104  0.6644195372861577  0.6182016764604467
  0.3234729013047519  0.8346417535477278  0.8691142495552927
  0.9991148567950551  0.1759108748781164  0.3728002939859396
  0.8373575376346368  0.3386907197846234  0.6249762156362323
  0.6688975175283340  0.5085572224061390  0.8755556092162884
  0.0067484333269123  0.1483381985660903  0.8683904253467933
  0.8342744953132514  0.6707429971198990  0.1272052871226056
  0.6691733529915365  0.8342608743588101  0.3802971835885252
  0.0090706975293556  0.4961374814907284  0.3728465816095358
  0.8304269117054078  0.6748699462847305  0.6253545433292523
  0.6841692310429045  0.8371575105332788  0.8731375144881274
  0.0031692181578614  0.5025878184415360  0.8770724639205998
  0.9981726666108703  0.8291570325845508  0.3773936357945031
  0.9873606559561912  0.8427758435874190  0.8726066468434814
  0.0832372195527248  0.0042542698778952  0.2629244553684422
  0.0819618391152089  0.9907136789763354  0.7481987573813204
  0.0827021143684040  0.3371453235104496  0.2585506152487890
  0.4162960280890375  0.9983253498882945  0.2620403876361694
  0.2493407914302318  0.1509706655408433  0.4953128687170148
  0.0844635227120745  0.3221240140423230  0.7398738390811669
  0.4174586839100927  0.9986179922931206  0.7392308192043657
  0.2445128048647592  0.1635570249394034  0.9919245510511202
  0.0843895394229663  0.6595249946823075  0.2491772974820549
  0.4168036266874450  0.3388596913650552  0.2546863830959475
  0.2554380662599561  0.4987402651891709  0.4835885445027394
  0.0795334207357716  0.6854136797355036  0.7471569412724743
  0.7489445603317546  0.0150855586552033  0.2526970865750327
  0.5862656411288245  0.1583268663665788  0.4973932309391621
  0.4127047606562003  0.3349017692216055  0.7439523804328694
  0.2484957184398895  0.5000372625530766  0.0272518291645798
  0.7490107916597690  0.9989860590918332  0.7471767769878239
  0.5861496227280550  0.1608778234344890  0.0013513795033366
  0.4184283097178083  0.6607739975302099  0.2740192715283940
  0.2509911935668067  0.8423810911045704  0.5034829714754847
  0.7511218802754178  0.3338076976159186  0.2556987925709752
  0.5843795709558190  0.5110330420734445  0.4839013424568207
  0.4138131002812865  0.6635752927562772  0.7342874397039709
  0.2475318714481679  0.8336052723420694  0.9925823255272889
  0.9104205449919072  0.1797587177128211  0.4921812456180691
  0.7528934267270375  0.3300193964275244  0.7441938754188989
  0.5827493227350519  0.5047671585920568  0.0168609670079168
  0.9178752779771873  0.1598224783823221  0.0118217649836367
  0.7516877635033687  0.6551499965387630  0.2620296119280750
  0.5857213770634667  0.8292231168297788  0.5000953415750139
  0.9154714972203446  0.5055997560452757  0.4938471400644511
  0.7516189862053831  0.6759714308664992  0.7384970854361113
  0.5827988355027092  0.8391429166019725  0.9994643244745892
  0.9199883103986095  0.4973881485923419  0.0138296930694380
  0.9190166458899802  0.8233476754362424  0.5220271015577996
  0.9230190484838445  0.8416806675408741  0.9738943893278512
  0.9963210892534247  0.1582689268928152  0.1247296305157996
  0.0033096198275480  0.1693485526102298  0.6223859917012803
  0.0147503675115103  0.5079570550365293  0.1279745120190668
  0.3160976721384253  0.1653125072277975  0.1303034981666472
  0.1633170723391180  0.3320414607386032  0.3768026558715468
  0.9982909031709765  0.4997403039596836  0.6200751776104684
  0.3217742026295339  0.1599703325955311  0.6170928204178372
  0.1649499939872392  0.3206415442662048  0.8654703641787339
  0.9955795963017977  0.8429513130031921  0.1251368397193290
  0.3261516848855188  0.4996090265029373  0.1296572782494690
  0.1698878966973185  0.6557728637367916  0.3727269943763089
  0.9919407103004476  0.8384410853424088  0.6282474791322455
  0.6720093625647534  0.1592265560106995  0.1246445607465268
  0.4928026536482928  0.3417464893106324  0.3771034328778081
  0.3334881135010656  0.4995770906388186  0.6231758752717365
  0.1632133787083745  0.6755130584784310  0.8711051091130081
  0.6718399755020147  0.1612394328895934  0.6226710953648988
  0.4975679114637480  0.3335240981037449  0.8751909179876971
  0.3326894900990797  0.8349887355498676  0.1292921897525330
  0.1778886091067313  0.0001548671324543  0.3786033646110529
  0.6666191865986307  0.5048908169820122  0.1304651801511781
  0.4898998893812760  0.6622671573618122  0.3731284637339244
  0.3226285921252312  0.8314762129121559  0.6261429884602780
  0.1570208353835299  0.0006393951863963  0.8694493387601709
  0.8386028393077652  0.3395644995513639  0.3778853457677604
  0.6689925198507561  0.5104258216483596  0.6246142032719612
  0.5052241103402414  0.6661200058663347  0.8745567447875869
  0.8375580875743543  0.3363492591640118  0.8696532404869592
  0.6722924626111321  0.8411047294553272  0.1247137610268879
  0.4992083818991661  0.9970571841406282  0.3738049943038338
  0.8334037919081109  0.6669903560050386  0.3849603031094702
  0.6797412031437882  0.8310229470256938  0.6250952498224981
  0.5066305066539655  0.9971439039164998  0.8770398863356876
  0.8305987546156928  0.6822923362783223  0.8725660180092164
  0.8364982523120987  0.0137270626588092  0.3805624138351518
  0.8433838676382623  0.9881596004052960  0.8742281540203580
  0.9928726373383538  0.0833517352481528  0.2538737610648137
  0.0039214542609445  0.0850128207247310  0.7620708958164815
  0.0056484716514783  0.4155981899696436  0.2591945065037197
  0.3238971314762805  0.0839723274569150  0.2565371743827641
  0.1656998503824091  0.2512544641383659  0.4932730254821769
  0.9981684181219852  0.4160290682608344  0.7382239335363894
  0.3239575552113927  0.0827056551627712  0.7409106119460163
  0.1642957798896220  0.2449504415285266  0.9890105451413312
  0.9961378102496232  0.7503014446901849  0.2676479651186248
  0.3366195460891034  0.4147444828822259  0.2599657777064030
  0.1690065398379108  0.5827828171048021  0.4931749504587348
  0.0126243562186918  0.7496317587456902  0.7371710576377212
  0.6816342852349608  0.0807522731367281  0.2421626520003431
  0.4905041125628682  0.2530465017921639  0.4954963413285561
  0.3357516644790969  0.4136851060585797  0.7319766062488963
  0.1656072140473551  0.5832554243311998  0.9973634858042962
  0.6765688952917807  0.0795141967604918  0.7573968317471433
  0.5009080101006412  0.2515021871699990  0.0031760656475108
  0.3318457552751312  0.7509492319034858  0.2645107504769745
  0.1496729885938529  0.9130313001368092  0.5067434719725382
  0.6634250748642185  0.4226788455063923  0.2570954508610865
  0.4861712425144795  0.5802021388965688  0.4966556204690054
  0.3248000707248099  0.7524869849891191  0.7333165628740808
  0.1547129706758811  0.9135380361370862  0.9915182226379956
  0.8478533300773873  0.2481246651858315  0.4931471079093755
  0.6676214494461310  0.4190838622886144  0.7466103818020943
  0.5027729365310984  0.5806811579587690  0.0102271570362093
  0.8347416122437322  0.2449037763350458  0.0063156251785635
  0.6743032945685263  0.7483655128363709  0.2684528658835512
  0.5049614935006215  0.9171010345123043  0.5004980921987460
  0.8386806991266463  0.5863308529015765  0.4852296784757728
  0.6661579936559572  0.7477437412399073  0.7435487083469723
  0.5057914559568250  0.9187076190799994  0.9970764301872157
  0.8327155105395905  0.5856458852084541  0.0232379611801153
  0.8352581993499706  0.9206320201803788  0.5144465005643732
  0.8347646510680795  0.9229034832521239  0.9987649673323561
 
  0.00000000E+00  0.00000000E+00  0.00000000E+00
  0.00000000E+00  0.00000000E+00  0.00000000E+00
  0.00000000E+00  0.00000000E+00  0.00000000E+00
  0.00000000E+00  0.00000000E+00  0.00000000E+00
  0.00000000E+00  0.00000000E+00  0.00000000E+00
  0.00000000E+00  0.00000000E+00  0.00000000E+00
  0.00000000E+00  0.00000000E+00  0.00000000E+00
  0.00000000E+00  0.00000000E+00  0.00000000E+00
  0.00000000E+00  0.00000000E+00  0.00000000E+00
  0.00000000E+00  0.00000000E+00  0.00000000E+00
  0.00000000E+00  0.00000000E+00  0.00000000E+00
  0.00000000E+00  0.00000000E+00  0.00000000E+00
  0.00000000E+00  0.00000000E+00  0.00000000E+00
  0.00000000E+00  0.00000000E+00  0.00000000E+00
  0.00000000E+00  0.00000000E+00  0.00000000E+00
  0.00000000E+00  0.00000000E+00  0.00000000E+00
  0.00000000E+00  0.00000000E+00  0.00000000E+00
  0.00000000E+00  0.00000000E+00  0.00000000E+00
  0.00000000E+00  0.00000000E+00  0.00000000E+00
  0.00000000E+00  0.00000000E+00  0.00000000E+00
  0.00000000E+00  0.00000000E+00  0.00000000E+00
  0.00000000E+00  0.00000000E+00  0.00000000E+00
  0.00000000E+00  0.00000000E+00  0.00000000E+00
  0.00000000E+00  0.00000000E+00  0.00000000E+00
  0.00000000E+00  0.00000000E+00  0.00000000E+00
  0.00000000E+00  0.00000000E+00  0.00000000E+00
  0.00000000E+00  0.00000000E+00  0.00000000E+00
  0.00000000E+00  0.00000000E+00  0.00000000E+00
  0.00000000E+00  0.00000000E+00  0.00000000E+00
  0.00000000E+00  0.00000000E+00  0.00000000E+00
  0.00000000E+00  0.00000000E+00  0.00000000E+00
  0.00000000E+00  0.00000000E+00  0.00000000E+00
  0.00000000E+00  0.00000000E+00  0.00000000E+00
  0.00000000E+00  0.00000000E+00  0.00000000E+00
  0.00000000E+00  0.00000000E+00  0.00000000E+00
  0.00000000E+00  0.00000000E+00  0.00000000E+00
  0.00000000E+00  0.00000000E+00  0.00000000E+00
  0.00000000E+00  0.00000000E+00  0.00000000E+00
  0.00000000E+00  0.00000000E+00  0.00000000E+00
  0.00000000E+00  0.00000000E+00  0.00000000E+00
  0.00000000E+00  0.00000000E+00  0.00000000E+00
  0.00000000E+00  0.00000000E+00  0.00000000E+00
  0.00000000E+00  0.00000000E+00  0.00000000E+00
  0.00000000E+00  0.00000000E+00  0.00000000E+00
  0.00000000E+00  0.00000000E+00  0.00000000E+00
  0.00000000E+00  0.00000000E+00  0.00000000E+00
  0.00000000E+00  0.00000000E+00  0.00000000E+00
  0.00000000E+00  0.00000000E+00  0.00000000E+00
  0.00000000E+00  0.00000000E+00  0.00000000E+00
  0.00000000E+00  0.00000000E+00  0.00000000E+00
  0.00000000E+00  0.00000000E+00  0.00000000E+00
  0.00000000E+00  0.00000000E+00  0.00000000E+00
  0.00000000E+00  0.00000000E+00  0.00000000E+00
  0.00000000E+00  0.00000000E+00  0.00000000E+00
  0.00000000E+00  0.00000000E+00  0.00000000E+00
  0.00000000E+00  0.00000000E+00  0.00000000E+00
  0.00000000E+00  0.00000000E+00  0.00000000E+00
  0.00000000E+00  0.00000000E+00  0.00000000E+00
  0.00000000E+00  0.00000000E+00  0.00000000E+00
  0.00000000E+00  0.00000000E+00  0.00000000E+00
  0.00000000E+00  0.00000000E+00  0.00000000E+00
  0.00000000E+00  0.00000000E+00  0.00000000E+00
  0.00000000E+00  0.00000000E+00  0.00000000E+00
  0.00000000E+00  0.00000000E+00  0.00000000E+00
  0.00000000E+00  0.00000000E+00  0.00000000E+00
  0.00000000E+00  0.00000000E+00  0.00000000E+00
  0.00000000E+00  0.00000000E+00  0.00000000E+00
  0.00000000E+00  0.00000000E+00  0.00000000E+00
  0.00000000E+00  0.00000000E+00  0.00000000E+00
  0.00000000E+00  0.00000000E+00  0.00000000E+00
  0.00000000E+00  0.00000000E+00  0.00000000E+00
  0.00000000E+00  0.00000000E+00  0.00000000E+00
  0.00000000E+00  0.00000000E+00  0.00000000E+00
  0.00000000E+00  0.00000000E+00  0.00000000E+00
  0.00000000E+00  0.00000000E+00  0.00000000E+00
  0.00000000E+00  0.00000000E+00  0.00000000E+00
  0.00000000E+00  0.00000000E+00  0.00000000E+00
  0.00000000E+00  0.00000000E+00  0.00000000E+00
  0.00000000E+00  0.00000000E+00  0.00000000E+00
  0.00000000E+00  0.00000000E+00  0.00000000E+00
  0.00000000E+00  0.00000000E+00  0.00000000E+00
  0.00000000E+00  0.00000000E+00  0.00000000E+00
  0.00000000E+00  0.00000000E+00  0.00000000E+00
  0.00000000E+00  0.00000000E+00  0.00000000E+00
  0.00000000E+00  0.00000000E+00  0.00000000E+00
  0.00000000E+00  0.00000000E+00  0.00000000E+00
  0.00000000E+00  0.00000000E+00  0.00000000E+00
  0.00000000E+00  0.00000000E+00  0.00000000E+00
  0.00000000E+00  0.00000000E+00  0.00000000E+00
  0.00000000E+00  0.00000000E+00  0.00000000E+00
  0.00000000E+00  0.00000000E+00  0.00000000E+00
  0.00000000E+00  0.00000000E+00  0.00000000E+00
  0.00000000E+00  0.00000000E+00  0.00000000E+00
  0.00000000E+00  0.00000000E+00  0.00000000E+00
  0.00000000E+00  0.00000000E+00  0.00000000E+00
  0.00000000E+00  0.00000000E+00  0.00000000E+00
  0.00000000E+00  0.00000000E+00  0.00000000E+00
  0.00000000E+00  0.00000000E+00  0.00000000E+00
  0.00000000E+00  0.00000000E+00  0.00000000E+00
  0.00000000E+00  0.00000000E+00  0.00000000E+00
  0.00000000E+00  0.00000000E+00  0.00000000E+00
  0.00000000E+00  0.00000000E+00  0.00000000E+00
  0.00000000E+00  0.00000000E+00  0.00000000E+00
  0.00000000E+00  0.00000000E+00  0.00000000E+00
  0.00000000E+00  0.00000000E+00  0.00000000E+00
  0.00000000E+00  0.00000000E+00  0.00000000E+00
  0.00000000E+00  0.00000000E+00  0.00000000E+00
  0.00000000E+00  0.00000000E+00  0.00000000E+00
  0.00000000E+00  0.00000000E+00  0.00000000E+00
  0.00000000E+00  0.00000000E+00  0.00000000E+00
  0.00000000E+00  0.00000000E+00  0.00000000E+00
  0.00000000E+00  0.00000000E+00  0.00000000E+00
  0.00000000E+00  0.00000000E+00  0.00000000E+00
  0.00000000E+00  0.00000000E+00  0.00000000E+00
  0.00000000E+00  0.00000000E+00  0.00000000E+00
  0.00000000E+00  0.00000000E+00  0.00000000E+00
  0.00000000E+00  0.00000000E+00  0.00000000E+00
  0.00000000E+00  0.00000000E+00  0.00000000E+00
  0.00000000E+00  0.00000000E+00  0.00000000E+00
  0.00000000E+00  0.00000000E+00  0.00000000E+00
  0.00000000E+00  0.00000000E+00  0.00000000E+00
  0.00000000E+00  0.00000000E+00  0.00000000E+00
  0.00000000E+00  0.00000000E+00  0.00000000E+00
  0.00000000E+00  0.00000000E+00  0.00000000E+00
  0.00000000E+00  0.00000000E+00  0.00000000E+00
  0.00000000E+00  0.00000000E+00  0.00000000E+00
  0.00000000E+00  0.00000000E+00  0.00000000E+00
  0.00000000E+00  0.00000000E+00  0.00000000E+00
  0.00000000E+00  0.00000000E+00  0.00000000E+00
  0.00000000E+00  0.00000000E+00  0.00000000E+00
  0.00000000E+00  0.00000000E+00  0.00000000E+00
  0.00000000E+00  0.00000000E+00  0.00000000E+00
  0.00000000E+00  0.00000000E+00  0.00000000E+00
  0.00000000E+00  0.00000000E+00  0.00000000E+00
  0.00000000E+00  0.00000000E+00  0.00000000E+00
  0.00000000E+00  0.00000000E+00  0.00000000E+00
  0.00000000E+00  0.00000000E+00  0.00000000E+00
  0.00000000E+00  0.00000000E+00  0.00000000E+00
  0.00000000E+00  0.00000000E+00  0.00000000E+00
  0.00000000E+00  0.00000000E+00  0.00000000E+00
  0.00000000E+00  0.00000000E+00  0.00000000E+00
  0.00000000E+00  0.00000000E+00  0.00000000E+00
  0.00000000E+00  0.00000000E+00  0.00000000E+00
  0.00000000E+00  0.00000000E+00  0.00000000E+00
  0.00000000E+00  0.00000000E+00  0.00000000E+00
  0.00000000E+00  0.00000000E+00  0.00000000E+00
  0.00000000E+00  0.00000000E+00  0.00000000E+00
  0.00000000E+00  0.00000000E+00  0.00000000E+00
  0.00000000E+00  0.00000000E+00  0.00000000E+00
  0.00000000E+00  0.00000000E+00  0.00000000E+00
  0.00000000E+00  0.00000000E+00  0.00000000E+00
  0.00000000E+00  0.00000000E+00  0.00000000E+00
  0.00000000E+00  0.00000000E+00  0.00000000E+00
  0.00000000E+00  0.00000000E+00  0.00000000E+00
  0.00000000E+00  0.00000000E+00  0.00000000E+00
  0.00000000E+00  0.00000000E+00  0.00000000E+00
  0.00000000E+00  0.00000000E+00  0.00000000E+00
  0.00000000E+00  0.00000000E+00  0.00000000E+00
  0.00000000E+00  0.00000000E+00  0.00000000E+00
  0.00000000E+00  0.00000000E+00  0.00000000E+00
  0.00000000E+00  0.00000000E+00  0.00000000E+00
  0.00000000E+00  0.00000000E+00  0.00000000E+00
  0.00000000E+00  0.00000000E+00  0.00000000E+00
  0.00000000E+00  0.00000000E+00  0.00000000E+00
  0.00000000E+00  0.00000000E+00  0.00000000E+00
  0.00000000E+00  0.00000000E+00  0.00000000E+00
  0.00000000E+00  0.00000000E+00  0.00000000E+00
  0.00000000E+00  0.00000000E+00  0.00000000E+00
  0.00000000E+00  0.00000000E+00  0.00000000E+00
  0.00000000E+00  0.00000000E+00  0.00000000E+00
  0.00000000E+00  0.00000000E+00  0.00000000E+00
  0.00000000E+00  0.00000000E+00  0.00000000E+00
  0.00000000E+00  0.00000000E+00  0.00000000E+00
  0.00000000E+00  0.00000000E+00  0.00000000E+00
  0.00000000E+00  0.00000000E+00  0.00000000E+00
  0.00000000E+00  0.00000000E+00  0.00000000E+00
  0.00000000E+00  0.00000000E+00  0.00000000E+00
  0.00000000E+00  0.00000000E+00  0.00000000E+00
  0.00000000E+00  0.00000000E+00  0.00000000E+00
  0.00000000E+00  0.00000000E+00  0.00000000E+00
  0.00000000E+00  0.00000000E+00  0.00000000E+00
  0.00000000E+00  0.00000000E+00  0.00000000E+00
  0.00000000E+00  0.00000000E+00  0.00000000E+00
  0.00000000E+00  0.00000000E+00  0.00000000E+00
  0.00000000E+00  0.00000000E+00  0.00000000E+00
  0.00000000E+00  0.00000000E+00  0.00000000E+00
  0.00000000E+00  0.00000000E+00  0.00000000E+00
  0.00000000E+00  0.00000000E+00  0.00000000E+00
  0.00000000E+00  0.00000000E+00  0.00000000E+00
  0.00000000E+00  0.00000000E+00  0.00000000E+00
  0.00000000E+00  0.00000000E+00  0.00000000E+00
  0.00000000E+00  0.00000000E+00  0.00000000E+00
  0.00000000E+00  0.00000000E+00  0.00000000E+00
  0.00000000E+00  0.00000000E+00  0.00000000E+00
  0.00000000E+00  0.00000000E+00  0.00000000E+00
  0.00000000E+00  0.00000000E+00  0.00000000E+00
  0.00000000E+00  0.00000000E+00  0.00000000E+00
  0.00000000E+00  0.00000000E+00  0.00000000E+00
  0.00000000E+00  0.00000000E+00  0.00000000E+00
  0.00000000E+00  0.00000000E+00  0.00000000E+00
  0.00000000E+00  0.00000000E+00  0.00000000E+00
  0.00000000E+00  0.00000000E+00  0.00000000E+00
  0.00000000E+00  0.00000000E+00  0.00000000E+00
  0.00000000E+00  0.00000000E+00  0.00000000E+00
  0.00000000E+00  0.00000000E+00  0.00000000E+00
  0.00000000E+00  0.00000000E+00  0.00000000E+00
  0.00000000E+00  0.00000000E+00  0.00000000E+00
  0.00000000E+00  0.00000000E+00  0.00000000E+00
  0.00000000E+00  0.00000000E+00  0.00000000E+00
  0.00000000E+00  0.00000000E+00  0.00000000E+00
  0.00000000E+00  0.00000000E+00  0.00000000E+00
  0.00000000E+00  0.00000000E+00  0.00000000E+00
  0.00000000E+00  0.00000000E+00  0.00000000E+00
  0.00000000E+00  0.00000000E+00  0.00000000E+00
  0.00000000E+00  0.00000000E+00  0.00000000E+00
  0.00000000E+00  0.00000000E+00  0.00000000E+00
  0.00000000E+00  0.00000000E+00  0.00000000E+00
  0.00000000E+00  0.00000000E+00  0.00000000E+00
  0.00000000E+00  0.00000000E+00  0.00000000E+00
  0.00000000E+00  0.00000000E+00  0.00000000E+00
  0.00000000E+00  0.00000000E+00  0.00000000E+00
  0.00000000E+00  0.00000000E+00  0.00000000E+00
  0.00000000E+00  0.00000000E+00  0.00000000E+00
  0.00000000E+00  0.00000000E+00  0.00000000E+00
  0.00000000E+00  0.00000000E+00  0.00000000E+00
  0.00000000E+00  0.00000000E+00  0.00000000E+00
  0.00000000E+00  0.00000000E+00  0.00000000E+00
  0.00000000E+00  0.00000000E+00  0.00000000E+00
  0.00000000E+00  0.00000000E+00  0.00000000E+00
  0.00000000E+00  0.00000000E+00  0.00000000E+00
  0.00000000E+00  0.00000000E+00  0.00000000E+00
  0.00000000E+00  0.00000000E+00  0.00000000E+00
  0.00000000E+00  0.00000000E+00  0.00000000E+00
  0.00000000E+00  0.00000000E+00  0.00000000E+00
  0.00000000E+00  0.00000000E+00  0.00000000E+00
  0.00000000E+00  0.00000000E+00  0.00000000E+00
  0.00000000E+00  0.00000000E+00  0.00000000E+00
  0.00000000E+00  0.00000000E+00  0.00000000E+00
  0.00000000E+00  0.00000000E+00  0.00000000E+00
  0.00000000E+00  0.00000000E+00  0.00000000E+00
  0.00000000E+00  0.00000000E+00  0.00000000E+00
  0.00000000E+00  0.00000000E+00  0.00000000E+00
  0.00000000E+00  0.00000000E+00  0.00000000E+00
  0.00000000E+00  0.00000000E+00  0.00000000E+00
  0.00000000E+00  0.00000000E+00  0.00000000E+00
  0.00000000E+00  0.00000000E+00  0.00000000E+00
  0.00000000E+00  0.00000000E+00  0.00000000E+00
  0.00000000E+00  0.00000000E+00  0.00000000E+00
  0.00000000E+00  0.00000000E+00  0.00000000E+00
  0.00000000E+00  0.00000000E+00  0.00000000E+00
  0.00000000E+00  0.00000000E+00  0.00000000E+00
  0.00000000E+00  0.00000000E+00  0.00000000E+00
