all                                     
           1
    10.029355    0.010911    0.000054
     0.010950   10.021813   -0.001358
     0.000046   -0.000916    6.647231
   Mg   Na   Zr   Ca   H 
   9   9   9   9 216
Direct configuration=     1
   0.15861306  0.16383553  0.25379671
   0.16766685  0.49968849  0.25643693
   0.32783922  0.33160207  0.49826308
   0.49980540  0.50273689  0.25476555
   0.33824116  0.99277571  0.50118505
   0.83593846  0.49530826  0.25531332
   0.66745690  0.66775144  0.50090918
   0.83484023  0.83517393  0.74797798
   0.99415868  0.00207079  0.50211601
   0.16241776  0.16022525  0.74070232
   0.32700723  0.66828078  0.49963932
   0.16580729  0.83849919  0.74589971
   0.83569245  0.17183635  0.25155256
   0.00208151  0.33603023  0.49951157
   0.67063355  0.99880319  0.50048194
   0.00370988  0.66546596  0.49768635
   0.67172976  0.99719989  0.00002310
   0.00137693  0.99968362  0.00390176
   0.50040057  0.16475388  0.25312562
   0.16334452  0.49882876  0.73988934
   0.50152440  0.16245998  0.74580734
   0.32598036  0.33106188  0.00137292
   0.33397552  0.66793999  0.00038627
   0.67360142  0.33542443  0.00190157
   0.32587432  0.99848067  0.99778929
   0.00060259  0.32574689  0.00264875
   0.83483294  0.84214834  0.25533224
   0.16290031  0.83129276  0.25394232
   0.66608002  0.33517704  0.49947016
   0.50109761  0.50206287  0.74827820
   0.83950245  0.16162250  0.74713994
   0.50343666  0.82917541  0.25361444
   0.49929282  0.83051612  0.74411838
   0.83545548  0.50786679  0.74951898
   0.66868147  0.67197477  0.00574639
   0.99685519  0.67331665  0.99800966
   0.15959588  0.08337518  0.99558342
   0.14849968  0.08663062  0.49550820
   0.16364580  0.41938015  0.00696725
   0.51090438  0.08109485  0.99995387
   0.32431926  0.24762437  0.27182315
   0.16783552  0.41536098  0.48749682
   0.50317926  0.07980292  0.49696544
   0.32300437  0.24628179  0.72825378
   0.16530951  0.74875500  0.98469312
   0.49806413  0.41768721  0.00974200
   0.33855478  0.58068604  0.25588149
   0.16309618  0.74754863  0.51407509
   0.83403951  0.08395244  0.00923806
   0.67178260  0.24843277  0.25339731
   0.48708897  0.41512649  0.49367493
   0.33339331  0.58543669  0.73319957
   0.84148931  0.08373086  0.48688607
   0.67263067  0.25091580  0.74873058
   0.50092662  0.75204843  0.99693853
   0.33392154  0.91586304  0.25554278
   0.83780339  0.42125838  0.00891759
   0.68599405  0.58522782  0.25536915
   0.49064155  0.74913347  0.50066091
   0.33175669  0.91502136  0.74123761
   0.00239169  0.24525662  0.27516447
   0.83753896  0.41528660  0.49637588
   0.66745010  0.58228591  0.74801575
   0.00653755  0.24758962  0.72923938
   0.83341253  0.75285532  0.99949110
   0.66531303  0.92005616  0.25756729
   0.98240793  0.58627041  0.25217134
   0.84299907  0.75115277  0.50371063
   0.66357665  0.92003582  0.74309469
   0.00099279  0.58619558  0.74096005
   0.00113027  0.92130906  0.25671270
   0.00918705  0.92144157  0.73853698
   0.08614301  0.15919875  0.00234187
   0.08229867  0.14997091  0.49806082
   0.08189966  0.50567050  0.02687381
   0.41374361  0.16631634  0.00219526
   0.24818405  0.33409737  0.26039404
   0.07891003  0.50043005  0.47853325
   0.41211951  0.16083788  0.49555798
   0.24940178  0.32166922  0.73722037
   0.08667346  0.84204863  0.99049865
   0.41976141  0.49756970  0.01493993
   0.24985493  0.66094805  0.25979180
   0.08281447  0.85086770  0.50715023
   0.75178490  0.15900017  0.00415624
   0.58192571  0.34600942  0.25222440
   0.41861857  0.51322511  0.49333294
   0.24417897  0.66873507  0.73857504
   0.74573221  0.16170131  0.49176593
   0.58174261  0.33428256  0.74956726
   0.41810445  0.83345675  0.99965613
   0.24623954  0.00148386  0.28343576
   0.75279502  0.50524844  0.01212000
   0.58492032  0.65604875  0.26570496
   0.41969784  0.82041484  0.49749015
   0.24388530  0.00307581  0.71876656
   0.91745821  0.33705542  0.25817670
   0.75007715  0.50413903  0.49224726
   0.58571158  0.66985421  0.74443616
   0.91742995  0.33550575  0.74265891
   0.74673824  0.83930488  0.97591071
   0.58673457  0.99678511  0.25113785
   0.91847855  0.65198279  0.25719210
   0.74805293  0.83349966  0.52040171
   0.59024208  0.98831320  0.74998377
   0.91810407  0.67490866  0.73318218
   0.91656579  0.01521515  0.24363549
   0.91536446  0.99292420  0.76115682
   0.16167200  0.00431427  0.12902364
   0.17619302  0.00009037  0.61905340
   0.16545911  0.32386776  0.13468012
   0.50381802  0.99761337  0.12127826
   0.32135399  0.16094680  0.37836553
   0.16375787  0.31934068  0.61755954
   0.50082455  0.99572594  0.62064131
   0.32269407  0.16485176  0.86585199
   0.16204847  0.65979811  0.12926026
   0.49712990  0.33486670  0.12748983
   0.32902511  0.49956859  0.37608922
   0.16650178  0.68266797  0.61316411
   0.83963417  0.00784424  0.12031817
   0.67884546  0.16428967  0.37924599
   0.49271673  0.33473875  0.62280889
   0.32939618  0.49768714  0.87236900
   0.83638141  0.98961620  0.62620274
   0.67024993  0.15617155  0.87555646
   0.50101766  0.66139077  0.12839401
   0.33103958  0.82960967  0.37576305
   0.83724907  0.33245892  0.13116461
   0.66660314  0.50160188  0.37778260
   0.50423932  0.66441954  0.61820168
   0.32347290  0.83464175  0.86911425
   0.99911486  0.17591087  0.37280029
   0.83735754  0.33869072  0.62497622
   0.66889752  0.50855722  0.87555561
   0.00674843  0.14833820  0.86839043
   0.83427450  0.67074300  0.12720529
   0.66917335  0.83426087  0.38029718
   0.00907070  0.49613748  0.37284658
   0.83042691  0.67486995  0.62535454
   0.68416923  0.83715751  0.87313751
   0.00316922  0.50258782  0.87707246
   0.99817267  0.82915703  0.37739364
   0.98736066  0.84277584  0.87260665
   0.08323722  0.00425427  0.26292446
   0.08196184  0.99071368  0.74819876
   0.08270211  0.33714532  0.25855062
   0.41629603  0.99832535  0.26204039
   0.24934079  0.15097067  0.49531287
   0.08446352  0.32212401  0.73987384
   0.41745868  0.99861799  0.73923082
   0.24451280  0.16355702  0.99192455
   0.08438954  0.65952499  0.24917730
   0.41680363  0.33885969  0.25468638
   0.25543807  0.49874027  0.48358854
   0.07953342  0.68541368  0.74715694
   0.74894456  0.01508556  0.25269709
   0.58626564  0.15832687  0.49739323
   0.41270476  0.33490177  0.74395238
   0.24849572  0.50003726  0.02725183
   0.74901079  0.99898606  0.74717678
   0.58614962  0.16087782  0.00135138
   0.41842831  0.66077400  0.27401927
   0.25099119  0.84238109  0.50348297
   0.75112188  0.33380770  0.25569879
   0.58437957  0.51103304  0.48390134
   0.41381310  0.66357529  0.73428744
   0.24753187  0.83360527  0.99258233
   0.91042054  0.17975872  0.49218125
   0.75289343  0.33001940  0.74419388
   0.58274932  0.50476716  0.01686097
   0.91787528  0.15982248  0.01182176
   0.75168776  0.65515000  0.26202961
   0.58572138  0.82922312  0.50009534
   0.91547150  0.50559976  0.49384714
   0.75161899  0.67597143  0.73849709
   0.58279884  0.83914292  0.99946432
   0.91998831  0.49738815  0.01382969
   0.91901665  0.82334768  0.52202710
   0.92301905  0.84168067  0.97389439
   0.99632109  0.15826893  0.12472963
   0.00330962  0.16934855  0.62238599
   0.01475037  0.50795706  0.12797451
   0.31609767  0.16531251  0.13030350
   0.16331707  0.33204146  0.37680266
   0.99829090  0.49974030  0.62007518
   0.32177420  0.15997033  0.61709282
   0.16494999  0.32064154  0.86547036
   0.99557960  0.84295131  0.12513684
   0.32615168  0.49960903  0.12965728
   0.16988790  0.65577286  0.37272699
   0.99194071  0.83844109  0.62824748
   0.67200936  0.15922656  0.12464456
   0.49280265  0.34174649  0.37710343
   0.33348811  0.49957709  0.62317588
   0.16321338  0.67551306  0.87110511
   0.67183998  0.16123943  0.62267110
   0.49756791  0.33352410  0.87519092
   0.33268949  0.83498874  0.12929219
   0.17788861  0.00015487  0.37860336
   0.66661919  0.50489082  0.13046518
   0.48989989  0.66226716  0.37312846
   0.32262859  0.83147621  0.62614299
   0.15702084  0.00063940  0.86944934
   0.83860284  0.33956450  0.37788535
   0.66899252  0.51042582  0.62461420
   0.50522411  0.66612001  0.87455674
   0.83755809  0.33634926  0.86965324
   0.67229246  0.84110473  0.12471376
   0.49920838  0.99705718  0.37380499
   0.83340379  0.66699036  0.38496030
   0.67974120  0.83102295  0.62509525
   0.50663051  0.99714390  0.87703989
   0.83059875  0.68229234  0.87256602
   0.83649825  0.01372706  0.38056241
   0.84338387  0.98815960  0.87422815
   0.99287264  0.08335174  0.25387376
   0.00392145  0.08501282  0.76207090
   0.00564847  0.41559819  0.25919451
   0.32389713  0.08397233  0.25653717
   0.16569985  0.25125446  0.49327303
   0.99816842  0.41602907  0.73822393
   0.32395756  0.08270566  0.74091061
   0.16429578  0.24495044  0.98901055
   0.99613781  0.75030144  0.26764797
   0.33661955  0.41474448  0.25996578
   0.16900654  0.58278282  0.49317495
   0.01262436  0.74963176  0.73717106
   0.68163429  0.08075227  0.24216265
   0.49050411  0.25304650  0.49549634
   0.33575166  0.41368511  0.73197661
   0.16560721  0.58325542  0.99736349
   0.67656890  0.07951420  0.75739683
   0.50090801  0.25150219  0.00317607
   0.33184576  0.75094923  0.26451075
   0.14967299  0.91303130  0.50674347
   0.66342507  0.42267885  0.25709545
   0.48617124  0.58020214  0.49665562
   0.32480007  0.75248698  0.73331656
   0.15471297  0.91353804  0.99151822
   0.84785333  0.24812467  0.49314711
   0.66762145  0.41908386  0.74661038
   0.50277294  0.58068116  0.01022716
   0.83474161  0.24490378  0.00631563
   0.67430329  0.74836551  0.26845287
   0.50496149  0.91710103  0.50049809
   0.83868070  0.58633085  0.48522968
   0.66615799  0.74774374  0.74354871
   0.50579146  0.91870762  0.99707643
   0.83271551  0.58564589  0.02323796
   0.83525820  0.92063202  0.51444650
   0.83476465  0.92290348  0.99876497
