generated by phonopy                    
   1.00000000000000     
     0.0000000000000000    3.3395027758660740    3.3395027758661593
     3.3395027758661104    0.0000000000000000    3.3395027758661593
     3.3395027758661104    3.3395027758660740    0.0000000000000000
   Sc   Ce   Y    Hf   H 
     1     1     1     1    24
Direct
  0.2500000000000000  0.2500000000000000  0.2500000000000000
  0.7500000000000000  0.7500000000000000  0.7500000000000000
  0.0000000000000000  0.0000000000000000  0.0000000000000000
  0.5000000000000000  0.5000000000000000  0.5000000000000000
  0.1289763636836199  0.8870621677348183  0.6131186193046574
  0.8870621677348183  0.1289763636836199  0.3708428492769045
  0.6131186193046574  0.3708428492769045  0.1289763636836199
  0.3708428492769045  0.6131186193046574  0.8870621677348183
  0.6131186193046574  0.1289763636836199  0.8870621677348183
  0.3708428492769045  0.8870621677348183  0.1289763636836199
  0.1289763636836199  0.6131186193046574  0.3708428492769045
  0.8870621677348183  0.3708428492769045  0.6131186193046574
  0.8870621677348183  0.6131186193046574  0.1289763636836199
  0.1289763636836199  0.3708428492769045  0.8870621677348183
  0.3708428492769045  0.1289763636836199  0.6131186193046574
  0.6131186193046574  0.8870621677348183  0.3708428492769045
  0.1289763636836199  0.3708428492769045  0.6131186193046574
  0.3708428492769045  0.1289763636836199  0.8870621677348183
  0.6131186193046574  0.8870621677348183  0.1289763636836199
  0.8870621677348183  0.6131186193046574  0.3708428492769045
  0.6131186193046574  0.1289763636836199  0.3708428492769045
  0.8870621677348183  0.3708428492769045  0.1289763636836199
  0.1289763636836199  0.6131186193046574  0.8870621677348183
  0.3708428492769045  0.8870621677348183  0.6131186193046574
  0.3708428492769045  0.6131186193046574  0.1289763636836199
  0.1289763636836199  0.8870621677348183  0.3708428492769045
  0.8870621677348183  0.1289763636836199  0.6131186193046574
  0.6131186193046574  0.3708428492769045  0.8870621677348183
 
  0.00000000E+00  0.00000000E+00  0.00000000E+00
  0.00000000E+00  0.00000000E+00  0.00000000E+00
  0.00000000E+00  0.00000000E+00  0.00000000E+00
  0.00000000E+00  0.00000000E+00  0.00000000E+00
  0.00000000E+00  0.00000000E+00  0.00000000E+00
  0.00000000E+00  0.00000000E+00  0.00000000E+00
  0.00000000E+00  0.00000000E+00  0.00000000E+00
  0.00000000E+00  0.00000000E+00  0.00000000E+00
  0.00000000E+00  0.00000000E+00  0.00000000E+00
  0.00000000E+00  0.00000000E+00  0.00000000E+00
  0.00000000E+00  0.00000000E+00  0.00000000E+00
  0.00000000E+00  0.00000000E+00  0.00000000E+00
  0.00000000E+00  0.00000000E+00  0.00000000E+00
  0.00000000E+00  0.00000000E+00  0.00000000E+00
  0.00000000E+00  0.00000000E+00  0.00000000E+00
  0.00000000E+00  0.00000000E+00  0.00000000E+00
  0.00000000E+00  0.00000000E+00  0.00000000E+00
  0.00000000E+00  0.00000000E+00  0.00000000E+00
  0.00000000E+00  0.00000000E+00  0.00000000E+00
  0.00000000E+00  0.00000000E+00  0.00000000E+00
  0.00000000E+00  0.00000000E+00  0.00000000E+00
  0.00000000E+00  0.00000000E+00  0.00000000E+00
  0.00000000E+00  0.00000000E+00  0.00000000E+00
  0.00000000E+00  0.00000000E+00  0.00000000E+00
  0.00000000E+00  0.00000000E+00  0.00000000E+00
  0.00000000E+00  0.00000000E+00  0.00000000E+00
  0.00000000E+00  0.00000000E+00  0.00000000E+00
  0.00000000E+00  0.00000000E+00  0.00000000E+00
