POSCAR                                  
   1.00000000000000     
     9.6845295602447834   -0.0460210410433768    0.0479524799506153
    -0.0460839743588638    9.6919585819902991   -0.0029541317271089
     0.0318977325941425   -0.0017963403719015    6.4231909645197529
   Sc   Zr   K    Na   H 
     9     9     9     9   216
Direct
  0.1658780816888807  0.1603737259100342  0.2543314822782250
  0.1616935156305672  0.8394898834172935  0.2490993036714855
  0.3354558310011129  0.6777247218389988  0.4923477106502219
  0.3355205641020405  0.0023867934777044  0.4957109219304670
  0.8282469973207824  0.5015519769386074  0.2570410389733624
  0.9883345656003399  0.3263768742396280  0.4976628842809419
  0.8385870266418181  0.5052388540790247  0.7545459623413109
  0.6735728283677318  0.9885313049210680  0.4973508730332483
  0.9950077765543597  0.6768589137422936  0.5020520671320270
  0.1573657091517120  0.1591209170529382  0.7518131727924455
  0.1640892365382314  0.5056310569014286  0.2482116949629969
  0.5057438088772841  0.1638161268749201  0.7431523353366529
  0.3371321354221521  0.3392018956675500  0.0041825550520542
  0.3324194594022387  0.6711614480028558  0.9860013574006956
  0.8349388342978727  0.1521055506233395  0.7534769409511242
  0.3403501686027468  0.9989193787452137  0.0003874327825315
  0.6751538733454723  0.6708984607567245  0.0088985946968165
  0.9903700548623249  0.3325992743645756  0.0055190825800864
  0.5155625756162081  0.1818808182667269  0.2473530956509720
  0.3129849975223067  0.3467295923560130  0.5105357053974657
  0.1730900343547859  0.4904793540293895  0.7367652198840489
  0.1683490962411014  0.8301290189757609  0.7515030551202315
  0.6498653725395727  0.3292725355434598  0.5105829591953537
  0.5188325353505050  0.5047252458615787  0.7195240329106483
  0.6597968235990876  0.3172839021438065  0.0218770472593519
  0.6567095530000771  0.6620332117980041  0.5144321972880164
  0.8345573505504618  0.8370246612762244  0.2486162683115865
  0.4994858806025206  0.5150384469784299  0.2283378155048865
  0.8395560594030300  0.1655759781805273  0.2530512112454701
  0.5036590029698544  0.8397378879716584  0.2444732366344624
  0.5068960488157970  0.8335033809218828  0.7441889024676200
  0.8352144463681412  0.8302540151734803  0.7514102527787188
  0.6740390023652836  0.9925582598711173  0.0027075778434593
  0.0026888461470662  0.6687536982483167  0.9999711915069938
  0.9977614419400282  0.9947109836943753  0.5022367439800419
  0.9947068119799241  0.9916346722200089  0.0080125235615611
  0.1566071250436707  0.0789493946043081  0.0121637193638762
  0.1564711911763794  0.0791814010367347  0.4925276672355920
  0.1628465676209672  0.4147695697388798  0.9993423557552958
  0.5166426394473405  0.0798909971953847  0.0100762245256334
  0.3357966499968725  0.2556921433244170  0.2604280278985414
  0.1396009227433765  0.4143829592639037  0.4859139542347037
  0.5052478975093919  0.0822007959796878  0.4850290920891140
  0.3371210590399656  0.2481357356506280  0.7536178051818254
  0.1617279515951822  0.7502418902826307  0.0081755867051783
  0.5022372308508736  0.4231197743141308  0.9874052376830846
  0.3401423827064534  0.5922559263127880  0.2471444570094619
  0.1658283816349382  0.7543996457327466  0.4909079403363990
  0.8374670919975529  0.0739564188735500  0.0254374789724920
  0.6941197818996869  0.2446291721896827  0.2768399168735840
  0.4815591767206016  0.4253203875209408  0.4581354682831744
  0.3438446854994410  0.5813467783089266  0.7324990222342791
  0.8385737923990604  0.0786480929448103  0.4867298840069054
  0.6805756048321285  0.2503697042835356  0.7597966269221246
  0.5008159454354626  0.7569724682110248  0.9962417865450277
  0.3364477423556238  0.9179660319879801  0.2522613713308814
  0.8205073083417318  0.4155600031100448  0.0016630715614951
  0.6680669394558905  0.5833901221687157  0.2556255006275734
  0.4973273706456851  0.7597465510786279  0.4932535938173359
  0.3420525609982761  0.9159348213567995  0.7387207377589107
  0.9965108993449832  0.2459236605369313  0.2561791507613336
  0.8262404307496780  0.4135196534372056  0.5017050754980019
  0.6837939589185709  0.5817108099374337  0.7699126334753359
  0.9909409306003383  0.2513199406050362  0.7503144419446812
  0.8470294260051858  0.7528656343110072  0.9938694768376166
  0.6640449957615502  0.9143374250485010  0.2375553109758570
  0.9935124698812601  0.5867511049057157  0.2515249486702729
  0.8303833280220374  0.7525379569573971  0.5104801701954216
  0.6673656976747040  0.9111749712400510  0.7572475074027523
  0.0033195946098274  0.5798748068033106  0.7545120393456273
  0.0029453840246987  0.9185170358999883  0.2582335699151059
  0.9962951459689080  0.9084085147877090  0.7570593568275328
  0.0832365981210899  0.1532208179278953  0.0115831324345805
  0.0807983252458300  0.1481020842634990  0.4943134663212447
  0.0792324601784244  0.5060277865033882  0.9933800270477420
  0.4193823251665023  0.1661561694642515  0.0062686095449109
  0.2406271352536677  0.3310217030835716  0.2525406756704598
  0.0773814807383957  0.5172083458852939  0.4997320419496845
  0.4140654018179148  0.1774446376091703  0.4889415787861964
  0.2474749674201249  0.3189779103178196  0.7681025822864456
  0.0836434440684357  0.8390634342031902  0.0058593885782869
  0.4267655509644612  0.5095599741379502  0.9843956301400922
  0.2464118608383430  0.6752767226305991  0.2553454439794010
  0.0855156260747663  0.8407342541410046  0.5008328688591561
  0.7554837324973036  0.1545111448438306  0.0072852847591918
  0.5732463825710070  0.3650553481190713  0.2564397661042221
  0.4160601199836194  0.5136509823230355  0.4785961532439629
  0.2480333472324929  0.6618731617931672  0.7319378111582395
  0.7521066384623509  0.1627472442817890  0.4945885211156806
  0.5846534086533453  0.3345335503399696  0.7765966087415492
  0.4239926368819127  0.8332247368016610  0.0029585246534296
  0.2514648395090404  0.0011333631810189  0.2567441185314792
  0.7510680283642301  0.4922817412286378  0.0113532666711222
  0.5778291098122281  0.6763822867237508  0.2513830063290570
  0.4160084432238520  0.8415398453815257  0.4807072803976737
  0.2510582551642102  0.9986792923502179  0.7419644628452389
  0.9082153865638745  0.3324344967005999  0.2601592750109560
  0.7481261576943439  0.4952882452936791  0.5107619550645737
  0.5864655114160442  0.6807153605217664  0.7734149569228421
  0.9091415142866808  0.3315238361525203  0.7464861355895067
  0.7516984780799447  0.8380639000786729  0.9888189852854197
  0.5854030782629778  0.0029490135508112  0.2500116138644870
  0.9217495699362743  0.6709511093125542  0.2456149970934263
  0.7495434549196602  0.8265117844722738  0.5128023826867434
  0.5885981759639094  0.9912866247949950  0.7555334498101018
  0.9246442273828350  0.6773570347171827  0.7620674118826827
  0.9206355489580673  0.0059548446915798  0.2611571047553838
  0.9173712810239607  0.9885165108436382  0.7497853426162209
  0.1609647220126647  0.0013346946656725  0.1253097292934982
  0.1659452653465010  0.9936118635238458  0.6226111252001658
  0.1586243648524501  0.3256630923401360  0.1278789752997085
  0.5154549473789345  0.0034211861497369  0.1282043733867866
  0.3347965305039935  0.1698909604539622  0.3759224408288162
  0.1428120381995157  0.3221432381049851  0.6236956761938188
  0.4973271750390182  0.9884017424700957  0.6197413751683456
  0.3344111357201527  0.1656469850876405  0.8738112966865188
  0.1566733478237623  0.6736130609528601  0.1253162674183415
  0.4950927893743255  0.3555257426789780  0.1351986216652321
  0.3389141658156660  0.5080925874093367  0.3612340517009116
  0.1671659533371113  0.6636568283352275  0.6215997820825336
  0.8306162741934315  0.0103507445643629  0.1313324994336043
  0.6800068975097204  0.1503563737894567  0.3821472239749966
  0.4775288335707586  0.3296476576179046  0.6259586935799746
  0.3427622122207623  0.5057634358757781  0.8609208559832666
  0.8407801587995110  0.9806604535060757  0.6229749073138322
  0.6713173519202797  0.1484590290913204  0.8813011472662424
  0.4988211457915739  0.6780087106085517  0.1227315143256718
  0.3451329073835510  0.8405497080920838  0.3719135325006420
  0.8258823927212404  0.3334730978312805  0.1366176340891272
  0.6480056169788995  0.4969576661739907  0.3786339223109323
  0.4856227194426097  0.6829769849851601  0.6161151280377695
  0.3465547692083177  0.8371851878699843  0.8606176741637768
  0.9984543558468033  0.1604910110571609  0.3740519060604512
  0.8283002121946978  0.3425277280153551  0.6286619559377158
  0.6743699132714625  0.4873692672744738  0.8776661354794371
  0.9959996808538847  0.1528052987040809  0.8892586193733223
  0.8437962228586073  0.6638192949765624  0.1301518155369550
  0.6616179431895333  0.8281137490641512  0.3771864284065529
  0.9902361860267419  0.5002036308489224  0.3773518173447670
  0.8307678122886628  0.6711494216479750  0.6298321343719877
  0.6756740295394934  0.8400507461610687  0.8774507541776870
  0.0029469932370674  0.5112070248140625  0.8691137313808497
  0.9974341188081013  0.8387021968804476  0.3780542394999244
  0.9926268828434957  0.8377516233393081  0.8760647770123029
  0.0817790432965424  0.9979600124090737  0.2528595829980418
  0.0800518195082205  0.9912654900609752  0.7537096511172621
  0.0778667208150665  0.3304330427124853  0.2536204000107389
  0.4229680530830962  0.0044105607860843  0.2585732841587642
  0.2491074564385869  0.1653084168038461  0.5000830285122291
  0.0782227060849081  0.3314275098913342  0.7472357842804627
  0.4249184638631149  0.9927845301531946  0.7378984945468687
  0.2482620052006084  0.1669748730298366  0.0025763910189056
  0.0806462775469541  0.6709674855446650  0.2475343407306596
  0.4047684884517153  0.3410526879173617  0.2609418845176563
  0.2477296844018113  0.5228597053037092  0.4862741717889918
  0.0848312810402092  0.6602292007234638  0.7535587820392564
  0.7537718060368519  0.0038256211446281  0.2514348998813460
  0.5887576881979726  0.1437710468716134  0.4946594139402265
  0.4185333959395621  0.3438790480626821  0.7337842216973200
  0.2456047695198436  0.5028569170816866  0.9930117010697188
  0.7499773770796239  0.9886186311994436  0.7598252740053937
  0.5873792075624777  0.1411476630582555  0.9881345082105213
  0.4152062964032979  0.6769329801687007  0.2415511781137170
  0.2483602543711854  0.8360273126034343  0.4908765349622044
  0.7435776054242211  0.3148252759589525  0.2666711311055749
  0.5759665670640501  0.4975829779979009  0.4515619814473411
  0.4242612842004689  0.6702049113872164  0.7320166689018208
  0.2488617823835071  0.8370475311638828  0.0066387794093288
  0.9173317270523569  0.1538308420986709  0.4932079200228117
  0.7465902784229286  0.3206011114993217  0.7592158599891690
  0.5890331904844217  0.4985873638607856  0.9929098443517432
  0.9198359969797920  0.1514629432207357  0.0108875582241410
  0.7487733539317247  0.6678093885935183  0.2680344934591901
  0.5781858307579526  0.8353205483276085  0.4900429542447924
  0.9162155478120937  0.5029214956092574  0.5010453293372379
  0.7582062129492400  0.6708838509726434  0.7482408265584652
  0.5814640693123252  0.8391102261501899  0.9901647923071764
  0.9157088578959787  0.5089632910660171  0.0015633099305603
  0.9199650265455475  0.8348838602584721  0.5063485367166223
  0.9221088439592862  0.8245318033710518  0.9862820391729201
  0.9991330419314437  0.1528709986635164  0.1349894466600361
  0.9981824144368545  0.1594308409144247  0.6157956529313822
  0.9946114231794425  0.5077578220832493  0.1266351883335446
  0.3362267899673768  0.1660447954181521  0.1336135120158488
  0.1515616377406488  0.3255213806209198  0.3780361105517045
  0.9966183889845155  0.5008852997558932  0.6201716961842862
  0.3340346904922953  0.1664418881278493  0.6210908454485207
  0.1579767158331649  0.3287980465315101  0.8774294478596332
  0.0024810810757643  0.8260579499369882  0.1278670370275208
  0.3397845004452549  0.5090298838913938  0.1198433598486375
  0.1649176197215070  0.6769992369529447  0.3764723614183936
  0.9947528820530849  0.8388022908983785  0.6291489278941498
  0.6853755839740501  0.1413185515239377  0.1287339292593686
  0.4873431693540837  0.3562624976277888  0.3754744298365509
  0.3466187315551537  0.5208650124199465  0.6115933459634419
  0.1533358768203499  0.6592852464459611  0.8657604998383164
  0.6737491384439593  0.1538280513065686  0.6228129751751368
  0.5088022938892323  0.3429587156224869  0.8690465390834845
  0.3418043202055472  0.8365718036669847  0.1324820652529226
  0.1641567482727382  0.0005265802474952  0.3768252396544298
  0.6698061117932639  0.4943978412253784  0.1286487229787099
  0.4977000646081251  0.6730597179380595  0.3644521551096176
  0.3446618930576477  0.8399321252595584  0.6207133545726720
  0.1613452184907445  0.9941575834506367  0.8794132568204134
  0.8256211746891751  0.3337570296266392  0.3863986907133281
  0.6923348004343239  0.4921017882131906  0.6297636009758634
  0.5091158206744240  0.6733827324723975  0.8615318366953488
  0.8267128893010209  0.3389308904171742  0.8795832166465445
  0.6630717982090673  0.8462024155234644  0.1328884137499458
  0.5026849448592330  0.0031517025186432  0.3683320598212276
  0.8287892641064261  0.6634739523497757  0.3818834343001711
  0.6756189143667939  0.8320168276570570  0.6300104724265410
  0.5086346036889680  0.9901958208758472  0.8702642648000776
  0.8457183243365591  0.6677409313105187  0.8776539681431927
  0.8387562409529892  0.0092180719260426  0.3720479622504200
  0.8365795630036104  0.9788259499214575  0.8838876790881045
  0.9959689667150471  0.0799556319929664  0.2497156641266116
  0.9984098757406343  0.0694678982711778  0.7555429774423672
  0.9914406413718737  0.4183224073820071  0.2627260175319108
  0.3385358083584080  0.0899635141540216  0.2520561097394420
  0.1537120711622890  0.2466371882045308  0.4884807683860544
  0.9963303478762171  0.4160686128019933  0.7429964392784498
  0.3353279234053375  0.0815811575260810  0.7453464646619921
  0.1638233431693195  0.2475794316666367  0.0157137822906748
  0.9984127535398244  0.7499140634854697  0.2407425264317666
  0.3449962792896102  0.4260617798244795  0.2588243004184392
  0.1533199642146457  0.5874219287988183  0.5024874583575496
  0.9925548128805559  0.7467145153656176  0.7551833057410704
  0.6792165652749844  0.0843169347824784  0.2338331335650281
  0.4744887855746285  0.2539764900629820  0.4977587364255314
  0.3522270043543614  0.4190644242626504  0.7623555276019758
  0.1609558675200446  0.5820762141633082  0.9876564823819507
  0.6690276916140121  0.0694784767992260  0.7595840392596998
  0.4897332443854552  0.2526254907976195  0.9879737617104851
  0.3334008788697531  0.7586778427799175  0.2484217666221085
  0.1596784626791532  0.9169735999685003  0.4996101959548866
  0.6614914035252610  0.4176164479510973  0.2560958955988397
  0.4869791628227063  0.5921243722471701  0.4610353969366869
  0.3446306465020967  0.7588332062238408  0.7384362177217554
  0.1516656181434826  0.9136913753652181  0.0022763776238364
  0.8223122044627758  0.2470422483293007  0.4953278073906517
  0.6820602265924478  0.4135164291186086  0.7742812365845637
  0.4978502592417513  0.5843695009851118  0.9826064004161807
  0.8278953370385054  0.2430078707389711  0.0099974275879973
  0.6635529568930281  0.7509681479443131  0.2681495186678688
  0.5065574349259805  0.9170671733759193  0.5026268478679299
  0.8352809509267800  0.5852123505956115  0.4965082117109532
  0.6747523563955298  0.7538746175242892  0.7560149025986931
  0.5153327816281603  0.9146895217731199  0.9909360510202347
  0.8460420269461082  0.5836040333746766  0.0039084327676520
  0.8350355505812033  0.9148222456221546  0.5142027654616186
  0.8353549732944572  0.9137239807014197  0.9853245206003791
 
  0.00000000E+00  0.00000000E+00  0.00000000E+00
  0.00000000E+00  0.00000000E+00  0.00000000E+00
  0.00000000E+00  0.00000000E+00  0.00000000E+00
  0.00000000E+00  0.00000000E+00  0.00000000E+00
  0.00000000E+00  0.00000000E+00  0.00000000E+00
  0.00000000E+00  0.00000000E+00  0.00000000E+00
  0.00000000E+00  0.00000000E+00  0.00000000E+00
  0.00000000E+00  0.00000000E+00  0.00000000E+00
  0.00000000E+00  0.00000000E+00  0.00000000E+00
  0.00000000E+00  0.00000000E+00  0.00000000E+00
  0.00000000E+00  0.00000000E+00  0.00000000E+00
  0.00000000E+00  0.00000000E+00  0.00000000E+00
  0.00000000E+00  0.00000000E+00  0.00000000E+00
  0.00000000E+00  0.00000000E+00  0.00000000E+00
  0.00000000E+00  0.00000000E+00  0.00000000E+00
  0.00000000E+00  0.00000000E+00  0.00000000E+00
  0.00000000E+00  0.00000000E+00  0.00000000E+00
  0.00000000E+00  0.00000000E+00  0.00000000E+00
  0.00000000E+00  0.00000000E+00  0.00000000E+00
  0.00000000E+00  0.00000000E+00  0.00000000E+00
  0.00000000E+00  0.00000000E+00  0.00000000E+00
  0.00000000E+00  0.00000000E+00  0.00000000E+00
  0.00000000E+00  0.00000000E+00  0.00000000E+00
  0.00000000E+00  0.00000000E+00  0.00000000E+00
  0.00000000E+00  0.00000000E+00  0.00000000E+00
  0.00000000E+00  0.00000000E+00  0.00000000E+00
  0.00000000E+00  0.00000000E+00  0.00000000E+00
  0.00000000E+00  0.00000000E+00  0.00000000E+00
  0.00000000E+00  0.00000000E+00  0.00000000E+00
  0.00000000E+00  0.00000000E+00  0.00000000E+00
  0.00000000E+00  0.00000000E+00  0.00000000E+00
  0.00000000E+00  0.00000000E+00  0.00000000E+00
  0.00000000E+00  0.00000000E+00  0.00000000E+00
  0.00000000E+00  0.00000000E+00  0.00000000E+00
  0.00000000E+00  0.00000000E+00  0.00000000E+00
  0.00000000E+00  0.00000000E+00  0.00000000E+00
  0.00000000E+00  0.00000000E+00  0.00000000E+00
  0.00000000E+00  0.00000000E+00  0.00000000E+00
  0.00000000E+00  0.00000000E+00  0.00000000E+00
  0.00000000E+00  0.00000000E+00  0.00000000E+00
  0.00000000E+00  0.00000000E+00  0.00000000E+00
  0.00000000E+00  0.00000000E+00  0.00000000E+00
  0.00000000E+00  0.00000000E+00  0.00000000E+00
  0.00000000E+00  0.00000000E+00  0.00000000E+00
  0.00000000E+00  0.00000000E+00  0.00000000E+00
  0.00000000E+00  0.00000000E+00  0.00000000E+00
  0.00000000E+00  0.00000000E+00  0.00000000E+00
  0.00000000E+00  0.00000000E+00  0.00000000E+00
  0.00000000E+00  0.00000000E+00  0.00000000E+00
  0.00000000E+00  0.00000000E+00  0.00000000E+00
  0.00000000E+00  0.00000000E+00  0.00000000E+00
  0.00000000E+00  0.00000000E+00  0.00000000E+00
  0.00000000E+00  0.00000000E+00  0.00000000E+00
  0.00000000E+00  0.00000000E+00  0.00000000E+00
  0.00000000E+00  0.00000000E+00  0.00000000E+00
  0.00000000E+00  0.00000000E+00  0.00000000E+00
  0.00000000E+00  0.00000000E+00  0.00000000E+00
  0.00000000E+00  0.00000000E+00  0.00000000E+00
  0.00000000E+00  0.00000000E+00  0.00000000E+00
  0.00000000E+00  0.00000000E+00  0.00000000E+00
  0.00000000E+00  0.00000000E+00  0.00000000E+00
  0.00000000E+00  0.00000000E+00  0.00000000E+00
  0.00000000E+00  0.00000000E+00  0.00000000E+00
  0.00000000E+00  0.00000000E+00  0.00000000E+00
  0.00000000E+00  0.00000000E+00  0.00000000E+00
  0.00000000E+00  0.00000000E+00  0.00000000E+00
  0.00000000E+00  0.00000000E+00  0.00000000E+00
  0.00000000E+00  0.00000000E+00  0.00000000E+00
  0.00000000E+00  0.00000000E+00  0.00000000E+00
  0.00000000E+00  0.00000000E+00  0.00000000E+00
  0.00000000E+00  0.00000000E+00  0.00000000E+00
  0.00000000E+00  0.00000000E+00  0.00000000E+00
  0.00000000E+00  0.00000000E+00  0.00000000E+00
  0.00000000E+00  0.00000000E+00  0.00000000E+00
  0.00000000E+00  0.00000000E+00  0.00000000E+00
  0.00000000E+00  0.00000000E+00  0.00000000E+00
  0.00000000E+00  0.00000000E+00  0.00000000E+00
  0.00000000E+00  0.00000000E+00  0.00000000E+00
  0.00000000E+00  0.00000000E+00  0.00000000E+00
  0.00000000E+00  0.00000000E+00  0.00000000E+00
  0.00000000E+00  0.00000000E+00  0.00000000E+00
  0.00000000E+00  0.00000000E+00  0.00000000E+00
  0.00000000E+00  0.00000000E+00  0.00000000E+00
  0.00000000E+00  0.00000000E+00  0.00000000E+00
  0.00000000E+00  0.00000000E+00  0.00000000E+00
  0.00000000E+00  0.00000000E+00  0.00000000E+00
  0.00000000E+00  0.00000000E+00  0.00000000E+00
  0.00000000E+00  0.00000000E+00  0.00000000E+00
  0.00000000E+00  0.00000000E+00  0.00000000E+00
  0.00000000E+00  0.00000000E+00  0.00000000E+00
  0.00000000E+00  0.00000000E+00  0.00000000E+00
  0.00000000E+00  0.00000000E+00  0.00000000E+00
  0.00000000E+00  0.00000000E+00  0.00000000E+00
  0.00000000E+00  0.00000000E+00  0.00000000E+00
  0.00000000E+00  0.00000000E+00  0.00000000E+00
  0.00000000E+00  0.00000000E+00  0.00000000E+00
  0.00000000E+00  0.00000000E+00  0.00000000E+00
  0.00000000E+00  0.00000000E+00  0.00000000E+00
  0.00000000E+00  0.00000000E+00  0.00000000E+00
  0.00000000E+00  0.00000000E+00  0.00000000E+00
  0.00000000E+00  0.00000000E+00  0.00000000E+00
  0.00000000E+00  0.00000000E+00  0.00000000E+00
  0.00000000E+00  0.00000000E+00  0.00000000E+00
  0.00000000E+00  0.00000000E+00  0.00000000E+00
  0.00000000E+00  0.00000000E+00  0.00000000E+00
  0.00000000E+00  0.00000000E+00  0.00000000E+00
  0.00000000E+00  0.00000000E+00  0.00000000E+00
  0.00000000E+00  0.00000000E+00  0.00000000E+00
  0.00000000E+00  0.00000000E+00  0.00000000E+00
  0.00000000E+00  0.00000000E+00  0.00000000E+00
  0.00000000E+00  0.00000000E+00  0.00000000E+00
  0.00000000E+00  0.00000000E+00  0.00000000E+00
  0.00000000E+00  0.00000000E+00  0.00000000E+00
  0.00000000E+00  0.00000000E+00  0.00000000E+00
  0.00000000E+00  0.00000000E+00  0.00000000E+00
  0.00000000E+00  0.00000000E+00  0.00000000E+00
  0.00000000E+00  0.00000000E+00  0.00000000E+00
  0.00000000E+00  0.00000000E+00  0.00000000E+00
  0.00000000E+00  0.00000000E+00  0.00000000E+00
  0.00000000E+00  0.00000000E+00  0.00000000E+00
  0.00000000E+00  0.00000000E+00  0.00000000E+00
  0.00000000E+00  0.00000000E+00  0.00000000E+00
  0.00000000E+00  0.00000000E+00  0.00000000E+00
  0.00000000E+00  0.00000000E+00  0.00000000E+00
  0.00000000E+00  0.00000000E+00  0.00000000E+00
  0.00000000E+00  0.00000000E+00  0.00000000E+00
  0.00000000E+00  0.00000000E+00  0.00000000E+00
  0.00000000E+00  0.00000000E+00  0.00000000E+00
  0.00000000E+00  0.00000000E+00  0.00000000E+00
  0.00000000E+00  0.00000000E+00  0.00000000E+00
  0.00000000E+00  0.00000000E+00  0.00000000E+00
  0.00000000E+00  0.00000000E+00  0.00000000E+00
  0.00000000E+00  0.00000000E+00  0.00000000E+00
  0.00000000E+00  0.00000000E+00  0.00000000E+00
  0.00000000E+00  0.00000000E+00  0.00000000E+00
  0.00000000E+00  0.00000000E+00  0.00000000E+00
  0.00000000E+00  0.00000000E+00  0.00000000E+00
  0.00000000E+00  0.00000000E+00  0.00000000E+00
  0.00000000E+00  0.00000000E+00  0.00000000E+00
  0.00000000E+00  0.00000000E+00  0.00000000E+00
  0.00000000E+00  0.00000000E+00  0.00000000E+00
  0.00000000E+00  0.00000000E+00  0.00000000E+00
  0.00000000E+00  0.00000000E+00  0.00000000E+00
  0.00000000E+00  0.00000000E+00  0.00000000E+00
  0.00000000E+00  0.00000000E+00  0.00000000E+00
  0.00000000E+00  0.00000000E+00  0.00000000E+00
  0.00000000E+00  0.00000000E+00  0.00000000E+00
  0.00000000E+00  0.00000000E+00  0.00000000E+00
  0.00000000E+00  0.00000000E+00  0.00000000E+00
  0.00000000E+00  0.00000000E+00  0.00000000E+00
  0.00000000E+00  0.00000000E+00  0.00000000E+00
  0.00000000E+00  0.00000000E+00  0.00000000E+00
  0.00000000E+00  0.00000000E+00  0.00000000E+00
  0.00000000E+00  0.00000000E+00  0.00000000E+00
  0.00000000E+00  0.00000000E+00  0.00000000E+00
  0.00000000E+00  0.00000000E+00  0.00000000E+00
  0.00000000E+00  0.00000000E+00  0.00000000E+00
  0.00000000E+00  0.00000000E+00  0.00000000E+00
  0.00000000E+00  0.00000000E+00  0.00000000E+00
  0.00000000E+00  0.00000000E+00  0.00000000E+00
  0.00000000E+00  0.00000000E+00  0.00000000E+00
  0.00000000E+00  0.00000000E+00  0.00000000E+00
  0.00000000E+00  0.00000000E+00  0.00000000E+00
  0.00000000E+00  0.00000000E+00  0.00000000E+00
  0.00000000E+00  0.00000000E+00  0.00000000E+00
  0.00000000E+00  0.00000000E+00  0.00000000E+00
  0.00000000E+00  0.00000000E+00  0.00000000E+00
  0.00000000E+00  0.00000000E+00  0.00000000E+00
  0.00000000E+00  0.00000000E+00  0.00000000E+00
  0.00000000E+00  0.00000000E+00  0.00000000E+00
  0.00000000E+00  0.00000000E+00  0.00000000E+00
  0.00000000E+00  0.00000000E+00  0.00000000E+00
  0.00000000E+00  0.00000000E+00  0.00000000E+00
  0.00000000E+00  0.00000000E+00  0.00000000E+00
  0.00000000E+00  0.00000000E+00  0.00000000E+00
  0.00000000E+00  0.00000000E+00  0.00000000E+00
  0.00000000E+00  0.00000000E+00  0.00000000E+00
  0.00000000E+00  0.00000000E+00  0.00000000E+00
  0.00000000E+00  0.00000000E+00  0.00000000E+00
  0.00000000E+00  0.00000000E+00  0.00000000E+00
  0.00000000E+00  0.00000000E+00  0.00000000E+00
  0.00000000E+00  0.00000000E+00  0.00000000E+00
  0.00000000E+00  0.00000000E+00  0.00000000E+00
  0.00000000E+00  0.00000000E+00  0.00000000E+00
  0.00000000E+00  0.00000000E+00  0.00000000E+00
  0.00000000E+00  0.00000000E+00  0.00000000E+00
  0.00000000E+00  0.00000000E+00  0.00000000E+00
  0.00000000E+00  0.00000000E+00  0.00000000E+00
  0.00000000E+00  0.00000000E+00  0.00000000E+00
  0.00000000E+00  0.00000000E+00  0.00000000E+00
  0.00000000E+00  0.00000000E+00  0.00000000E+00
  0.00000000E+00  0.00000000E+00  0.00000000E+00
  0.00000000E+00  0.00000000E+00  0.00000000E+00
  0.00000000E+00  0.00000000E+00  0.00000000E+00
  0.00000000E+00  0.00000000E+00  0.00000000E+00
  0.00000000E+00  0.00000000E+00  0.00000000E+00
  0.00000000E+00  0.00000000E+00  0.00000000E+00
  0.00000000E+00  0.00000000E+00  0.00000000E+00
  0.00000000E+00  0.00000000E+00  0.00000000E+00
  0.00000000E+00  0.00000000E+00  0.00000000E+00
  0.00000000E+00  0.00000000E+00  0.00000000E+00
  0.00000000E+00  0.00000000E+00  0.00000000E+00
  0.00000000E+00  0.00000000E+00  0.00000000E+00
  0.00000000E+00  0.00000000E+00  0.00000000E+00
  0.00000000E+00  0.00000000E+00  0.00000000E+00
  0.00000000E+00  0.00000000E+00  0.00000000E+00
  0.00000000E+00  0.00000000E+00  0.00000000E+00
  0.00000000E+00  0.00000000E+00  0.00000000E+00
  0.00000000E+00  0.00000000E+00  0.00000000E+00
  0.00000000E+00  0.00000000E+00  0.00000000E+00
  0.00000000E+00  0.00000000E+00  0.00000000E+00
  0.00000000E+00  0.00000000E+00  0.00000000E+00
  0.00000000E+00  0.00000000E+00  0.00000000E+00
  0.00000000E+00  0.00000000E+00  0.00000000E+00
  0.00000000E+00  0.00000000E+00  0.00000000E+00
  0.00000000E+00  0.00000000E+00  0.00000000E+00
  0.00000000E+00  0.00000000E+00  0.00000000E+00
  0.00000000E+00  0.00000000E+00  0.00000000E+00
  0.00000000E+00  0.00000000E+00  0.00000000E+00
  0.00000000E+00  0.00000000E+00  0.00000000E+00
  0.00000000E+00  0.00000000E+00  0.00000000E+00
  0.00000000E+00  0.00000000E+00  0.00000000E+00
  0.00000000E+00  0.00000000E+00  0.00000000E+00
  0.00000000E+00  0.00000000E+00  0.00000000E+00
  0.00000000E+00  0.00000000E+00  0.00000000E+00
  0.00000000E+00  0.00000000E+00  0.00000000E+00
  0.00000000E+00  0.00000000E+00  0.00000000E+00
  0.00000000E+00  0.00000000E+00  0.00000000E+00
  0.00000000E+00  0.00000000E+00  0.00000000E+00
  0.00000000E+00  0.00000000E+00  0.00000000E+00
  0.00000000E+00  0.00000000E+00  0.00000000E+00
  0.00000000E+00  0.00000000E+00  0.00000000E+00
  0.00000000E+00  0.00000000E+00  0.00000000E+00
  0.00000000E+00  0.00000000E+00  0.00000000E+00
  0.00000000E+00  0.00000000E+00  0.00000000E+00
  0.00000000E+00  0.00000000E+00  0.00000000E+00
  0.00000000E+00  0.00000000E+00  0.00000000E+00
  0.00000000E+00  0.00000000E+00  0.00000000E+00
  0.00000000E+00  0.00000000E+00  0.00000000E+00
  0.00000000E+00  0.00000000E+00  0.00000000E+00
  0.00000000E+00  0.00000000E+00  0.00000000E+00
  0.00000000E+00  0.00000000E+00  0.00000000E+00
  0.00000000E+00  0.00000000E+00  0.00000000E+00
  0.00000000E+00  0.00000000E+00  0.00000000E+00
  0.00000000E+00  0.00000000E+00  0.00000000E+00
  0.00000000E+00  0.00000000E+00  0.00000000E+00
  0.00000000E+00  0.00000000E+00  0.00000000E+00
  0.00000000E+00  0.00000000E+00  0.00000000E+00
  0.00000000E+00  0.00000000E+00  0.00000000E+00
  0.00000000E+00  0.00000000E+00  0.00000000E+00
  0.00000000E+00  0.00000000E+00  0.00000000E+00
  0.00000000E+00  0.00000000E+00  0.00000000E+00
