generated by phonopy                    
   1.00000000000000     
     0.0000000000000000    3.2584356294264776    3.2584356294265913
     3.2584356294265215    0.0000000000000000    3.2584356294265913
     3.2584356294265215    3.2584356294264776    0.0000000000000000
   Na   K    Mg   Zr   H 
     1     1     1     1    24
Direct
  0.2500000000000000  0.2500000000000000  0.2500000000000000
  0.7500000000000000  0.7500000000000000  0.7500000000000000
  0.0000000000000000  0.0000000000000000  0.0000000000000000
  0.5000000000000000  0.5000000000000000  0.5000000000000000
  0.1172910386436570  0.8973738458859088  0.6254857100224811
  0.8973738458859088  0.1172910386436570  0.3598494054479673
  0.6254857100224811  0.3598494054479673  0.1172910386436570
  0.3598494054479673  0.6254857100224811  0.8973738458859088
  0.6254857100224811  0.1172910386436570  0.8973738458859088
  0.3598494054479673  0.8973738458859088  0.1172910386436570
  0.1172910386436570  0.6254857100224811  0.3598494054479673
  0.8973738458859088  0.3598494054479673  0.6254857100224811
  0.8973738458859088  0.6254857100224811  0.1172910386436570
  0.1172910386436570  0.3598494054479673  0.8973738458859088
  0.3598494054479673  0.1172910386436570  0.6254857100224811
  0.6254857100224811  0.8973738458859088  0.3598494054479673
  0.1172910386436570  0.3598494054479673  0.6254857100224811
  0.3598494054479673  0.1172910386436570  0.8973738458859088
  0.6254857100224811  0.8973738458859088  0.1172910386436570
  0.8973738458859088  0.6254857100224811  0.3598494054479673
  0.6254857100224811  0.1172910386436570  0.3598494054479673
  0.8973738458859088  0.3598494054479673  0.1172910386436570
  0.1172910386436570  0.6254857100224811  0.8973738458859088
  0.3598494054479673  0.8973738458859088  0.6254857100224811
  0.3598494054479673  0.6254857100224811  0.1172910386436570
  0.1172910386436570  0.8973738458859088  0.3598494054479673
  0.8973738458859088  0.1172910386436570  0.6254857100224811
  0.6254857100224811  0.3598494054479673  0.8973738458859088
 
  0.00000000E+00  0.00000000E+00  0.00000000E+00
  0.00000000E+00  0.00000000E+00  0.00000000E+00
  0.00000000E+00  0.00000000E+00  0.00000000E+00
  0.00000000E+00  0.00000000E+00  0.00000000E+00
  0.00000000E+00  0.00000000E+00  0.00000000E+00
  0.00000000E+00  0.00000000E+00  0.00000000E+00
  0.00000000E+00  0.00000000E+00  0.00000000E+00
  0.00000000E+00  0.00000000E+00  0.00000000E+00
  0.00000000E+00  0.00000000E+00  0.00000000E+00
  0.00000000E+00  0.00000000E+00  0.00000000E+00
  0.00000000E+00  0.00000000E+00  0.00000000E+00
  0.00000000E+00  0.00000000E+00  0.00000000E+00
  0.00000000E+00  0.00000000E+00  0.00000000E+00
  0.00000000E+00  0.00000000E+00  0.00000000E+00
  0.00000000E+00  0.00000000E+00  0.00000000E+00
  0.00000000E+00  0.00000000E+00  0.00000000E+00
  0.00000000E+00  0.00000000E+00  0.00000000E+00
  0.00000000E+00  0.00000000E+00  0.00000000E+00
  0.00000000E+00  0.00000000E+00  0.00000000E+00
  0.00000000E+00  0.00000000E+00  0.00000000E+00
  0.00000000E+00  0.00000000E+00  0.00000000E+00
  0.00000000E+00  0.00000000E+00  0.00000000E+00
  0.00000000E+00  0.00000000E+00  0.00000000E+00
  0.00000000E+00  0.00000000E+00  0.00000000E+00
  0.00000000E+00  0.00000000E+00  0.00000000E+00
  0.00000000E+00  0.00000000E+00  0.00000000E+00
  0.00000000E+00  0.00000000E+00  0.00000000E+00
  0.00000000E+00  0.00000000E+00  0.00000000E+00
