generated by phonopy                    
   1.00000000000000     
     0.0000000000000000    3.3858836759523392    3.3858836759524347
     3.3858836759523792    0.0000000000000000    3.3858836759524347
     3.3858836759523792    3.3858836759523392    0.0000000000000000
   Na   Zr   Ca   Hf   H 
     1     1     1     1    24
Direct
  0.2500000000000000  0.2500000000000000  0.2500000000000000
  0.7500000000000000  0.7500000000000000  0.7500000000000000
  0.0000000000000000  0.0000000000000000  0.0000000000000000
  0.5000000000000000  0.5000000000000000  0.5000000000000000
  0.1293538798912408  0.8914658762078744  0.6176807349087667
  0.8914658762078744  0.1293538798912408  0.3614995089921251
  0.6176807349087667  0.3614995089921251  0.1293538798912408
  0.3614995089921251  0.6176807349087667  0.8914658762078744
  0.6176807349087667  0.1293538798912408  0.8914658762078744
  0.3614995089921251  0.8914658762078744  0.1293538798912408
  0.1293538798912408  0.6176807349087667  0.3614995089921251
  0.8914658762078744  0.3614995089921251  0.6176807349087667
  0.8914658762078744  0.6176807349087667  0.1293538798912408
  0.1293538798912408  0.3614995089921251  0.8914658762078744
  0.3614995089921251  0.1293538798912408  0.6176807349087667
  0.6176807349087667  0.8914658762078744  0.3614995089921251
  0.1293538798912408  0.3614995089921251  0.6176807349087667
  0.3614995089921251  0.1293538798912408  0.8914658762078744
  0.6176807349087667  0.8914658762078744  0.1293538798912408
  0.8914658762078744  0.6176807349087667  0.3614995089921251
  0.6176807349087667  0.1293538798912408  0.3614995089921251
  0.8914658762078744  0.3614995089921251  0.1293538798912408
  0.1293538798912408  0.6176807349087667  0.8914658762078744
  0.3614995089921251  0.8914658762078744  0.6176807349087667
  0.3614995089921251  0.6176807349087667  0.1293538798912408
  0.1293538798912408  0.8914658762078744  0.3614995089921251
  0.8914658762078744  0.1293538798912408  0.6176807349087667
  0.6176807349087667  0.3614995089921251  0.8914658762078744
 
  0.00000000E+00  0.00000000E+00  0.00000000E+00
  0.00000000E+00  0.00000000E+00  0.00000000E+00
  0.00000000E+00  0.00000000E+00  0.00000000E+00
  0.00000000E+00  0.00000000E+00  0.00000000E+00
  0.00000000E+00  0.00000000E+00  0.00000000E+00
  0.00000000E+00  0.00000000E+00  0.00000000E+00
  0.00000000E+00  0.00000000E+00  0.00000000E+00
  0.00000000E+00  0.00000000E+00  0.00000000E+00
  0.00000000E+00  0.00000000E+00  0.00000000E+00
  0.00000000E+00  0.00000000E+00  0.00000000E+00
  0.00000000E+00  0.00000000E+00  0.00000000E+00
  0.00000000E+00  0.00000000E+00  0.00000000E+00
  0.00000000E+00  0.00000000E+00  0.00000000E+00
  0.00000000E+00  0.00000000E+00  0.00000000E+00
  0.00000000E+00  0.00000000E+00  0.00000000E+00
  0.00000000E+00  0.00000000E+00  0.00000000E+00
  0.00000000E+00  0.00000000E+00  0.00000000E+00
  0.00000000E+00  0.00000000E+00  0.00000000E+00
  0.00000000E+00  0.00000000E+00  0.00000000E+00
  0.00000000E+00  0.00000000E+00  0.00000000E+00
  0.00000000E+00  0.00000000E+00  0.00000000E+00
  0.00000000E+00  0.00000000E+00  0.00000000E+00
  0.00000000E+00  0.00000000E+00  0.00000000E+00
  0.00000000E+00  0.00000000E+00  0.00000000E+00
  0.00000000E+00  0.00000000E+00  0.00000000E+00
  0.00000000E+00  0.00000000E+00  0.00000000E+00
  0.00000000E+00  0.00000000E+00  0.00000000E+00
  0.00000000E+00  0.00000000E+00  0.00000000E+00
