generated by phonopy                    
   1.00000000000000     
     0.0000000000000000    3.2545526990316618    3.2545526990317231
     3.2545526990316862    0.0000000000000000    3.2545526990317231
     3.2545526990316862    3.2545526990316618    0.0000000000000000
   Na   Y    Mg   Sc   H 
     1     1     1     1    24
Direct
  0.2500000000000000  0.2500000000000000  0.2500000000000000
  0.7500000000000000  0.7500000000000000  0.7500000000000000
  0.0000000000000000  0.0000000000000000  0.0000000000000000
  0.5000000000000000  0.5000000000000000  0.5000000000000000
  0.1300582402123354  0.8923640468542189  0.6181687247136551
  0.8923640468542189  0.1300582402123354  0.3594089882197835
  0.6181687247136551  0.3594089882197835  0.1300582402123354
  0.3594089882197835  0.6181687247136551  0.8923640468542189
  0.6181687247136551  0.1300582402123354  0.8923640468542189
  0.3594089882197835  0.8923640468542189  0.1300582402123354
  0.1300582402123354  0.6181687247136551  0.3594089882197835
  0.8923640468542189  0.3594089882197835  0.6181687247136551
  0.8923640468542189  0.6181687247136551  0.1300582402123354
  0.1300582402123354  0.3594089882197835  0.8923640468542189
  0.3594089882197835  0.1300582402123354  0.6181687247136551
  0.6181687247136551  0.8923640468542189  0.3594089882197835
  0.1300582402123354  0.3594089882197835  0.6181687247136551
  0.3594089882197835  0.1300582402123354  0.8923640468542189
  0.6181687247136551  0.8923640468542189  0.1300582402123354
  0.8923640468542189  0.6181687247136551  0.3594089882197835
  0.6181687247136551  0.1300582402123354  0.3594089882197835
  0.8923640468542189  0.3594089882197835  0.1300582402123354
  0.1300582402123354  0.6181687247136551  0.8923640468542189
  0.3594089882197835  0.8923640468542189  0.6181687247136551
  0.3594089882197835  0.6181687247136551  0.1300582402123354
  0.1300582402123354  0.8923640468542189  0.3594089882197835
  0.8923640468542189  0.1300582402123354  0.6181687247136551
  0.6181687247136551  0.3594089882197835  0.8923640468542189
 
  0.00000000E+00  0.00000000E+00  0.00000000E+00
  0.00000000E+00  0.00000000E+00  0.00000000E+00
  0.00000000E+00  0.00000000E+00  0.00000000E+00
  0.00000000E+00  0.00000000E+00  0.00000000E+00
  0.00000000E+00  0.00000000E+00  0.00000000E+00
  0.00000000E+00  0.00000000E+00  0.00000000E+00
  0.00000000E+00  0.00000000E+00  0.00000000E+00
  0.00000000E+00  0.00000000E+00  0.00000000E+00
  0.00000000E+00  0.00000000E+00  0.00000000E+00
  0.00000000E+00  0.00000000E+00  0.00000000E+00
  0.00000000E+00  0.00000000E+00  0.00000000E+00
  0.00000000E+00  0.00000000E+00  0.00000000E+00
  0.00000000E+00  0.00000000E+00  0.00000000E+00
  0.00000000E+00  0.00000000E+00  0.00000000E+00
  0.00000000E+00  0.00000000E+00  0.00000000E+00
  0.00000000E+00  0.00000000E+00  0.00000000E+00
  0.00000000E+00  0.00000000E+00  0.00000000E+00
  0.00000000E+00  0.00000000E+00  0.00000000E+00
  0.00000000E+00  0.00000000E+00  0.00000000E+00
  0.00000000E+00  0.00000000E+00  0.00000000E+00
  0.00000000E+00  0.00000000E+00  0.00000000E+00
  0.00000000E+00  0.00000000E+00  0.00000000E+00
  0.00000000E+00  0.00000000E+00  0.00000000E+00
  0.00000000E+00  0.00000000E+00  0.00000000E+00
  0.00000000E+00  0.00000000E+00  0.00000000E+00
  0.00000000E+00  0.00000000E+00  0.00000000E+00
  0.00000000E+00  0.00000000E+00  0.00000000E+00
  0.00000000E+00  0.00000000E+00  0.00000000E+00
