generated by phonopy                    
   1.00000000000000     
     0.0000000000000000    3.2168698740865374    3.2168698740866133
     3.2168698740865684    0.0000000000000000    3.2168698740866133
     3.2168698740865684    3.2168698740865374    0.0000000000000000
   Na   Hf   Ca   Sc   H 
     1     1     1     1    24
Direct
  0.2500000000000000  0.2500000000000000  0.2500000000000000
  0.7500000000000000  0.7500000000000000  0.7500000000000000
  0.0000000000000000  0.0000000000000000  0.0000000000000000
  0.5000000000000000  0.5000000000000000  0.5000000000000000
  0.1383584489361951  0.8861773119493748  0.6138141595985545
  0.8861773119493748  0.1383584489361951  0.3616500795158828
  0.6138141595985545  0.3616500795158828  0.1383584489361951
  0.3616500795158828  0.6138141595985545  0.8861773119493748
  0.6138141595985545  0.1383584489361951  0.8861773119493748
  0.3616500795158828  0.8861773119493748  0.1383584489361951
  0.1383584489361951  0.6138141595985545  0.3616500795158828
  0.8861773119493748  0.3616500795158828  0.6138141595985545
  0.8861773119493748  0.6138141595985545  0.1383584489361951
  0.1383584489361951  0.3616500795158828  0.8861773119493748
  0.3616500795158828  0.1383584489361951  0.6138141595985545
  0.6138141595985545  0.8861773119493748  0.3616500795158828
  0.1383584489361951  0.3616500795158828  0.6138141595985545
  0.3616500795158828  0.1383584489361951  0.8861773119493748
  0.6138141595985545  0.8861773119493748  0.1383584489361951
  0.8861773119493748  0.6138141595985545  0.3616500795158828
  0.6138141595985545  0.1383584489361951  0.3616500795158828
  0.8861773119493748  0.3616500795158828  0.1383584489361951
  0.1383584489361951  0.6138141595985545  0.8861773119493748
  0.3616500795158828  0.8861773119493748  0.6138141595985545
  0.3616500795158828  0.6138141595985545  0.1383584489361951
  0.1383584489361951  0.8861773119493748  0.3616500795158828
  0.8861773119493748  0.1383584489361951  0.6138141595985545
  0.6138141595985545  0.3616500795158828  0.8861773119493748
 
  0.00000000E+00  0.00000000E+00  0.00000000E+00
  0.00000000E+00  0.00000000E+00  0.00000000E+00
  0.00000000E+00  0.00000000E+00  0.00000000E+00
  0.00000000E+00  0.00000000E+00  0.00000000E+00
  0.00000000E+00  0.00000000E+00  0.00000000E+00
  0.00000000E+00  0.00000000E+00  0.00000000E+00
  0.00000000E+00  0.00000000E+00  0.00000000E+00
  0.00000000E+00  0.00000000E+00  0.00000000E+00
  0.00000000E+00  0.00000000E+00  0.00000000E+00
  0.00000000E+00  0.00000000E+00  0.00000000E+00
  0.00000000E+00  0.00000000E+00  0.00000000E+00
  0.00000000E+00  0.00000000E+00  0.00000000E+00
  0.00000000E+00  0.00000000E+00  0.00000000E+00
  0.00000000E+00  0.00000000E+00  0.00000000E+00
  0.00000000E+00  0.00000000E+00  0.00000000E+00
  0.00000000E+00  0.00000000E+00  0.00000000E+00
  0.00000000E+00  0.00000000E+00  0.00000000E+00
  0.00000000E+00  0.00000000E+00  0.00000000E+00
  0.00000000E+00  0.00000000E+00  0.00000000E+00
  0.00000000E+00  0.00000000E+00  0.00000000E+00
  0.00000000E+00  0.00000000E+00  0.00000000E+00
  0.00000000E+00  0.00000000E+00  0.00000000E+00
  0.00000000E+00  0.00000000E+00  0.00000000E+00
  0.00000000E+00  0.00000000E+00  0.00000000E+00
  0.00000000E+00  0.00000000E+00  0.00000000E+00
  0.00000000E+00  0.00000000E+00  0.00000000E+00
  0.00000000E+00  0.00000000E+00  0.00000000E+00
  0.00000000E+00  0.00000000E+00  0.00000000E+00
