generated by phonopy                    
   1.00000000000000     
     0.0000000000000000    3.2629880243039935    3.2629880243040899
     3.2629880243040352    0.0000000000000000    3.2629880243040899
     3.2629880243040352    3.2629880243039935    0.0000000000000000
   Na   Y    K    Zr   H 
     1     1     1     1    24
Direct
  0.2500000000000000  0.2500000000000000  0.2500000000000000
  0.7500000000000000  0.7500000000000000  0.7500000000000000
  0.0000000000000000  0.0000000000000000  0.0000000000000000
  0.5000000000000000  0.5000000000000000  0.5000000000000000
  0.1335892272195593  0.8934639765469257  0.6144572547018257
  0.8934639765469257  0.1335892272195593  0.3584895415316893
  0.6144572547018257  0.3584895415316893  0.1335892272195593
  0.3584895415316893  0.6144572547018257  0.8934639765469257
  0.6144572547018257  0.1335892272195593  0.8934639765469257
  0.3584895415316893  0.8934639765469257  0.1335892272195593
  0.1335892272195593  0.6144572547018257  0.3584895415316893
  0.8934639765469257  0.3584895415316893  0.6144572547018257
  0.8934639765469257  0.6144572547018257  0.1335892272195593
  0.1335892272195593  0.3584895415316893  0.8934639765469257
  0.3584895415316893  0.1335892272195593  0.6144572547018257
  0.6144572547018257  0.8934639765469257  0.3584895415316893
  0.1335892272195593  0.3584895415316893  0.6144572547018257
  0.3584895415316893  0.1335892272195593  0.8934639765469257
  0.6144572547018257  0.8934639765469257  0.1335892272195593
  0.8934639765469257  0.6144572547018257  0.3584895415316893
  0.6144572547018257  0.1335892272195593  0.3584895415316893
  0.8934639765469257  0.3584895415316893  0.1335892272195593
  0.1335892272195593  0.6144572547018257  0.8934639765469257
  0.3584895415316893  0.8934639765469257  0.6144572547018257
  0.3584895415316893  0.6144572547018257  0.1335892272195593
  0.1335892272195593  0.8934639765469257  0.3584895415316893
  0.8934639765469257  0.1335892272195593  0.6144572547018257
  0.6144572547018257  0.3584895415316893  0.8934639765469257
 
  0.00000000E+00  0.00000000E+00  0.00000000E+00
  0.00000000E+00  0.00000000E+00  0.00000000E+00
  0.00000000E+00  0.00000000E+00  0.00000000E+00
  0.00000000E+00  0.00000000E+00  0.00000000E+00
  0.00000000E+00  0.00000000E+00  0.00000000E+00
  0.00000000E+00  0.00000000E+00  0.00000000E+00
  0.00000000E+00  0.00000000E+00  0.00000000E+00
  0.00000000E+00  0.00000000E+00  0.00000000E+00
  0.00000000E+00  0.00000000E+00  0.00000000E+00
  0.00000000E+00  0.00000000E+00  0.00000000E+00
  0.00000000E+00  0.00000000E+00  0.00000000E+00
  0.00000000E+00  0.00000000E+00  0.00000000E+00
  0.00000000E+00  0.00000000E+00  0.00000000E+00
  0.00000000E+00  0.00000000E+00  0.00000000E+00
  0.00000000E+00  0.00000000E+00  0.00000000E+00
  0.00000000E+00  0.00000000E+00  0.00000000E+00
  0.00000000E+00  0.00000000E+00  0.00000000E+00
  0.00000000E+00  0.00000000E+00  0.00000000E+00
  0.00000000E+00  0.00000000E+00  0.00000000E+00
  0.00000000E+00  0.00000000E+00  0.00000000E+00
  0.00000000E+00  0.00000000E+00  0.00000000E+00
  0.00000000E+00  0.00000000E+00  0.00000000E+00
  0.00000000E+00  0.00000000E+00  0.00000000E+00
  0.00000000E+00  0.00000000E+00  0.00000000E+00
  0.00000000E+00  0.00000000E+00  0.00000000E+00
  0.00000000E+00  0.00000000E+00  0.00000000E+00
  0.00000000E+00  0.00000000E+00  0.00000000E+00
  0.00000000E+00  0.00000000E+00  0.00000000E+00
