generated by phonopy                    
   1.00000000000000     
     0.0000000000000000    3.3447267358005761    3.3447267358006560
     3.3447267358006068    0.0000000000000000    3.3447267358006560
     3.3447267358006068    3.3447267358005761    0.0000000000000000
   Na   Y    Zr   Hf   H 
     1     1     1     1    24
Direct
  0.2500000000000000  0.2500000000000000  0.2500000000000000
  0.7500000000000000  0.7500000000000000  0.7500000000000000
  0.0000000000000000  0.0000000000000000  0.0000000000000000
  0.5000000000000000  0.5000000000000000  0.5000000000000000
  0.1291542089007365  0.8911972787829257  0.6097173771442002
  0.8911972787829257  0.1291542089007365  0.3699311351721306
  0.6097173771442002  0.3699311351721306  0.1291542089007365
  0.3699311351721306  0.6097173771442002  0.8911972787829257
  0.6097173771442002  0.1291542089007365  0.8911972787829257
  0.3699311351721306  0.8911972787829257  0.1291542089007365
  0.1291542089007365  0.6097173771442002  0.3699311351721306
  0.8911972787829257  0.3699311351721306  0.6097173771442002
  0.8911972787829257  0.6097173771442002  0.1291542089007365
  0.1291542089007365  0.3699311351721306  0.8911972787829257
  0.3699311351721306  0.1291542089007365  0.6097173771442002
  0.6097173771442002  0.8911972787829257  0.3699311351721306
  0.1291542089007365  0.3699311351721306  0.6097173771442002
  0.3699311351721306  0.1291542089007365  0.8911972787829257
  0.6097173771442002  0.8911972787829257  0.1291542089007365
  0.8911972787829257  0.6097173771442002  0.3699311351721306
  0.6097173771442002  0.1291542089007365  0.3699311351721306
  0.8911972787829257  0.3699311351721306  0.1291542089007365
  0.1291542089007365  0.6097173771442002  0.8911972787829257
  0.3699311351721306  0.8911972787829257  0.6097173771442002
  0.3699311351721306  0.6097173771442002  0.1291542089007365
  0.1291542089007365  0.8911972787829257  0.3699311351721306
  0.8911972787829257  0.1291542089007365  0.6097173771442002
  0.6097173771442002  0.3699311351721306  0.8911972787829257
 
  0.00000000E+00  0.00000000E+00  0.00000000E+00
  0.00000000E+00  0.00000000E+00  0.00000000E+00
  0.00000000E+00  0.00000000E+00  0.00000000E+00
  0.00000000E+00  0.00000000E+00  0.00000000E+00
  0.00000000E+00  0.00000000E+00  0.00000000E+00
  0.00000000E+00  0.00000000E+00  0.00000000E+00
  0.00000000E+00  0.00000000E+00  0.00000000E+00
  0.00000000E+00  0.00000000E+00  0.00000000E+00
  0.00000000E+00  0.00000000E+00  0.00000000E+00
  0.00000000E+00  0.00000000E+00  0.00000000E+00
  0.00000000E+00  0.00000000E+00  0.00000000E+00
  0.00000000E+00  0.00000000E+00  0.00000000E+00
  0.00000000E+00  0.00000000E+00  0.00000000E+00
  0.00000000E+00  0.00000000E+00  0.00000000E+00
  0.00000000E+00  0.00000000E+00  0.00000000E+00
  0.00000000E+00  0.00000000E+00  0.00000000E+00
  0.00000000E+00  0.00000000E+00  0.00000000E+00
  0.00000000E+00  0.00000000E+00  0.00000000E+00
  0.00000000E+00  0.00000000E+00  0.00000000E+00
  0.00000000E+00  0.00000000E+00  0.00000000E+00
  0.00000000E+00  0.00000000E+00  0.00000000E+00
  0.00000000E+00  0.00000000E+00  0.00000000E+00
  0.00000000E+00  0.00000000E+00  0.00000000E+00
  0.00000000E+00  0.00000000E+00  0.00000000E+00
  0.00000000E+00  0.00000000E+00  0.00000000E+00
  0.00000000E+00  0.00000000E+00  0.00000000E+00
  0.00000000E+00  0.00000000E+00  0.00000000E+00
  0.00000000E+00  0.00000000E+00  0.00000000E+00
