generated by phonopy                    
   1.00000000000000     
     0.0000000000000000    3.1959441704416034    3.1959441704416509
     3.1959441704416238    0.0000000000000000    3.1959441704416509
     3.1959441704416238    3.1959441704416034    0.0000000000000000
   Mg   Zr   Sc   Ti   H 
     1     1     1     1    24
Direct
  0.2500000000000000  0.2500000000000000  0.2500000000000000
  0.7500000000000000  0.7500000000000000  0.7500000000000000
  0.0000000000000000  0.0000000000000000  0.0000000000000000
  0.5000000000000000  0.5000000000000000  0.5000000000000000
  0.1340919094108273  0.8836568022280531  0.6161553359328167
  0.8836568022280531  0.1340919094108273  0.3660959524282958
  0.6161553359328167  0.3660959524282958  0.1340919094108273
  0.3660959524282958  0.6161553359328167  0.8836568022280531
  0.6161553359328167  0.1340919094108273  0.8836568022280531
  0.3660959524282958  0.8836568022280531  0.1340919094108273
  0.1340919094108273  0.6161553359328167  0.3660959524282958
  0.8836568022280531  0.3660959524282958  0.6161553359328167
  0.8836568022280531  0.6161553359328167  0.1340919094108273
  0.1340919094108273  0.3660959524282958  0.8836568022280531
  0.3660959524282958  0.1340919094108273  0.6161553359328167
  0.6161553359328167  0.8836568022280531  0.3660959524282958
  0.1340919094108273  0.3660959524282958  0.6161553359328167
  0.3660959524282958  0.1340919094108273  0.8836568022280531
  0.6161553359328167  0.8836568022280531  0.1340919094108273
  0.8836568022280531  0.6161553359328167  0.3660959524282958
  0.6161553359328167  0.1340919094108273  0.3660959524282958
  0.8836568022280531  0.3660959524282958  0.1340919094108273
  0.1340919094108273  0.6161553359328167  0.8836568022280531
  0.3660959524282958  0.8836568022280531  0.6161553359328167
  0.3660959524282958  0.6161553359328167  0.1340919094108273
  0.1340919094108273  0.8836568022280531  0.3660959524282958
  0.8836568022280531  0.1340919094108273  0.6161553359328167
  0.6161553359328167  0.3660959524282958  0.8836568022280531
 
  0.00000000E+00  0.00000000E+00  0.00000000E+00
  0.00000000E+00  0.00000000E+00  0.00000000E+00
  0.00000000E+00  0.00000000E+00  0.00000000E+00
  0.00000000E+00  0.00000000E+00  0.00000000E+00
  0.00000000E+00  0.00000000E+00  0.00000000E+00
  0.00000000E+00  0.00000000E+00  0.00000000E+00
  0.00000000E+00  0.00000000E+00  0.00000000E+00
  0.00000000E+00  0.00000000E+00  0.00000000E+00
  0.00000000E+00  0.00000000E+00  0.00000000E+00
  0.00000000E+00  0.00000000E+00  0.00000000E+00
  0.00000000E+00  0.00000000E+00  0.00000000E+00
  0.00000000E+00  0.00000000E+00  0.00000000E+00
  0.00000000E+00  0.00000000E+00  0.00000000E+00
  0.00000000E+00  0.00000000E+00  0.00000000E+00
  0.00000000E+00  0.00000000E+00  0.00000000E+00
  0.00000000E+00  0.00000000E+00  0.00000000E+00
  0.00000000E+00  0.00000000E+00  0.00000000E+00
  0.00000000E+00  0.00000000E+00  0.00000000E+00
  0.00000000E+00  0.00000000E+00  0.00000000E+00
  0.00000000E+00  0.00000000E+00  0.00000000E+00
  0.00000000E+00  0.00000000E+00  0.00000000E+00
  0.00000000E+00  0.00000000E+00  0.00000000E+00
  0.00000000E+00  0.00000000E+00  0.00000000E+00
  0.00000000E+00  0.00000000E+00  0.00000000E+00
  0.00000000E+00  0.00000000E+00  0.00000000E+00
  0.00000000E+00  0.00000000E+00  0.00000000E+00
  0.00000000E+00  0.00000000E+00  0.00000000E+00
  0.00000000E+00  0.00000000E+00  0.00000000E+00
