generated by phonopy                    
   1.00000000000000     
     0.0000000000000000    3.4250266543796331    3.4250266543797139
     3.4250266543796686    0.0000000000000000    3.4250266543797139
     3.4250266543796686    3.4250266543796331    0.0000000000000000
   Na   Y    Sc   Ce   H 
     1     1     1     1    24
Direct
  0.2500000000000000  0.2500000000000000  0.2500000000000000
  0.7500000000000000  0.7500000000000000  0.7500000000000000
  0.0000000000000000  0.0000000000000000  0.0000000000000000
  0.5000000000000000  0.5000000000000000  0.5000000000000000
  0.1300888413502861  0.8917538966356915  0.6215008511246864
  0.8917538966356915  0.1300888413502861  0.3566564108893431
  0.6215008511246864  0.3566564108893431  0.1300888413502861
  0.3566564108893431  0.6215008511246864  0.8917538966356915
  0.6215008511246864  0.1300888413502861  0.8917538966356915
  0.3566564108893431  0.8917538966356915  0.1300888413502861
  0.1300888413502861  0.6215008511246864  0.3566564108893431
  0.8917538966356915  0.3566564108893431  0.6215008511246864
  0.8917538966356915  0.6215008511246864  0.1300888413502861
  0.1300888413502861  0.3566564108893431  0.8917538966356915
  0.3566564108893431  0.1300888413502861  0.6215008511246864
  0.6215008511246864  0.8917538966356915  0.3566564108893431
  0.1300888413502861  0.3566564108893431  0.6215008511246864
  0.3566564108893431  0.1300888413502861  0.8917538966356915
  0.6215008511246864  0.8917538966356915  0.1300888413502861
  0.8917538966356915  0.6215008511246864  0.3566564108893431
  0.6215008511246864  0.1300888413502861  0.3566564108893431
  0.8917538966356915  0.3566564108893431  0.1300888413502861
  0.1300888413502861  0.6215008511246864  0.8917538966356915
  0.3566564108893431  0.8917538966356915  0.6215008511246864
  0.3566564108893431  0.6215008511246864  0.1300888413502861
  0.1300888413502861  0.8917538966356915  0.3566564108893431
  0.8917538966356915  0.1300888413502861  0.6215008511246864
  0.6215008511246864  0.3566564108893431  0.8917538966356915
 
  0.00000000E+00  0.00000000E+00  0.00000000E+00
  0.00000000E+00  0.00000000E+00  0.00000000E+00
  0.00000000E+00  0.00000000E+00  0.00000000E+00
  0.00000000E+00  0.00000000E+00  0.00000000E+00
  0.00000000E+00  0.00000000E+00  0.00000000E+00
  0.00000000E+00  0.00000000E+00  0.00000000E+00
  0.00000000E+00  0.00000000E+00  0.00000000E+00
  0.00000000E+00  0.00000000E+00  0.00000000E+00
  0.00000000E+00  0.00000000E+00  0.00000000E+00
  0.00000000E+00  0.00000000E+00  0.00000000E+00
  0.00000000E+00  0.00000000E+00  0.00000000E+00
  0.00000000E+00  0.00000000E+00  0.00000000E+00
  0.00000000E+00  0.00000000E+00  0.00000000E+00
  0.00000000E+00  0.00000000E+00  0.00000000E+00
  0.00000000E+00  0.00000000E+00  0.00000000E+00
  0.00000000E+00  0.00000000E+00  0.00000000E+00
  0.00000000E+00  0.00000000E+00  0.00000000E+00
  0.00000000E+00  0.00000000E+00  0.00000000E+00
  0.00000000E+00  0.00000000E+00  0.00000000E+00
  0.00000000E+00  0.00000000E+00  0.00000000E+00
  0.00000000E+00  0.00000000E+00  0.00000000E+00
  0.00000000E+00  0.00000000E+00  0.00000000E+00
  0.00000000E+00  0.00000000E+00  0.00000000E+00
  0.00000000E+00  0.00000000E+00  0.00000000E+00
  0.00000000E+00  0.00000000E+00  0.00000000E+00
  0.00000000E+00  0.00000000E+00  0.00000000E+00
  0.00000000E+00  0.00000000E+00  0.00000000E+00
  0.00000000E+00  0.00000000E+00  0.00000000E+00
