generated by phonopy                    
   1.00000000000000     
     0.0000000000000000    3.2798012004450343    3.2798012004451080
     3.2798012004450650    0.0000000000000000    3.2798012004451080
     3.2798012004450650    3.2798012004450343    0.0000000000000000
   Na   Hf   Ca   Sc   H 
     1     1     1     1    24
Direct
  0.2500000000000000  0.2500000000000000  0.2500000000000000
  0.7500000000000000  0.7500000000000000  0.7500000000000000
  0.0000000000000000  0.0000000000000000  0.0000000000000000
  0.5000000000000000  0.5000000000000000  0.5000000000000000
  0.1380959059572788  0.8858144273750881  0.6142106366173508
  0.8858144273750881  0.1380959059572788  0.3618790300502823
  0.6142106366173508  0.3618790300502823  0.1380959059572788
  0.3618790300502823  0.6142106366173508  0.8858144273750881
  0.6142106366173508  0.1380959059572788  0.8858144273750881
  0.3618790300502823  0.8858144273750881  0.1380959059572788
  0.1380959059572788  0.6142106366173508  0.3618790300502823
  0.8858144273750881  0.3618790300502823  0.6142106366173508
  0.8858144273750881  0.6142106366173508  0.1380959059572788
  0.1380959059572788  0.3618790300502823  0.8858144273750881
  0.3618790300502823  0.1380959059572788  0.6142106366173508
  0.6142106366173508  0.8858144273750881  0.3618790300502823
  0.1380959059572788  0.3618790300502823  0.6142106366173508
  0.3618790300502823  0.1380959059572788  0.8858144273750881
  0.6142106366173508  0.8858144273750881  0.1380959059572788
  0.8858144273750881  0.6142106366173508  0.3618790300502823
  0.6142106366173508  0.1380959059572788  0.3618790300502823
  0.8858144273750881  0.3618790300502823  0.1380959059572788
  0.1380959059572788  0.6142106366173508  0.8858144273750881
  0.3618790300502823  0.8858144273750881  0.6142106366173508
  0.3618790300502823  0.6142106366173508  0.1380959059572788
  0.1380959059572788  0.8858144273750881  0.3618790300502823
  0.8858144273750881  0.1380959059572788  0.6142106366173508
  0.6142106366173508  0.3618790300502823  0.8858144273750881
 
  0.00000000E+00  0.00000000E+00  0.00000000E+00
  0.00000000E+00  0.00000000E+00  0.00000000E+00
  0.00000000E+00  0.00000000E+00  0.00000000E+00
  0.00000000E+00  0.00000000E+00  0.00000000E+00
  0.00000000E+00  0.00000000E+00  0.00000000E+00
  0.00000000E+00  0.00000000E+00  0.00000000E+00
  0.00000000E+00  0.00000000E+00  0.00000000E+00
  0.00000000E+00  0.00000000E+00  0.00000000E+00
  0.00000000E+00  0.00000000E+00  0.00000000E+00
  0.00000000E+00  0.00000000E+00  0.00000000E+00
  0.00000000E+00  0.00000000E+00  0.00000000E+00
  0.00000000E+00  0.00000000E+00  0.00000000E+00
  0.00000000E+00  0.00000000E+00  0.00000000E+00
  0.00000000E+00  0.00000000E+00  0.00000000E+00
  0.00000000E+00  0.00000000E+00  0.00000000E+00
  0.00000000E+00  0.00000000E+00  0.00000000E+00
  0.00000000E+00  0.00000000E+00  0.00000000E+00
  0.00000000E+00  0.00000000E+00  0.00000000E+00
  0.00000000E+00  0.00000000E+00  0.00000000E+00
  0.00000000E+00  0.00000000E+00  0.00000000E+00
  0.00000000E+00  0.00000000E+00  0.00000000E+00
  0.00000000E+00  0.00000000E+00  0.00000000E+00
  0.00000000E+00  0.00000000E+00  0.00000000E+00
  0.00000000E+00  0.00000000E+00  0.00000000E+00
  0.00000000E+00  0.00000000E+00  0.00000000E+00
  0.00000000E+00  0.00000000E+00  0.00000000E+00
  0.00000000E+00  0.00000000E+00  0.00000000E+00
  0.00000000E+00  0.00000000E+00  0.00000000E+00
