generated by phonopy                    
   1.00000000000000     
     0.0000000000000000    3.3145410554299803    3.3145410554300385
     3.3145410554300043    0.0000000000000000    3.3145410554300385
     3.3145410554300043    3.3145410554299803    0.0000000000000000
   Mg   Zr   Sc   Y    H 
     1     1     1     1    24
Direct
  0.2500000000000000  0.2500000000000000  0.2500000000000000
  0.7500000000000000  0.7500000000000000  0.7500000000000000
  0.0000000000000000  0.0000000000000000  0.0000000000000000
  0.5000000000000000  0.5000000000000000  0.5000000000000000
  0.1301209294855710  0.8889398138873901  0.6202711993771288
  0.8889398138873901  0.1301209294855710  0.3606680572499243
  0.6202711993771288  0.3606680572499243  0.1301209294855710
  0.3606680572499243  0.6202711993771288  0.8889398138873901
  0.6202711993771288  0.1301209294855710  0.8889398138873901
  0.3606680572499243  0.8889398138873901  0.1301209294855710
  0.1301209294855710  0.6202711993771288  0.3606680572499243
  0.8889398138873901  0.3606680572499243  0.6202711993771288
  0.8889398138873901  0.6202711993771288  0.1301209294855710
  0.1301209294855710  0.3606680572499243  0.8889398138873901
  0.3606680572499243  0.1301209294855710  0.6202711993771288
  0.6202711993771288  0.8889398138873901  0.3606680572499243
  0.1301209294855710  0.3606680572499243  0.6202711993771288
  0.3606680572499243  0.1301209294855710  0.8889398138873901
  0.6202711993771288  0.8889398138873901  0.1301209294855710
  0.8889398138873901  0.6202711993771288  0.3606680572499243
  0.6202711993771288  0.1301209294855710  0.3606680572499243
  0.8889398138873901  0.3606680572499243  0.1301209294855710
  0.1301209294855710  0.6202711993771288  0.8889398138873901
  0.3606680572499243  0.8889398138873901  0.6202711993771288
  0.3606680572499243  0.6202711993771288  0.1301209294855710
  0.1301209294855710  0.8889398138873901  0.3606680572499243
  0.8889398138873901  0.1301209294855710  0.6202711993771288
  0.6202711993771288  0.3606680572499243  0.8889398138873901
 
  0.00000000E+00  0.00000000E+00  0.00000000E+00
  0.00000000E+00  0.00000000E+00  0.00000000E+00
  0.00000000E+00  0.00000000E+00  0.00000000E+00
  0.00000000E+00  0.00000000E+00  0.00000000E+00
  0.00000000E+00  0.00000000E+00  0.00000000E+00
  0.00000000E+00  0.00000000E+00  0.00000000E+00
  0.00000000E+00  0.00000000E+00  0.00000000E+00
  0.00000000E+00  0.00000000E+00  0.00000000E+00
  0.00000000E+00  0.00000000E+00  0.00000000E+00
  0.00000000E+00  0.00000000E+00  0.00000000E+00
  0.00000000E+00  0.00000000E+00  0.00000000E+00
  0.00000000E+00  0.00000000E+00  0.00000000E+00
  0.00000000E+00  0.00000000E+00  0.00000000E+00
  0.00000000E+00  0.00000000E+00  0.00000000E+00
  0.00000000E+00  0.00000000E+00  0.00000000E+00
  0.00000000E+00  0.00000000E+00  0.00000000E+00
  0.00000000E+00  0.00000000E+00  0.00000000E+00
  0.00000000E+00  0.00000000E+00  0.00000000E+00
  0.00000000E+00  0.00000000E+00  0.00000000E+00
  0.00000000E+00  0.00000000E+00  0.00000000E+00
  0.00000000E+00  0.00000000E+00  0.00000000E+00
  0.00000000E+00  0.00000000E+00  0.00000000E+00
  0.00000000E+00  0.00000000E+00  0.00000000E+00
  0.00000000E+00  0.00000000E+00  0.00000000E+00
  0.00000000E+00  0.00000000E+00  0.00000000E+00
  0.00000000E+00  0.00000000E+00  0.00000000E+00
  0.00000000E+00  0.00000000E+00  0.00000000E+00
  0.00000000E+00  0.00000000E+00  0.00000000E+00
