generated by phonopy                    
   1.00000000000000     
     0.0000000000000000    3.2958426076485443    3.2958426076486593
     3.2958426076485887    0.0000000000000000    3.2958426076486593
     3.2958426076485887    3.2958426076485443    0.0000000000000000
   Ca   Hf   Sr   Sc   H 
     1     1     1     1    24
Direct
  0.2500000000000000  0.2500000000000000  0.2500000000000000
  0.7500000000000000  0.7500000000000000  0.7500000000000000
  0.0000000000000000  0.0000000000000000  0.0000000000000000
  0.5000000000000000  0.5000000000000000  0.5000000000000000
  0.1391278469211272  0.8712866834804203  0.6155836616703851
  0.8712866834804203  0.1391278469211272  0.3740018079280603
  0.6155836616703851  0.3740018079280603  0.1391278469211272
  0.3740018079280603  0.6155836616703851  0.8712866834804203
  0.6155836616703851  0.1391278469211272  0.8712866834804203
  0.3740018079280603  0.8712866834804203  0.1391278469211272
  0.1391278469211272  0.6155836616703851  0.3740018079280603
  0.8712866834804203  0.3740018079280603  0.6155836616703851
  0.8712866834804203  0.6155836616703851  0.1391278469211272
  0.1391278469211272  0.3740018079280603  0.8712866834804203
  0.3740018079280603  0.1391278469211272  0.6155836616703851
  0.6155836616703851  0.8712866834804203  0.3740018079280603
  0.1391278469211272  0.3740018079280603  0.6155836616703851
  0.3740018079280603  0.1391278469211272  0.8712866834804203
  0.6155836616703851  0.8712866834804203  0.1391278469211272
  0.8712866834804203  0.6155836616703851  0.3740018079280603
  0.6155836616703851  0.1391278469211272  0.3740018079280603
  0.8712866834804203  0.3740018079280603  0.1391278469211272
  0.1391278469211272  0.6155836616703851  0.8712866834804203
  0.3740018079280603  0.8712866834804203  0.6155836616703851
  0.3740018079280603  0.6155836616703851  0.1391278469211272
  0.1391278469211272  0.8712866834804203  0.3740018079280603
  0.8712866834804203  0.1391278469211272  0.6155836616703851
  0.6155836616703851  0.3740018079280603  0.8712866834804203
 
  0.00000000E+00  0.00000000E+00  0.00000000E+00
  0.00000000E+00  0.00000000E+00  0.00000000E+00
  0.00000000E+00  0.00000000E+00  0.00000000E+00
  0.00000000E+00  0.00000000E+00  0.00000000E+00
  0.00000000E+00  0.00000000E+00  0.00000000E+00
  0.00000000E+00  0.00000000E+00  0.00000000E+00
  0.00000000E+00  0.00000000E+00  0.00000000E+00
  0.00000000E+00  0.00000000E+00  0.00000000E+00
  0.00000000E+00  0.00000000E+00  0.00000000E+00
  0.00000000E+00  0.00000000E+00  0.00000000E+00
  0.00000000E+00  0.00000000E+00  0.00000000E+00
  0.00000000E+00  0.00000000E+00  0.00000000E+00
  0.00000000E+00  0.00000000E+00  0.00000000E+00
  0.00000000E+00  0.00000000E+00  0.00000000E+00
  0.00000000E+00  0.00000000E+00  0.00000000E+00
  0.00000000E+00  0.00000000E+00  0.00000000E+00
  0.00000000E+00  0.00000000E+00  0.00000000E+00
  0.00000000E+00  0.00000000E+00  0.00000000E+00
  0.00000000E+00  0.00000000E+00  0.00000000E+00
  0.00000000E+00  0.00000000E+00  0.00000000E+00
  0.00000000E+00  0.00000000E+00  0.00000000E+00
  0.00000000E+00  0.00000000E+00  0.00000000E+00
  0.00000000E+00  0.00000000E+00  0.00000000E+00
  0.00000000E+00  0.00000000E+00  0.00000000E+00
  0.00000000E+00  0.00000000E+00  0.00000000E+00
  0.00000000E+00  0.00000000E+00  0.00000000E+00
  0.00000000E+00  0.00000000E+00  0.00000000E+00
  0.00000000E+00  0.00000000E+00  0.00000000E+00
