generated by phonopy                    
   1.00000000000000     
     0.0000000000000000    3.3682154257708814    3.3682154257709840
     3.3682154257709276    0.0000000000000000    3.3682154257709840
     3.3682154257709276    3.3682154257708814    0.0000000000000000
   Y    Zr   Hf   Ce   H 
     1     1     1     1    24
Direct
  0.2500000000000000  0.2500000000000000  0.2500000000000000
  0.7500000000000000  0.7500000000000000  0.7500000000000000
  0.0000000000000000  0.0000000000000000  0.0000000000000000
  0.5000000000000000  0.5000000000000000  0.5000000000000000
  0.1222783768990183  0.8766455759143739  0.6285416768591077
  0.8766455759143739  0.1222783768990183  0.3725343703274930
  0.6285416768591077  0.3725343703274930  0.1222783768990183
  0.3725343703274930  0.6285416768591077  0.8766455759143739
  0.6285416768591077  0.1222783768990183  0.8766455759143739
  0.3725343703274930  0.8766455759143739  0.1222783768990183
  0.1222783768990183  0.6285416768591077  0.3725343703274930
  0.8766455759143739  0.3725343703274930  0.6285416768591077
  0.8766455759143739  0.6285416768591077  0.1222783768990183
  0.1222783768990183  0.3725343703274930  0.8766455759143739
  0.3725343703274930  0.1222783768990183  0.6285416768591077
  0.6285416768591077  0.8766455759143739  0.3725343703274930
  0.1222783768990183  0.3725343703274930  0.6285416768591077
  0.3725343703274930  0.1222783768990183  0.8766455759143739
  0.6285416768591077  0.8766455759143739  0.1222783768990183
  0.8766455759143739  0.6285416768591077  0.3725343703274930
  0.6285416768591077  0.1222783768990183  0.3725343703274930
  0.8766455759143739  0.3725343703274930  0.1222783768990183
  0.1222783768990183  0.6285416768591077  0.8766455759143739
  0.3725343703274930  0.8766455759143739  0.6285416768591077
  0.3725343703274930  0.6285416768591077  0.1222783768990183
  0.1222783768990183  0.8766455759143739  0.3725343703274930
  0.8766455759143739  0.1222783768990183  0.6285416768591077
  0.6285416768591077  0.3725343703274930  0.8766455759143739
 
  0.00000000E+00  0.00000000E+00  0.00000000E+00
  0.00000000E+00  0.00000000E+00  0.00000000E+00
  0.00000000E+00  0.00000000E+00  0.00000000E+00
  0.00000000E+00  0.00000000E+00  0.00000000E+00
  0.00000000E+00  0.00000000E+00  0.00000000E+00
  0.00000000E+00  0.00000000E+00  0.00000000E+00
  0.00000000E+00  0.00000000E+00  0.00000000E+00
  0.00000000E+00  0.00000000E+00  0.00000000E+00
  0.00000000E+00  0.00000000E+00  0.00000000E+00
  0.00000000E+00  0.00000000E+00  0.00000000E+00
  0.00000000E+00  0.00000000E+00  0.00000000E+00
  0.00000000E+00  0.00000000E+00  0.00000000E+00
  0.00000000E+00  0.00000000E+00  0.00000000E+00
  0.00000000E+00  0.00000000E+00  0.00000000E+00
  0.00000000E+00  0.00000000E+00  0.00000000E+00
  0.00000000E+00  0.00000000E+00  0.00000000E+00
  0.00000000E+00  0.00000000E+00  0.00000000E+00
  0.00000000E+00  0.00000000E+00  0.00000000E+00
  0.00000000E+00  0.00000000E+00  0.00000000E+00
  0.00000000E+00  0.00000000E+00  0.00000000E+00
  0.00000000E+00  0.00000000E+00  0.00000000E+00
  0.00000000E+00  0.00000000E+00  0.00000000E+00
  0.00000000E+00  0.00000000E+00  0.00000000E+00
  0.00000000E+00  0.00000000E+00  0.00000000E+00
  0.00000000E+00  0.00000000E+00  0.00000000E+00
  0.00000000E+00  0.00000000E+00  0.00000000E+00
  0.00000000E+00  0.00000000E+00  0.00000000E+00
  0.00000000E+00  0.00000000E+00  0.00000000E+00
