generated by phonopy                    
   1.00000000000000     
     0.0000000000000000    3.3735178294218904    3.3735178294219716
     3.3735178294219255    0.0000000000000000    3.3735178294219716
     3.3735178294219255    3.3735178294218904    0.0000000000000000
   Na   Zr   Sc   Hf   H 
     1     1     1     1    24
Direct
  0.2500000000000000  0.2500000000000000  0.2500000000000000
  0.7500000000000000  0.7500000000000000  0.7500000000000000
  0.0000000000000000  0.0000000000000000  0.0000000000000000
  0.5000000000000000  0.5000000000000000  0.5000000000000000
  0.1268747990874601  0.8921914133430136  0.6178789907336153
  0.8921914133430136  0.1268747990874601  0.3630547968359110
  0.6178789907336153  0.3630547968359110  0.1268747990874601
  0.3630547968359110  0.6178789907336153  0.8921914133430136
  0.6178789907336153  0.1268747990874601  0.8921914133430136
  0.3630547968359110  0.8921914133430136  0.1268747990874601
  0.1268747990874601  0.6178789907336153  0.3630547968359110
  0.8921914133430136  0.3630547968359110  0.6178789907336153
  0.8921914133430136  0.6178789907336153  0.1268747990874601
  0.1268747990874601  0.3630547968359110  0.8921914133430136
  0.3630547968359110  0.1268747990874601  0.6178789907336153
  0.6178789907336153  0.8921914133430136  0.3630547968359110
  0.1268747990874601  0.3630547968359110  0.6178789907336153
  0.3630547968359110  0.1268747990874601  0.8921914133430136
  0.6178789907336153  0.8921914133430136  0.1268747990874601
  0.8921914133430136  0.6178789907336153  0.3630547968359110
  0.6178789907336153  0.1268747990874601  0.3630547968359110
  0.8921914133430136  0.3630547968359110  0.1268747990874601
  0.1268747990874601  0.6178789907336153  0.8921914133430136
  0.3630547968359110  0.8921914133430136  0.6178789907336153
  0.3630547968359110  0.6178789907336153  0.1268747990874601
  0.1268747990874601  0.8921914133430136  0.3630547968359110
  0.8921914133430136  0.1268747990874601  0.6178789907336153
  0.6178789907336153  0.3630547968359110  0.8921914133430136
 
  0.00000000E+00  0.00000000E+00  0.00000000E+00
  0.00000000E+00  0.00000000E+00  0.00000000E+00
  0.00000000E+00  0.00000000E+00  0.00000000E+00
  0.00000000E+00  0.00000000E+00  0.00000000E+00
  0.00000000E+00  0.00000000E+00  0.00000000E+00
  0.00000000E+00  0.00000000E+00  0.00000000E+00
  0.00000000E+00  0.00000000E+00  0.00000000E+00
  0.00000000E+00  0.00000000E+00  0.00000000E+00
  0.00000000E+00  0.00000000E+00  0.00000000E+00
  0.00000000E+00  0.00000000E+00  0.00000000E+00
  0.00000000E+00  0.00000000E+00  0.00000000E+00
  0.00000000E+00  0.00000000E+00  0.00000000E+00
  0.00000000E+00  0.00000000E+00  0.00000000E+00
  0.00000000E+00  0.00000000E+00  0.00000000E+00
  0.00000000E+00  0.00000000E+00  0.00000000E+00
  0.00000000E+00  0.00000000E+00  0.00000000E+00
  0.00000000E+00  0.00000000E+00  0.00000000E+00
  0.00000000E+00  0.00000000E+00  0.00000000E+00
  0.00000000E+00  0.00000000E+00  0.00000000E+00
  0.00000000E+00  0.00000000E+00  0.00000000E+00
  0.00000000E+00  0.00000000E+00  0.00000000E+00
  0.00000000E+00  0.00000000E+00  0.00000000E+00
  0.00000000E+00  0.00000000E+00  0.00000000E+00
  0.00000000E+00  0.00000000E+00  0.00000000E+00
  0.00000000E+00  0.00000000E+00  0.00000000E+00
  0.00000000E+00  0.00000000E+00  0.00000000E+00
  0.00000000E+00  0.00000000E+00  0.00000000E+00
  0.00000000E+00  0.00000000E+00  0.00000000E+00
