POSCAR                                  
   1.00000000000000     
    10.3305003401607181   -0.0456874510729020   -0.1045556567518961
    -0.0457894226941397   10.2627738140418980   -0.0223265367113874
    -0.0699013867410342   -0.0150037070102392    6.9015392244449281
   Y    Zr   K    Sc   H 
     9     9     9     9   216
Direct
  0.1749652156389590  0.1663004583882307  0.2612240511945023
  0.5053785062931816  0.5014977166352617  0.2278794164612386
  0.8366051739974080  0.1620405256031431  0.2461568558544605
  0.6645472657894319  0.3329804741993343  0.4937958017572660
  0.6689521901805304  0.3328624660300675 -0.0048315036967781
  0.0005084072453566  0.3347971603725516  0.5051447506620845
 -0.0015526706619411  0.6749677619460741  0.5128791021164331
  0.6640221107045865 -0.0067847923798378 -0.0062973265333197
 -0.0041190378255790 -0.0023257716694913  0.5076031877031445
  0.1556950024410919  0.1677923860836048  0.7567771390020306
  0.5059073796279221  0.1651368639400603  0.7552684223965026
  0.3298297983405339  0.3269964891901269  0.0010861030600142
  0.8396240291132894  0.5075785276605211  0.2488410120219424
  0.4960812641936992  0.8237370031745180  0.7241438726933285
  0.8311526487510338  0.5002034039778842  0.7532619455290992
  0.6565011553137303  0.6668039715289570 -0.0095427375400027
  0.6693573259068903 -0.0000546139198938  0.4983390987533863
  0.0064594943735823  0.6659071200457781  0.0062241911890825
  0.1811712999614882  0.5041775162602663  0.2780125914242692
  0.3383168812814312  0.3447231826709223  0.5042884257612009
  0.3319386744509640  0.6611726587034239  0.4896174085217198
  0.1784219535329282  0.8408096552882051  0.7730307126359625
  0.4814925280862712  0.4945109749080950  0.7193929901934570
  0.8289392327350537  0.1669675342183108  0.7491861123156173
  0.3291052566067760  0.0021723008219997  0.4889456306763908
  0.3230535721237014 -0.0152891463673725 -0.0160829791115137
  0.0038063010116284  0.3361757377265934  0.0068613873073883
  0.4940822765089907  0.1544128628238582  0.2334109387819299
  0.1658026529151472  0.5101960367978697  0.7665730423263943
  0.1572894969980247  0.8322993346379089  0.2645550383902254
  0.3399979520245802  0.6751463035303313  0.0027363647944639
  0.5127189588980076  0.8373306486480060  0.2619163750778169
  0.6700215246144063  0.6633199728832395  0.4919350949398515
  0.8309367861145532  0.8309315311590686  0.2406132901502569
  0.8367188082295787  0.8306500343729234  0.7581531027932756
 -0.0009604605399289  0.0031498720608929  0.0069634345139822
  0.1696422548532894  0.0806038340494180  0.0149281075279128
  0.1609349464173016  0.0843135524134422  0.5124301289210189
  0.1720773048510548  0.4199537409452994  0.0120148329812754
  0.4882186212994467  0.0740113705194316 -0.0003077091813838
  0.3476451413550195  0.2443324618024490  0.2730645306571155
  0.1659406564248371  0.4215344544611873  0.5335606171925571
  0.4956958209914686  0.0872634516968318  0.4780841244151484
  0.3203904472133314  0.2522181976716406  0.7462711322416765
  0.1768989036077678  0.7528543378631692  0.0203403141634925
  0.4979820719396935  0.4157991391319141 -0.0229525942963736
  0.3439846639781910  0.5885196273352992  0.2213648565268962
  0.1723683722783944  0.7598005485269469  0.5025699641604138
  0.8336899070579998  0.0777243261871796 -0.0043913752354502
  0.6732166543624832  0.2503185772504888  0.2458938644544869
  0.5057967881467276  0.4149162670340991  0.4683518975515444
  0.3227237140712912  0.5806108950777195  0.7775494645945654
  0.8316230397102196  0.0826397748458071  0.4999959037976266
  0.6659097369202029  0.2505306487491022  0.7447512781705270
  0.4979292578581576  0.7504129848729347 -0.0240319702624719
  0.3137292176466697  0.9123466847819868  0.2428673429712375
  0.8373628772422946  0.4183274554482327 -0.0012141328010537
  0.6727715338759453  0.5887001273042275  0.2536696530972137
  0.5060141842875681  0.7458453704025321  0.4821453199746508
  0.3512832693588516  0.9164155217075910  0.7300014200334451
 -0.0046634846982117  0.2580277977624378  0.2519209524783665
  0.8311947859937271  0.4193985416854896  0.5021032718551773
  0.6618298856381457  0.5811691448071138  0.7336221778301971
 -0.0051893105673481  0.2561943575809705  0.7569691364332817
  0.8361841252904757  0.7478957765531328 -0.0037593778405314
  0.6734716407820789  0.9119752808624288  0.2478625760211721
  0.0110930569476538  0.5893157295695652  0.2550926176353042
  0.8245187744192293  0.7510401551571281  0.5052183695687167
  0.6570244451421586  0.9128084394842896  0.7397920885634418
 -0.0018905693936325  0.5822158720758750  0.7601486134861770
 -0.0011371255768122  0.9136804450714811  0.2445285882150153
  0.0069390781702856  0.9181385214922532  0.7689915053780442
  0.0808024328964693  0.1688876731549290  0.0101358002533038
  0.0812452107547693  0.1678731565400539  0.5091653891226277
  0.0920064984864940  0.5025516649327447  0.0142271506336911
  0.4119099900039667  0.1572073304299020 -0.0189176512441392
  0.2619675036593995  0.3309585759507654  0.2449307822296560
  0.0763879632866268  0.5079608191771383  0.5075919251479046
  0.4125422672067187  0.1699972106327512  0.5271118261566904
  0.2496982292078740  0.3194103589755218  0.7369353552972159
  0.0834051158241615  0.8342695383906944  0.0144987675836487
  0.4077266748900055  0.4985635909341124 -0.0217080218143279
  0.2553015386623132  0.6870336647302578  0.2331811366263986
  0.0877771978237499  0.8368119251126321  0.5132006708256966
  0.7506084898196999  0.1604574755978766 -0.0017923548855966
  0.5795831790288120  0.3253731022521851  0.2404623427370692
  0.4231509106180066  0.5083862441607256  0.4560664215828150
  0.2479265125449813  0.6722152071867051  0.7412289617756737
  0.7488424938545356  0.1656193185271474  0.4918903844807902
  0.5803202661860137  0.3398298963899299  0.7456893286518861
  0.4181375204923011  0.8339534819723726  0.0356038469180719
  0.2533845331042671 -0.0207706570587721  0.2364738119755778
  0.7520289128216012  0.5080224783004095 -0.0064595298030047
  0.5873711039715747  0.6727668550856193  0.2427037842952555
  0.4116839944728910  0.8311298167139916  0.4652357879343270
  0.2470389825974796  0.0199108856665589  0.7332497291440361
  0.9253297986047363  0.3296467541005118  0.2495262139939600
  0.7537079213382837  0.5004299273375369  0.4973480416392634
  0.5809119355779180  0.6600187858971903  0.7473272469207841
  0.9187107161181459  0.3374127080793842  0.7561824686851985
  0.7535168249992488  0.8262739764292801 -0.0047505120827090
  0.5833779790184070  0.0010846204295898  0.2478932038407470
  0.9170246678911417  0.6775551776492008  0.2556080975198571
  0.7488706186223013  0.8351782214204522  0.5043006104803054
  0.5791013666755612 -0.0089197747952831  0.7422199606287162
  0.9144472254154661  0.6660138129160423  0.7590625705697571
  0.9166968200570342 -0.0100845424358592  0.2448671625791406
  0.9117483998348542 -0.0019736051401420  0.7606152686381658
  0.1608526257549850 -0.0015813274328790  0.1258088754818455
  0.1686536513209914 -0.0033426846508053  0.6261280701185300
  0.1710351837291477  0.3398225406261180  0.1314309965054007
  0.4939857478662760 -0.0101180392106221  0.1119663208449827
  0.3492571915317659  0.1767293624942415  0.3694318459694705
  0.1721955193718865  0.3329991838189864  0.6421662022889366
  0.5017004093511878  0.0070028895155499  0.6137679882409742
  0.3270471160128259  0.1602375349324729  0.8775360914164823
  0.1675583589884514  0.6680287953596791  0.1370878942067587
  0.4994769347827228  0.3213064799753653  0.1116999659752638
  0.3570294770002961  0.4983824713130508  0.3660548041560450
  0.1762999264018238  0.6683131032141215  0.6494786449437255
  0.8329334035465629 -0.0091647945389874  0.1226618770113632
  0.6479683123597506  0.1666482111536413  0.3648265037151213
  0.5040091830278746  0.3166729541329789  0.6211014241743981
  0.3320183328506646  0.5138427479881914  0.8739840262543931
  0.8309848511931519 -0.0115093574074031  0.6317596711851905
  0.6677669721931928  0.1610758626603725  0.8750997255249018
  0.4984221686385691  0.6855036274466572  0.1201174523471367
  0.3504690959280825  0.8333344379661523  0.3614488336561680
  0.8364666477330628  0.3429424427854240  0.1295133346563265
  0.6705734364323754  0.5059867578946682  0.3698267729651076
  0.5117491273563173  0.6625617424180744  0.6027224606218524
  0.3545100305205245  0.8204281862852054  0.8720560272870511
  0.0077310429406724  0.1659854560090624  0.3747187674208629
  0.8319510669269488  0.3376093637225798  0.6220462491442691
  0.6607311918024253  0.5034449656446383  0.8616416652034097
 -0.0056001634983433  0.1610202616447403  0.8892322040814078
  0.8351592817803533  0.6704653155380675  0.1219956472605611
  0.6781478418636756  0.8258772834534430  0.3735135474784325
  0.0121587912065869  0.5043630240726792  0.3914057727858194
  0.8263618741193477  0.6705676313061948  0.6270698930130952
  0.6664370788903494  0.8276452083204239  0.8646500904408023
  0.0024628087230924  0.5035098810676625  0.8791516280457331
 -0.0046040934312608  0.8364247122470985  0.3755578156698220
 -0.0003741189655637  0.8351786834767855  0.8866468447475865
  0.0787402826665325  0.0021093240691943  0.2469789806558463
  0.0740700791911397 -0.0084193375241611  0.7718269783745679
  0.0914032652534081  0.3381495638063498  0.2564502965480321
  0.4152002806744742 -0.0054254894214256  0.2398601437286000
  0.2497908311312201  0.1736414142852324  0.5301896252287127
  0.0834391411367033  0.3506863796790448  0.7612254121025508
  0.4063454633639162  0.0089639301151127  0.7416666708372698
  0.2495302566976894  0.1537517965341063 -0.0011377063167541
  0.0871925258989318  0.6641860630452564  0.2675239991056215
  0.4217582659005439  0.3223990998635740  0.2450581925958462
  0.2396467074053747  0.4997480020971174  0.5461091672530447
  0.0845893550298808  0.6726295577368188  0.7621509712466894
  0.7500430033362733 -0.0069454114979727  0.2457225923251559
  0.5820196388193841  0.1616546853017251  0.4730823421519472
  0.4113874727446077  0.3169223194076292  0.7618740074922834
  0.2493984501551949  0.5198587339375084  0.0209481241241013
  0.7519075579066652 -0.0122373161962050  0.7455757832186413
  0.5804248869874244  0.1650871734288044  0.0030289568572810
  0.4221486486537930  0.6852523172790749  0.2464059634828805
  0.2531915559880571  0.8275652616758651  0.5132431984072890
  0.7459318184257686  0.3251935203440083  0.2502613517469544
  0.5932075351013035  0.5063947074620546  0.4907949538906954
  0.4120898344529439  0.6660755282391884  0.7572129222641788
  0.2483656238237191  0.8187954396896641  0.0453764913398351
  0.9121135656320731  0.1657175475517471  0.5042645473999885
  0.7498822506230755  0.3357419320388913  0.7456979844730268
  0.5761422424724841  0.4967286061151621 -0.0306648083616879
  0.9186403098416227  0.1641865352016092 -0.0054108272726198
  0.7528992576189927  0.6735601607847245  0.2342450951525992
  0.5934903020757057  0.8333397722614065  0.4950803637360002
  0.9128377295185419  0.5032381474414093  0.5054568284527016
  0.7487733782835012  0.6700266214597584  0.7561041291818912
  0.5781425876586650  0.8281290961536014 -0.0038794159568282
  0.9203651692388986  0.5019165556311670  0.0036716645841141
  0.9068506972849911  0.8351501533159842  0.4942623184676691
  0.9179395030824565  0.8356204150823405  0.0088961899762855
  0.0086297847188158  0.1638809721398222  0.1280301918331347
 -0.0053791801520212  0.1664151017692118  0.6323863486310506
  0.0075197197936088  0.5029499024290859  0.1369959885559804
  0.3340479629769232  0.1596547941825242  0.1185223008679820
  0.1662606505373843  0.3292136692214461  0.3981034830485846
  0.0012579338980196  0.5067679110957424  0.6350914431867452
  0.3489525050544824  0.1724408815544605  0.6103579500602034
  0.1684144039567208  0.3420648131167259  0.8778070035258961
 -0.0040505273476089  0.8327328127772100  0.1288589631968437
  0.3303351160167891  0.4953791354858263  0.1176468161526415
  0.1588550675241136  0.6797432239013859  0.3871156378194061
 -0.0020421020911083  0.8358783424779017  0.6457452999023428
  0.6588020939461872  0.1622441214805191  0.1280477060695992
  0.4934988069628505  0.3105119913710854  0.3663786628563879
  0.3048312404113463  0.5076701805950915  0.6346570469959245
  0.1727477048715692  0.6713269871321256  0.8953231955642202
  0.6547552580883625  0.1658447167108229  0.6137572299401470
  0.4934438580898559  0.3332853449740879  0.8662516483551352
  0.3643469993423570  0.8330812043934308  0.1264496807528178
  0.1575232650825126 -0.0049610348996038  0.3784751611433175
  0.6743495697287185  0.5050719490285116  0.1156578205060162
  0.5033702784193925  0.6770574355768465  0.3604622003110374
  0.3255803937196980  0.8308372614412451  0.6096644855942828
  0.1490078148751604  0.0108181891256664  0.8829924373472638
  0.8331760106083543  0.3453526896681944  0.3724996852911818
  0.6576491499735553  0.5099232115010430  0.6191349096613037
  0.4862837810269606  0.6590892000968703  0.8545861674953239
  0.8374670270115901  0.3373163769786928  0.8802960965958725
  0.6593180926494726  0.8271549410927170  0.1177534331209532
  0.4958316253026661  0.0003697143799117  0.3749195853413899
  0.8277249188234966  0.6738770718335493  0.3763289073143460
  0.6732172961868428  0.8184525438584076  0.6267656863542771
  0.4963340108489997 -0.0099770972210757  0.8621596688425055
  0.8326273961810665  0.6697708558178876  0.8800424646437615
  0.8305891623503036 -0.0149616928513283  0.3714785892528220
  0.8390188378512067 -0.0063173821637309  0.8764915838832960
  0.0072138169542303  0.0765088833393276  0.2494293505403350
 -0.0084349273348930  0.0830259412229881  0.7557648445448468
  0.0041332935145030  0.4247796836602281  0.2540051849945568
  0.3411871929238087  0.0713616833585844  0.2290660234248587
  0.1738050930677974  0.2612527849913459  0.5029747655635407
  0.0128476132676650  0.4184605370225933  0.7584711118900486
  0.3414228615120166  0.0785270403347824  0.7448914140127216
  0.1632652318323987  0.2502964086376165  0.0091147402930058
 -0.0061382905902321  0.7538291945603710  0.2501170839788313
  0.3389918094822365  0.4181860180015402  0.2326267738552367
  0.1587140931395443  0.5882456553093224  0.5275776961686922
  0.0027899869737413  0.7569202913751262  0.7685544150761020
  0.6679556018379572  0.0773336947263412  0.2495754832112048
  0.4961539931518967  0.2459017630971168  0.4602672557725722
  0.3113787922681067  0.4179158274387330  0.7712434880320030
  0.1836757118348485  0.5830115315351102  0.0208401068601048
  0.6633815880429539  0.0785148564740191  0.7445954735823362
  0.4984768758219597  0.2458268051714780  0.0101912071002291
  0.3202837041793574  0.7500585509747804  0.2491692592864118
  0.1610504905604493  0.9215710473451069  0.5218618884657037
  0.6756556299224001  0.4196750305994452  0.2467327733283894
  0.5052849154401394  0.5840676517856227  0.4795946682340736
  0.3327428136461464  0.7439597236817664  0.7492866539386865
  0.1490712126084504  0.9158788205944518  0.0304538968869620
  0.8319942800990361  0.2494660388827936  0.4964097812198549
  0.6522690300866392  0.4184798331429214  0.7468522117931206
  0.4924191693413718  0.5836679305012848 -0.0260180557702881
  0.8381536405356632  0.2506300663495555 -0.0001152533625808
  0.6741736011447670  0.7525485632390126  0.2605065966584295
  0.5002546335001150  0.9244609918571084  0.4922905703048436
  0.8299566353222565  0.5903235712082743  0.5000774489824923
  0.6728872577207931  0.7494412969290760  0.7267890838062676
  0.4963992024898476  0.9124259236975505 -0.0107532389457825
  0.8294990216007260  0.5893014634957280 -0.0018354612266579
  0.8294997030605599  0.9103527145883471  0.5117518868495684
  0.8395975742342848  0.9100408693825629 -0.0024718471343447
 
  0.00000000E+00  0.00000000E+00  0.00000000E+00
  0.00000000E+00  0.00000000E+00  0.00000000E+00
  0.00000000E+00  0.00000000E+00  0.00000000E+00
  0.00000000E+00  0.00000000E+00  0.00000000E+00
  0.00000000E+00  0.00000000E+00  0.00000000E+00
  0.00000000E+00  0.00000000E+00  0.00000000E+00
  0.00000000E+00  0.00000000E+00  0.00000000E+00
  0.00000000E+00  0.00000000E+00  0.00000000E+00
  0.00000000E+00  0.00000000E+00  0.00000000E+00
  0.00000000E+00  0.00000000E+00  0.00000000E+00
  0.00000000E+00  0.00000000E+00  0.00000000E+00
  0.00000000E+00  0.00000000E+00  0.00000000E+00
  0.00000000E+00  0.00000000E+00  0.00000000E+00
  0.00000000E+00  0.00000000E+00  0.00000000E+00
  0.00000000E+00  0.00000000E+00  0.00000000E+00
  0.00000000E+00  0.00000000E+00  0.00000000E+00
  0.00000000E+00  0.00000000E+00  0.00000000E+00
  0.00000000E+00  0.00000000E+00  0.00000000E+00
  0.00000000E+00  0.00000000E+00  0.00000000E+00
  0.00000000E+00  0.00000000E+00  0.00000000E+00
  0.00000000E+00  0.00000000E+00  0.00000000E+00
  0.00000000E+00  0.00000000E+00  0.00000000E+00
  0.00000000E+00  0.00000000E+00  0.00000000E+00
  0.00000000E+00  0.00000000E+00  0.00000000E+00
  0.00000000E+00  0.00000000E+00  0.00000000E+00
  0.00000000E+00  0.00000000E+00  0.00000000E+00
  0.00000000E+00  0.00000000E+00  0.00000000E+00
  0.00000000E+00  0.00000000E+00  0.00000000E+00
  0.00000000E+00  0.00000000E+00  0.00000000E+00
  0.00000000E+00  0.00000000E+00  0.00000000E+00
  0.00000000E+00  0.00000000E+00  0.00000000E+00
  0.00000000E+00  0.00000000E+00  0.00000000E+00
  0.00000000E+00  0.00000000E+00  0.00000000E+00
  0.00000000E+00  0.00000000E+00  0.00000000E+00
  0.00000000E+00  0.00000000E+00  0.00000000E+00
  0.00000000E+00  0.00000000E+00  0.00000000E+00
  0.00000000E+00  0.00000000E+00  0.00000000E+00
  0.00000000E+00  0.00000000E+00  0.00000000E+00
  0.00000000E+00  0.00000000E+00  0.00000000E+00
  0.00000000E+00  0.00000000E+00  0.00000000E+00
  0.00000000E+00  0.00000000E+00  0.00000000E+00
  0.00000000E+00  0.00000000E+00  0.00000000E+00
  0.00000000E+00  0.00000000E+00  0.00000000E+00
  0.00000000E+00  0.00000000E+00  0.00000000E+00
  0.00000000E+00  0.00000000E+00  0.00000000E+00
  0.00000000E+00  0.00000000E+00  0.00000000E+00
  0.00000000E+00  0.00000000E+00  0.00000000E+00
  0.00000000E+00  0.00000000E+00  0.00000000E+00
  0.00000000E+00  0.00000000E+00  0.00000000E+00
  0.00000000E+00  0.00000000E+00  0.00000000E+00
  0.00000000E+00  0.00000000E+00  0.00000000E+00
  0.00000000E+00  0.00000000E+00  0.00000000E+00
  0.00000000E+00  0.00000000E+00  0.00000000E+00
  0.00000000E+00  0.00000000E+00  0.00000000E+00
  0.00000000E+00  0.00000000E+00  0.00000000E+00
  0.00000000E+00  0.00000000E+00  0.00000000E+00
  0.00000000E+00  0.00000000E+00  0.00000000E+00
  0.00000000E+00  0.00000000E+00  0.00000000E+00
  0.00000000E+00  0.00000000E+00  0.00000000E+00
  0.00000000E+00  0.00000000E+00  0.00000000E+00
  0.00000000E+00  0.00000000E+00  0.00000000E+00
  0.00000000E+00  0.00000000E+00  0.00000000E+00
  0.00000000E+00  0.00000000E+00  0.00000000E+00
  0.00000000E+00  0.00000000E+00  0.00000000E+00
  0.00000000E+00  0.00000000E+00  0.00000000E+00
  0.00000000E+00  0.00000000E+00  0.00000000E+00
  0.00000000E+00  0.00000000E+00  0.00000000E+00
  0.00000000E+00  0.00000000E+00  0.00000000E+00
  0.00000000E+00  0.00000000E+00  0.00000000E+00
  0.00000000E+00  0.00000000E+00  0.00000000E+00
  0.00000000E+00  0.00000000E+00  0.00000000E+00
  0.00000000E+00  0.00000000E+00  0.00000000E+00
  0.00000000E+00  0.00000000E+00  0.00000000E+00
  0.00000000E+00  0.00000000E+00  0.00000000E+00
  0.00000000E+00  0.00000000E+00  0.00000000E+00
  0.00000000E+00  0.00000000E+00  0.00000000E+00
  0.00000000E+00  0.00000000E+00  0.00000000E+00
  0.00000000E+00  0.00000000E+00  0.00000000E+00
  0.00000000E+00  0.00000000E+00  0.00000000E+00
  0.00000000E+00  0.00000000E+00  0.00000000E+00
  0.00000000E+00  0.00000000E+00  0.00000000E+00
  0.00000000E+00  0.00000000E+00  0.00000000E+00
  0.00000000E+00  0.00000000E+00  0.00000000E+00
  0.00000000E+00  0.00000000E+00  0.00000000E+00
  0.00000000E+00  0.00000000E+00  0.00000000E+00
  0.00000000E+00  0.00000000E+00  0.00000000E+00
  0.00000000E+00  0.00000000E+00  0.00000000E+00
  0.00000000E+00  0.00000000E+00  0.00000000E+00
  0.00000000E+00  0.00000000E+00  0.00000000E+00
  0.00000000E+00  0.00000000E+00  0.00000000E+00
  0.00000000E+00  0.00000000E+00  0.00000000E+00
  0.00000000E+00  0.00000000E+00  0.00000000E+00
  0.00000000E+00  0.00000000E+00  0.00000000E+00
  0.00000000E+00  0.00000000E+00  0.00000000E+00
  0.00000000E+00  0.00000000E+00  0.00000000E+00
  0.00000000E+00  0.00000000E+00  0.00000000E+00
  0.00000000E+00  0.00000000E+00  0.00000000E+00
  0.00000000E+00  0.00000000E+00  0.00000000E+00
  0.00000000E+00  0.00000000E+00  0.00000000E+00
  0.00000000E+00  0.00000000E+00  0.00000000E+00
  0.00000000E+00  0.00000000E+00  0.00000000E+00
  0.00000000E+00  0.00000000E+00  0.00000000E+00
  0.00000000E+00  0.00000000E+00  0.00000000E+00
  0.00000000E+00  0.00000000E+00  0.00000000E+00
  0.00000000E+00  0.00000000E+00  0.00000000E+00
  0.00000000E+00  0.00000000E+00  0.00000000E+00
  0.00000000E+00  0.00000000E+00  0.00000000E+00
  0.00000000E+00  0.00000000E+00  0.00000000E+00
  0.00000000E+00  0.00000000E+00  0.00000000E+00
  0.00000000E+00  0.00000000E+00  0.00000000E+00
  0.00000000E+00  0.00000000E+00  0.00000000E+00
  0.00000000E+00  0.00000000E+00  0.00000000E+00
  0.00000000E+00  0.00000000E+00  0.00000000E+00
  0.00000000E+00  0.00000000E+00  0.00000000E+00
  0.00000000E+00  0.00000000E+00  0.00000000E+00
  0.00000000E+00  0.00000000E+00  0.00000000E+00
  0.00000000E+00  0.00000000E+00  0.00000000E+00
  0.00000000E+00  0.00000000E+00  0.00000000E+00
  0.00000000E+00  0.00000000E+00  0.00000000E+00
  0.00000000E+00  0.00000000E+00  0.00000000E+00
  0.00000000E+00  0.00000000E+00  0.00000000E+00
  0.00000000E+00  0.00000000E+00  0.00000000E+00
  0.00000000E+00  0.00000000E+00  0.00000000E+00
  0.00000000E+00  0.00000000E+00  0.00000000E+00
  0.00000000E+00  0.00000000E+00  0.00000000E+00
  0.00000000E+00  0.00000000E+00  0.00000000E+00
  0.00000000E+00  0.00000000E+00  0.00000000E+00
  0.00000000E+00  0.00000000E+00  0.00000000E+00
  0.00000000E+00  0.00000000E+00  0.00000000E+00
  0.00000000E+00  0.00000000E+00  0.00000000E+00
  0.00000000E+00  0.00000000E+00  0.00000000E+00
  0.00000000E+00  0.00000000E+00  0.00000000E+00
  0.00000000E+00  0.00000000E+00  0.00000000E+00
  0.00000000E+00  0.00000000E+00  0.00000000E+00
  0.00000000E+00  0.00000000E+00  0.00000000E+00
  0.00000000E+00  0.00000000E+00  0.00000000E+00
  0.00000000E+00  0.00000000E+00  0.00000000E+00
  0.00000000E+00  0.00000000E+00  0.00000000E+00
  0.00000000E+00  0.00000000E+00  0.00000000E+00
  0.00000000E+00  0.00000000E+00  0.00000000E+00
  0.00000000E+00  0.00000000E+00  0.00000000E+00
  0.00000000E+00  0.00000000E+00  0.00000000E+00
  0.00000000E+00  0.00000000E+00  0.00000000E+00
  0.00000000E+00  0.00000000E+00  0.00000000E+00
  0.00000000E+00  0.00000000E+00  0.00000000E+00
  0.00000000E+00  0.00000000E+00  0.00000000E+00
  0.00000000E+00  0.00000000E+00  0.00000000E+00
  0.00000000E+00  0.00000000E+00  0.00000000E+00
  0.00000000E+00  0.00000000E+00  0.00000000E+00
  0.00000000E+00  0.00000000E+00  0.00000000E+00
  0.00000000E+00  0.00000000E+00  0.00000000E+00
  0.00000000E+00  0.00000000E+00  0.00000000E+00
  0.00000000E+00  0.00000000E+00  0.00000000E+00
  0.00000000E+00  0.00000000E+00  0.00000000E+00
  0.00000000E+00  0.00000000E+00  0.00000000E+00
  0.00000000E+00  0.00000000E+00  0.00000000E+00
  0.00000000E+00  0.00000000E+00  0.00000000E+00
  0.00000000E+00  0.00000000E+00  0.00000000E+00
  0.00000000E+00  0.00000000E+00  0.00000000E+00
  0.00000000E+00  0.00000000E+00  0.00000000E+00
  0.00000000E+00  0.00000000E+00  0.00000000E+00
  0.00000000E+00  0.00000000E+00  0.00000000E+00
  0.00000000E+00  0.00000000E+00  0.00000000E+00
  0.00000000E+00  0.00000000E+00  0.00000000E+00
  0.00000000E+00  0.00000000E+00  0.00000000E+00
  0.00000000E+00  0.00000000E+00  0.00000000E+00
  0.00000000E+00  0.00000000E+00  0.00000000E+00
  0.00000000E+00  0.00000000E+00  0.00000000E+00
  0.00000000E+00  0.00000000E+00  0.00000000E+00
  0.00000000E+00  0.00000000E+00  0.00000000E+00
  0.00000000E+00  0.00000000E+00  0.00000000E+00
  0.00000000E+00  0.00000000E+00  0.00000000E+00
  0.00000000E+00  0.00000000E+00  0.00000000E+00
  0.00000000E+00  0.00000000E+00  0.00000000E+00
  0.00000000E+00  0.00000000E+00  0.00000000E+00
  0.00000000E+00  0.00000000E+00  0.00000000E+00
  0.00000000E+00  0.00000000E+00  0.00000000E+00
  0.00000000E+00  0.00000000E+00  0.00000000E+00
  0.00000000E+00  0.00000000E+00  0.00000000E+00
  0.00000000E+00  0.00000000E+00  0.00000000E+00
  0.00000000E+00  0.00000000E+00  0.00000000E+00
  0.00000000E+00  0.00000000E+00  0.00000000E+00
  0.00000000E+00  0.00000000E+00  0.00000000E+00
  0.00000000E+00  0.00000000E+00  0.00000000E+00
  0.00000000E+00  0.00000000E+00  0.00000000E+00
  0.00000000E+00  0.00000000E+00  0.00000000E+00
  0.00000000E+00  0.00000000E+00  0.00000000E+00
  0.00000000E+00  0.00000000E+00  0.00000000E+00
  0.00000000E+00  0.00000000E+00  0.00000000E+00
  0.00000000E+00  0.00000000E+00  0.00000000E+00
  0.00000000E+00  0.00000000E+00  0.00000000E+00
  0.00000000E+00  0.00000000E+00  0.00000000E+00
  0.00000000E+00  0.00000000E+00  0.00000000E+00
  0.00000000E+00  0.00000000E+00  0.00000000E+00
  0.00000000E+00  0.00000000E+00  0.00000000E+00
  0.00000000E+00  0.00000000E+00  0.00000000E+00
  0.00000000E+00  0.00000000E+00  0.00000000E+00
  0.00000000E+00  0.00000000E+00  0.00000000E+00
  0.00000000E+00  0.00000000E+00  0.00000000E+00
  0.00000000E+00  0.00000000E+00  0.00000000E+00
  0.00000000E+00  0.00000000E+00  0.00000000E+00
  0.00000000E+00  0.00000000E+00  0.00000000E+00
  0.00000000E+00  0.00000000E+00  0.00000000E+00
  0.00000000E+00  0.00000000E+00  0.00000000E+00
  0.00000000E+00  0.00000000E+00  0.00000000E+00
  0.00000000E+00  0.00000000E+00  0.00000000E+00
  0.00000000E+00  0.00000000E+00  0.00000000E+00
  0.00000000E+00  0.00000000E+00  0.00000000E+00
  0.00000000E+00  0.00000000E+00  0.00000000E+00
  0.00000000E+00  0.00000000E+00  0.00000000E+00
  0.00000000E+00  0.00000000E+00  0.00000000E+00
  0.00000000E+00  0.00000000E+00  0.00000000E+00
  0.00000000E+00  0.00000000E+00  0.00000000E+00
  0.00000000E+00  0.00000000E+00  0.00000000E+00
  0.00000000E+00  0.00000000E+00  0.00000000E+00
  0.00000000E+00  0.00000000E+00  0.00000000E+00
  0.00000000E+00  0.00000000E+00  0.00000000E+00
  0.00000000E+00  0.00000000E+00  0.00000000E+00
  0.00000000E+00  0.00000000E+00  0.00000000E+00
  0.00000000E+00  0.00000000E+00  0.00000000E+00
  0.00000000E+00  0.00000000E+00  0.00000000E+00
  0.00000000E+00  0.00000000E+00  0.00000000E+00
  0.00000000E+00  0.00000000E+00  0.00000000E+00
  0.00000000E+00  0.00000000E+00  0.00000000E+00
  0.00000000E+00  0.00000000E+00  0.00000000E+00
  0.00000000E+00  0.00000000E+00  0.00000000E+00
  0.00000000E+00  0.00000000E+00  0.00000000E+00
  0.00000000E+00  0.00000000E+00  0.00000000E+00
  0.00000000E+00  0.00000000E+00  0.00000000E+00
  0.00000000E+00  0.00000000E+00  0.00000000E+00
  0.00000000E+00  0.00000000E+00  0.00000000E+00
  0.00000000E+00  0.00000000E+00  0.00000000E+00
  0.00000000E+00  0.00000000E+00  0.00000000E+00
  0.00000000E+00  0.00000000E+00  0.00000000E+00
  0.00000000E+00  0.00000000E+00  0.00000000E+00
  0.00000000E+00  0.00000000E+00  0.00000000E+00
  0.00000000E+00  0.00000000E+00  0.00000000E+00
  0.00000000E+00  0.00000000E+00  0.00000000E+00
  0.00000000E+00  0.00000000E+00  0.00000000E+00
  0.00000000E+00  0.00000000E+00  0.00000000E+00
  0.00000000E+00  0.00000000E+00  0.00000000E+00
  0.00000000E+00  0.00000000E+00  0.00000000E+00
  0.00000000E+00  0.00000000E+00  0.00000000E+00
  0.00000000E+00  0.00000000E+00  0.00000000E+00
  0.00000000E+00  0.00000000E+00  0.00000000E+00
  0.00000000E+00  0.00000000E+00  0.00000000E+00
  0.00000000E+00  0.00000000E+00  0.00000000E+00
  0.00000000E+00  0.00000000E+00  0.00000000E+00
  0.00000000E+00  0.00000000E+00  0.00000000E+00
  0.00000000E+00  0.00000000E+00  0.00000000E+00
  0.00000000E+00  0.00000000E+00  0.00000000E+00
  0.00000000E+00  0.00000000E+00  0.00000000E+00
