POSCAR                                  
   1.00000000000000     
    10.3270713183355518   -0.0485740778354228   -0.1105240974310058
    -0.0486990565520014   10.2607125893187217   -0.0283027986262942
    -0.0738358004083307   -0.0190085126139569    6.9061563851580603
   Y    Zr   K    Sc   H 
     9     9     9     9   216
Direct
  0.1752049897324245  0.1673679764445208  0.2627143510194640
  0.5054912449864650  0.5024423936776562  0.2284725705698110
  0.8355778157961901  0.1643902506082474  0.2456388401861084
  0.6639919117577229  0.3320712437512429  0.4941912975166014
  0.6676862020540972  0.3327348915880652  0.9944156894671529
  0.0005040223776442  0.3344718185764292  0.5067544922216939
  0.9990330230314646  0.6742432398208567  0.5123072415009918
  0.6641441480572381  0.9933661300174822  0.9938048295680354
  0.9962769926805646  0.9971588612306383  0.5067485143159604
  0.1550824369925458  0.1674499360719340  0.7578881693175256
  0.5048217034947904  0.1642533238741355  0.7544115631375217
  0.3304831408136013  0.3271897211720270  0.0024489713066657
  0.8395327652392632  0.5054449606007734  0.2483840991228753
  0.4969621836378651  0.8230970832075828  0.7252422270326475
  0.8306054735815894  0.5010725610040475  0.7524806961858059
  0.6587647826462776  0.6669263294800027  0.9898002717126561
  0.6693588428711518  0.9996727936120211  0.4976359170670335
  0.0066158098077378  0.6659207966860722  0.0071148587177755
  0.1813010671005608  0.5043360699843266  0.2771803744817989
  0.3379284892273351  0.3443212960279631  0.5048946617209943
  0.3328790046134433  0.6611115113977929  0.4909268396451109
  0.1788646002352485  0.8418149002027396  0.7734721436898868
  0.4806243550693287  0.4952112883488520  0.7191815246370188
  0.8285103841990270  0.1666055953720470  0.7483967102057413
  0.3291596468666533  0.0022305639664879  0.4874948558042466
  0.3224479497122508  0.9850851286184789  0.9829225727365342
  0.0030959926196480  0.3357074851202925  0.0078788812797756
  0.4937300541642065  0.1529326813748456  0.2357899906239645
  0.1648584407851227  0.5092621126193554  0.7676491829977543
  0.1576948854979843  0.8317111884827959  0.2653419995420462
  0.3389633396887722  0.6757353821260885  0.0041384196621613
  0.5141024860323307  0.8368159470138614  0.2598556012640438
  0.6709486293668527  0.6642288701324889  0.4925662900139470
  0.8307850455995870  0.8315493606790919  0.2414281777367905
  0.8374319638713480  0.8313140164237266  0.7568770536535163
  0.9981854069313186  0.0030522251296281  0.0067996969450333
  0.1661713178570464  0.0784426049603777  0.0161781403353692
  0.1614540556217154  0.0849293737368013  0.5131508157152549
  0.1714767176085001  0.4207448614015706  0.0091912594280717
  0.4878777832118933  0.0744026363783650  0.9991758862415542
  0.3484247982181875  0.2465930560848406  0.2687028586064564
  0.1664156783404647  0.4199337544922400  0.5329347782491839
  0.4969500805335770  0.0856467321535321  0.4852688362295354
  0.3191542246449202  0.2526715354001505  0.7460970181664576
  0.1764459863920492  0.7538031515329756  0.0205014527270538
  0.4972205826316880  0.4165512154133679  0.9758453328498109
  0.3444754673100979  0.5889595307413559  0.2221639926311214
  0.1727198607777843  0.7602962760494600  0.5045929905279707
  0.8339432964128110  0.0774917998295723  0.9955962625729322
  0.6658598288123031  0.2481837639300603  0.2452005465022775
  0.5053831161306035  0.4155379351390143  0.4681093589629089
  0.3223939295371415  0.5811098503843222  0.7798294243442846
  0.8320375464427224  0.0819668419905793  0.4978644140644019
  0.6655148333760599  0.2510763754903657  0.7446984262736477
  0.4973960569915020  0.7499541965259920  0.9791182144192142
  0.3133160750389492  0.9139049714274244  0.2411323874129354
  0.8364588902852877  0.4184938391977742  0.9967295920030976
  0.6737212222831992  0.5878168077239524  0.2527094124024786
  0.5062943835825421  0.7469922511162891  0.4825438763317117
  0.3519317323219656  0.9166934887040747  0.7280983299643903
  0.9992909687766328  0.2551937683333553  0.2531928881308446
  0.8307118415518833  0.4179704366307249  0.5005801871335842
  0.6613647696505800  0.5805882722446603  0.7361573499706996
  0.9953474986603691  0.2550061112903405  0.7586936023607176
  0.8370266873546275  0.7480058486756750  0.9978814922393521
  0.6730456737816859  0.9125168214177155  0.2489838005366758
  0.0096846716403669  0.5874285791337575  0.2569132760572728
  0.8259597140633577  0.7518175036399334  0.5029553039213853
  0.6571212326567779  0.9122795473642756  0.7400003944641222
  0.0000223895839944  0.5829169094397004  0.7582239456649642
  0.0020453881727184  0.9143086071381186  0.2417460516408014
  0.0067006348217396  0.9174784899285909  0.7687946969399687
  0.0822620628575632  0.1688206291203891  0.0115394205195230
  0.0816211999984648  0.1672354503325752  0.5070024017684684
  0.0914954858727285  0.5017600066763855  0.0150461595506490
  0.4125966289098404  0.1564176165025547  0.9849667699516440
  0.2616603418251191  0.3332971556099996  0.2460971115653042
  0.0756528489007055  0.5066931196178996  0.5047033209734060
  0.4120636449158203  0.1696460840004765  0.5238608235435489
  0.2505446379074724  0.3181104268944913  0.7382998723082281
  0.0840386675917126  0.8342728576293489  0.0149987440625037
  0.4088277837985900  0.4967924730279688  0.9792478008307925
  0.2559968567777022  0.6868093194664191  0.2345692884222652
  0.0886253667464510  0.8357245448357780  0.5132952892022319
  0.7496878825406180  0.1610249188725791  0.9973337961207944
  0.5812633299866723  0.3275055184641643  0.2409874398535920
  0.4226101434040208  0.5068247968229600  0.4558576778221834
  0.2480335030247272  0.6733842492258887  0.7408568266125425
  0.7488180812621688  0.1652602162031341  0.4906484509951772
  0.5808109462877797  0.3415307228540685  0.7456252503839113
  0.4177608926656659  0.8337734408629457  0.0366129781019677
  0.2527781416587764  0.9792091402397854  0.2354827601847324
  0.7512057980134221  0.5072540543039264  0.9912329619744827
  0.5885459275704649  0.6727463260900411  0.2434776432435520
  0.4122171691542816  0.8320427267524572  0.4644655925206057
  0.2474279768576239  0.0207054691418618  0.7312656811573965
  0.9230117684180936  0.3333731456520173  0.2513934404585955
  0.7538792828457730  0.5005732931573774  0.4975880030453073
  0.5811794043124183  0.6594233674899139  0.7436604367437424
  0.9168013893877821  0.3381826546652926  0.7573940467738952
  0.7532314752961139  0.8269835282969361  0.9918843457604340
  0.5843697210866474  0.0007178916652996  0.2465156017062863
  0.9165187940804803  0.6759506371330267  0.2521674206534741
  0.7491951739657006  0.8338653352620657  0.5084217969489048
  0.5794847087438962  0.9914631236106592  0.7424185072742221
  0.9145162829188430  0.6671231459176009  0.7599694274521963
  0.9143593217624667  0.9911928463641136  0.2468135472417747
  0.9098773233499002  0.9969548100993437  0.7567911335810155
  0.1623252306870318  0.0024586954978088  0.1255505401326913
  0.1689800571412768  0.9958111076563212  0.6250049362442751
  0.1710549527125886  0.3383976074912932  0.1311223585637259
  0.4936150974002758  0.9900414390504698  0.1128236952756621
  0.3489266200621914  0.1770279052063710  0.3706297533037727
  0.1716476843177845  0.3363359067363258  0.6433331707562097
  0.5013540992376579  0.0048483706255498  0.6121144479263253
  0.3298269098124941  0.1604676483153459  0.8747983065294873
  0.1686742782565592  0.6680291649651312  0.1377523651684193
  0.4994984279229707  0.3228981352162777  0.1134712417023527
  0.3570711525679733  0.4976950309354706  0.3669148225340381
  0.1762853352570422  0.6685276927449931  0.6476959410011306
  0.8337327346739545  0.9923662625389154  0.1213250479018222
  0.6496280681720170  0.1653088528929517  0.3649796910300882
  0.5030555917779588  0.3161710584210519  0.6203837519025770
  0.3302687027980566  0.5143441544038759  0.8726011046822993
  0.8320401762951937  0.9894741969131271  0.6319744391885326
  0.6665034668885433  0.1609506288873276  0.8747115123262564
  0.4998685863794488  0.6855044047588235  0.1183027041405880
  0.3516334223241827  0.8327359296122747  0.3623184183696492
  0.8362511066909891  0.3405960116652119  0.1269270753943664
  0.6711467965553506  0.5059574325986048  0.3687243275682662
  0.5122804623510742  0.6625714107513913  0.6026686609382160
  0.3552424453241523  0.8205381114649173  0.8728440991823879
  0.0068974095599589  0.1655228969129487  0.3761217245934638
  0.8315530398898541  0.3381976738982941  0.6227151033016888
  0.6604614649448006  0.5037275999419816  0.8604880489266196
  0.9923283019377496  0.1607584683780061  0.8880925047017940
  0.8341987989457041  0.6696082937247197  0.1226939511787910
  0.6780765795013075  0.8266451519870520  0.3733417716439402
  0.0132325154373231  0.5036262521829818  0.3908317733343552
  0.8267874398826830  0.6705004526625826  0.6256984991937060
  0.6675202601630105  0.8279226282423972  0.8641099660443448
  0.0016595140060033  0.5031054997809640  0.8809756215223512
  0.9930523099349599  0.8353807473490688  0.3755177562890747
  0.0002678360021765  0.8352675681916469  0.8856758093623284
  0.0769528997533145  0.9993412729914251  0.2502783501128629
  0.0736406934206590  0.9923470001201833  0.7694808973222984
  0.0900326125587237  0.3391404668227355  0.2574983335001103
  0.4156753956539491  0.9921892282223460  0.2386263720333730
  0.2506658393236717  0.1736583459520621  0.5307454403703918
  0.0830731494413108  0.3497119895574187  0.7636189642509729
  0.4066772243827702  0.0057353568932458  0.7411088523011580
  0.2510613786637653  0.1568988784852025  0.9982111267310887
  0.0870330843935868  0.6648518664400396  0.2658779296737743
  0.4225021895317156  0.3213317074387818  0.2443058259296852
  0.2387122008890707  0.5012012939511896  0.5462833904027936
  0.0847840417803242  0.6730307667271381  0.7633575035142934
  0.7512576738598520  0.9942651430494032  0.2459556920420041
  0.5811641886823695  0.1607149670922365  0.4729371533402500
  0.4114325357264061  0.3176115490424964  0.7618027014647567
  0.2492826768781916  0.5178340764173548  0.0205019116024441
  0.7520195825020953  0.9873594456506815  0.7465154550562469
  0.5798961284354470  0.1641398332287846  0.0051309244637349
  0.4233876953026164  0.6847768332105828  0.2472930771618495
  0.2537999875634657  0.8275892337414776  0.5122662483012367
  0.7471408605872362  0.3300813870607106  0.2495837207589014
  0.5929068627818449  0.5057045658424842  0.4927193046141481
  0.4118716934832202  0.6667961663315974  0.7593015887992852
  0.2482003024218260  0.8198199941714057  0.0466278663781672
  0.9123343199760517  0.1654717644049401  0.5032235212110223
  0.7492866677599108  0.3355309693608677  0.7456383586854340
  0.5767513508210935  0.4977406991907382  0.9695256048092490
  0.9190632252387897  0.1637375502518711  0.9937054768325326
  0.7529496397548977  0.6723474823053562  0.2389449918908733
  0.5937397654035053  0.8316566047204922  0.4945733711432996
  0.9128553312494353  0.5029434053366117  0.5054033574161836
  0.7491044704509625  0.6706447259155531  0.7517408791605629
  0.5796467468066057  0.8281315871087196  0.9927469752655231
  0.9201926030858661  0.5019517138633408  0.0035109823427950
  0.9077570676710028  0.8345003457403281  0.4943168961664785
  0.9186672674684158  0.8341528338854141  0.0103180617618837
  0.0082187238234062  0.1642493962461831  0.1282226994384764
  0.9946348774944086  0.1654203252232644  0.6322923606478862
  0.0077094483115374  0.5028860705793727  0.1351079882012021
  0.3337366205400088  0.1576030662973341  0.1183178812111647
  0.1662861166278322  0.3310609007933996  0.3983885122367287
  0.0009743228065067  0.5061734548669486  0.6364759101131279
  0.3486936708803322  0.1719424513837861  0.6106455422266832
  0.1681179170192631  0.3407828468502976  0.8797684670349156
  0.9943462925427330  0.8334653732900745  0.1290027052834397
  0.3300960030619697  0.4994660116946040  0.1150725838977037
  0.1595836219895545  0.6783876045596611  0.3879101099993789
  0.9989152389804036  0.8357539549407602  0.6443042707414576
  0.6587377836302096  0.1614300708854854  0.1268795551289646
  0.4940715008957706  0.3116557294003481  0.3673627294955759
  0.3035787571410507  0.5066044491018979  0.6347897657766507
  0.1724090138906103  0.6714516760996129  0.8937276285170623
  0.6545436909281126  0.1646273248116093  0.6156342066785099
  0.4935256685400617  0.3329867586207404  0.8673652620003266
  0.3639256562184895  0.8342323693004722  0.1272519915016181
  0.1578408430634395  0.9953386513050537  0.3749972126837057
  0.6746142734008729  0.5049002583415352  0.1165972024515317
  0.5030532862225748  0.6775968542702784  0.3606624185751816
  0.3264274342923679  0.8322325097315584  0.6094540092666786
  0.1485879586207912  0.0112419576028051  0.8844492967193003
  0.8332124266113949  0.3429794661475414  0.3758062911645369
  0.6564543382304764  0.5077561841521270  0.6164956430379459
  0.4864882615863679  0.6595793383927387  0.8580919657549040
  0.8372173217517438  0.3376286749455926  0.8784976183998170
  0.6625798761792228  0.8269209507991344  0.1200504807270855
  0.4963028016151649  0.9990163850576281  0.3738994428897923
  0.8287867690730799  0.6726713265424996  0.3771575316865977
  0.6753600160658503  0.8229732164945729  0.6242878101277117
  0.4953774308532926  0.9901369005123981  0.8639965709596854
  0.8327708323079934  0.6691857149254973  0.8785669584357716
  0.8308277891731370  0.9870353819695032  0.3707622401424630
  0.8381723989459097  0.9937873380077961  0.8757664533792369
  0.0071492516255997  0.0780943546396588  0.2485745442399815
  0.9920680554664824  0.0832067800503971  0.7584142735320654
  0.0059705197293298  0.4230799719034457  0.2555876968376552
  0.3397287023741105  0.0728744622864471  0.2281460760360267
  0.1729768824778879  0.2588475084765943  0.5074450274108712
  0.0123322078896162  0.4186399544185415  0.7603820807102177
  0.3391321748013352  0.0796627029417739  0.7443989949301757
  0.1634588822306230  0.2514863998937634  0.0092364685738411
  0.9956119420354571  0.7530568480751904  0.2507414655920283
  0.3389342489024241  0.4178522345412449  0.2351320443601700
  0.1594150193748298  0.5881896091252006  0.5274782860724236
  0.0037488524463861  0.7569323732039691  0.7676928152679171
  0.6656409333263679  0.0793924226489976  0.2474318461367826
  0.4960021720652978  0.2464762370570647  0.4622441456949600
  0.3108984694903841  0.4185096222380194  0.7723507564578606
  0.1824515727985213  0.5829065153773513  0.0193976141217312
  0.6629243728429166  0.0783526833858556  0.7447816990927630
  0.4983096580953895  0.2457727429939202  0.0102484247083732
  0.3197420326635063  0.7510223365867342  0.2513695944557974
  0.1617682378356616  0.9221622740244060  0.5221859083403262
  0.6745022683896945  0.4190071123232365  0.2463758775077312
  0.5068401762440705  0.5854384726996517  0.4797560419359860
  0.3320962366077722  0.7427778479586633  0.7492980336797868
  0.1480351177167004  0.9151990543764643  0.0328907112717165
  0.8317141551594729  0.2488471331294463  0.4967613265029414
  0.6505669412541718  0.4186109759466186  0.7456027078884708
  0.4913378100692959  0.5840875088902028  0.9745208828531571
  0.8367443812590925  0.2517977373258650  0.9983335488938822
  0.6756684535945011  0.7517629347889153  0.2585461296089397
  0.5000209537735566  0.9233855512173581  0.4935862217111769
  0.8294932844006991  0.5901266881439506  0.5009021144373160
  0.6727532601829727  0.7506604516393796  0.7296542008197625
  0.4964964835528782  0.9129610130756034  0.9877139414783794
  0.8306206812212930  0.5889167531681156  0.9987269980626455
  0.8297431103731322  0.9117349899006768  0.5033082046550588
  0.8404791539824348  0.9100926319278009  0.9985139889824695
 
  0.00000000E+00  0.00000000E+00  0.00000000E+00
  0.00000000E+00  0.00000000E+00  0.00000000E+00
  0.00000000E+00  0.00000000E+00  0.00000000E+00
  0.00000000E+00  0.00000000E+00  0.00000000E+00
  0.00000000E+00  0.00000000E+00  0.00000000E+00
  0.00000000E+00  0.00000000E+00  0.00000000E+00
  0.00000000E+00  0.00000000E+00  0.00000000E+00
  0.00000000E+00  0.00000000E+00  0.00000000E+00
  0.00000000E+00  0.00000000E+00  0.00000000E+00
  0.00000000E+00  0.00000000E+00  0.00000000E+00
  0.00000000E+00  0.00000000E+00  0.00000000E+00
  0.00000000E+00  0.00000000E+00  0.00000000E+00
  0.00000000E+00  0.00000000E+00  0.00000000E+00
  0.00000000E+00  0.00000000E+00  0.00000000E+00
  0.00000000E+00  0.00000000E+00  0.00000000E+00
  0.00000000E+00  0.00000000E+00  0.00000000E+00
  0.00000000E+00  0.00000000E+00  0.00000000E+00
  0.00000000E+00  0.00000000E+00  0.00000000E+00
  0.00000000E+00  0.00000000E+00  0.00000000E+00
  0.00000000E+00  0.00000000E+00  0.00000000E+00
  0.00000000E+00  0.00000000E+00  0.00000000E+00
  0.00000000E+00  0.00000000E+00  0.00000000E+00
  0.00000000E+00  0.00000000E+00  0.00000000E+00
  0.00000000E+00  0.00000000E+00  0.00000000E+00
  0.00000000E+00  0.00000000E+00  0.00000000E+00
  0.00000000E+00  0.00000000E+00  0.00000000E+00
  0.00000000E+00  0.00000000E+00  0.00000000E+00
  0.00000000E+00  0.00000000E+00  0.00000000E+00
  0.00000000E+00  0.00000000E+00  0.00000000E+00
  0.00000000E+00  0.00000000E+00  0.00000000E+00
  0.00000000E+00  0.00000000E+00  0.00000000E+00
  0.00000000E+00  0.00000000E+00  0.00000000E+00
  0.00000000E+00  0.00000000E+00  0.00000000E+00
  0.00000000E+00  0.00000000E+00  0.00000000E+00
  0.00000000E+00  0.00000000E+00  0.00000000E+00
  0.00000000E+00  0.00000000E+00  0.00000000E+00
  0.00000000E+00  0.00000000E+00  0.00000000E+00
  0.00000000E+00  0.00000000E+00  0.00000000E+00
  0.00000000E+00  0.00000000E+00  0.00000000E+00
  0.00000000E+00  0.00000000E+00  0.00000000E+00
  0.00000000E+00  0.00000000E+00  0.00000000E+00
  0.00000000E+00  0.00000000E+00  0.00000000E+00
  0.00000000E+00  0.00000000E+00  0.00000000E+00
  0.00000000E+00  0.00000000E+00  0.00000000E+00
  0.00000000E+00  0.00000000E+00  0.00000000E+00
  0.00000000E+00  0.00000000E+00  0.00000000E+00
  0.00000000E+00  0.00000000E+00  0.00000000E+00
  0.00000000E+00  0.00000000E+00  0.00000000E+00
  0.00000000E+00  0.00000000E+00  0.00000000E+00
  0.00000000E+00  0.00000000E+00  0.00000000E+00
  0.00000000E+00  0.00000000E+00  0.00000000E+00
  0.00000000E+00  0.00000000E+00  0.00000000E+00
  0.00000000E+00  0.00000000E+00  0.00000000E+00
  0.00000000E+00  0.00000000E+00  0.00000000E+00
  0.00000000E+00  0.00000000E+00  0.00000000E+00
  0.00000000E+00  0.00000000E+00  0.00000000E+00
  0.00000000E+00  0.00000000E+00  0.00000000E+00
  0.00000000E+00  0.00000000E+00  0.00000000E+00
  0.00000000E+00  0.00000000E+00  0.00000000E+00
  0.00000000E+00  0.00000000E+00  0.00000000E+00
  0.00000000E+00  0.00000000E+00  0.00000000E+00
  0.00000000E+00  0.00000000E+00  0.00000000E+00
  0.00000000E+00  0.00000000E+00  0.00000000E+00
  0.00000000E+00  0.00000000E+00  0.00000000E+00
  0.00000000E+00  0.00000000E+00  0.00000000E+00
  0.00000000E+00  0.00000000E+00  0.00000000E+00
  0.00000000E+00  0.00000000E+00  0.00000000E+00
  0.00000000E+00  0.00000000E+00  0.00000000E+00
  0.00000000E+00  0.00000000E+00  0.00000000E+00
  0.00000000E+00  0.00000000E+00  0.00000000E+00
  0.00000000E+00  0.00000000E+00  0.00000000E+00
  0.00000000E+00  0.00000000E+00  0.00000000E+00
  0.00000000E+00  0.00000000E+00  0.00000000E+00
  0.00000000E+00  0.00000000E+00  0.00000000E+00
  0.00000000E+00  0.00000000E+00  0.00000000E+00
  0.00000000E+00  0.00000000E+00  0.00000000E+00
  0.00000000E+00  0.00000000E+00  0.00000000E+00
  0.00000000E+00  0.00000000E+00  0.00000000E+00
  0.00000000E+00  0.00000000E+00  0.00000000E+00
  0.00000000E+00  0.00000000E+00  0.00000000E+00
  0.00000000E+00  0.00000000E+00  0.00000000E+00
  0.00000000E+00  0.00000000E+00  0.00000000E+00
  0.00000000E+00  0.00000000E+00  0.00000000E+00
  0.00000000E+00  0.00000000E+00  0.00000000E+00
  0.00000000E+00  0.00000000E+00  0.00000000E+00
  0.00000000E+00  0.00000000E+00  0.00000000E+00
  0.00000000E+00  0.00000000E+00  0.00000000E+00
  0.00000000E+00  0.00000000E+00  0.00000000E+00
  0.00000000E+00  0.00000000E+00  0.00000000E+00
  0.00000000E+00  0.00000000E+00  0.00000000E+00
  0.00000000E+00  0.00000000E+00  0.00000000E+00
  0.00000000E+00  0.00000000E+00  0.00000000E+00
  0.00000000E+00  0.00000000E+00  0.00000000E+00
  0.00000000E+00  0.00000000E+00  0.00000000E+00
  0.00000000E+00  0.00000000E+00  0.00000000E+00
  0.00000000E+00  0.00000000E+00  0.00000000E+00
  0.00000000E+00  0.00000000E+00  0.00000000E+00
  0.00000000E+00  0.00000000E+00  0.00000000E+00
  0.00000000E+00  0.00000000E+00  0.00000000E+00
  0.00000000E+00  0.00000000E+00  0.00000000E+00
  0.00000000E+00  0.00000000E+00  0.00000000E+00
  0.00000000E+00  0.00000000E+00  0.00000000E+00
  0.00000000E+00  0.00000000E+00  0.00000000E+00
  0.00000000E+00  0.00000000E+00  0.00000000E+00
  0.00000000E+00  0.00000000E+00  0.00000000E+00
  0.00000000E+00  0.00000000E+00  0.00000000E+00
  0.00000000E+00  0.00000000E+00  0.00000000E+00
  0.00000000E+00  0.00000000E+00  0.00000000E+00
  0.00000000E+00  0.00000000E+00  0.00000000E+00
  0.00000000E+00  0.00000000E+00  0.00000000E+00
  0.00000000E+00  0.00000000E+00  0.00000000E+00
  0.00000000E+00  0.00000000E+00  0.00000000E+00
  0.00000000E+00  0.00000000E+00  0.00000000E+00
  0.00000000E+00  0.00000000E+00  0.00000000E+00
  0.00000000E+00  0.00000000E+00  0.00000000E+00
  0.00000000E+00  0.00000000E+00  0.00000000E+00
  0.00000000E+00  0.00000000E+00  0.00000000E+00
  0.00000000E+00  0.00000000E+00  0.00000000E+00
  0.00000000E+00  0.00000000E+00  0.00000000E+00
  0.00000000E+00  0.00000000E+00  0.00000000E+00
  0.00000000E+00  0.00000000E+00  0.00000000E+00
  0.00000000E+00  0.00000000E+00  0.00000000E+00
  0.00000000E+00  0.00000000E+00  0.00000000E+00
  0.00000000E+00  0.00000000E+00  0.00000000E+00
  0.00000000E+00  0.00000000E+00  0.00000000E+00
  0.00000000E+00  0.00000000E+00  0.00000000E+00
  0.00000000E+00  0.00000000E+00  0.00000000E+00
  0.00000000E+00  0.00000000E+00  0.00000000E+00
  0.00000000E+00  0.00000000E+00  0.00000000E+00
  0.00000000E+00  0.00000000E+00  0.00000000E+00
  0.00000000E+00  0.00000000E+00  0.00000000E+00
  0.00000000E+00  0.00000000E+00  0.00000000E+00
  0.00000000E+00  0.00000000E+00  0.00000000E+00
  0.00000000E+00  0.00000000E+00  0.00000000E+00
  0.00000000E+00  0.00000000E+00  0.00000000E+00
  0.00000000E+00  0.00000000E+00  0.00000000E+00
  0.00000000E+00  0.00000000E+00  0.00000000E+00
  0.00000000E+00  0.00000000E+00  0.00000000E+00
  0.00000000E+00  0.00000000E+00  0.00000000E+00
  0.00000000E+00  0.00000000E+00  0.00000000E+00
  0.00000000E+00  0.00000000E+00  0.00000000E+00
  0.00000000E+00  0.00000000E+00  0.00000000E+00
  0.00000000E+00  0.00000000E+00  0.00000000E+00
  0.00000000E+00  0.00000000E+00  0.00000000E+00
  0.00000000E+00  0.00000000E+00  0.00000000E+00
  0.00000000E+00  0.00000000E+00  0.00000000E+00
  0.00000000E+00  0.00000000E+00  0.00000000E+00
  0.00000000E+00  0.00000000E+00  0.00000000E+00
  0.00000000E+00  0.00000000E+00  0.00000000E+00
  0.00000000E+00  0.00000000E+00  0.00000000E+00
  0.00000000E+00  0.00000000E+00  0.00000000E+00
  0.00000000E+00  0.00000000E+00  0.00000000E+00
  0.00000000E+00  0.00000000E+00  0.00000000E+00
  0.00000000E+00  0.00000000E+00  0.00000000E+00
  0.00000000E+00  0.00000000E+00  0.00000000E+00
  0.00000000E+00  0.00000000E+00  0.00000000E+00
  0.00000000E+00  0.00000000E+00  0.00000000E+00
  0.00000000E+00  0.00000000E+00  0.00000000E+00
  0.00000000E+00  0.00000000E+00  0.00000000E+00
  0.00000000E+00  0.00000000E+00  0.00000000E+00
  0.00000000E+00  0.00000000E+00  0.00000000E+00
  0.00000000E+00  0.00000000E+00  0.00000000E+00
  0.00000000E+00  0.00000000E+00  0.00000000E+00
  0.00000000E+00  0.00000000E+00  0.00000000E+00
  0.00000000E+00  0.00000000E+00  0.00000000E+00
  0.00000000E+00  0.00000000E+00  0.00000000E+00
  0.00000000E+00  0.00000000E+00  0.00000000E+00
  0.00000000E+00  0.00000000E+00  0.00000000E+00
  0.00000000E+00  0.00000000E+00  0.00000000E+00
  0.00000000E+00  0.00000000E+00  0.00000000E+00
  0.00000000E+00  0.00000000E+00  0.00000000E+00
  0.00000000E+00  0.00000000E+00  0.00000000E+00
  0.00000000E+00  0.00000000E+00  0.00000000E+00
  0.00000000E+00  0.00000000E+00  0.00000000E+00
  0.00000000E+00  0.00000000E+00  0.00000000E+00
  0.00000000E+00  0.00000000E+00  0.00000000E+00
  0.00000000E+00  0.00000000E+00  0.00000000E+00
  0.00000000E+00  0.00000000E+00  0.00000000E+00
  0.00000000E+00  0.00000000E+00  0.00000000E+00
  0.00000000E+00  0.00000000E+00  0.00000000E+00
  0.00000000E+00  0.00000000E+00  0.00000000E+00
  0.00000000E+00  0.00000000E+00  0.00000000E+00
  0.00000000E+00  0.00000000E+00  0.00000000E+00
  0.00000000E+00  0.00000000E+00  0.00000000E+00
  0.00000000E+00  0.00000000E+00  0.00000000E+00
  0.00000000E+00  0.00000000E+00  0.00000000E+00
  0.00000000E+00  0.00000000E+00  0.00000000E+00
  0.00000000E+00  0.00000000E+00  0.00000000E+00
  0.00000000E+00  0.00000000E+00  0.00000000E+00
  0.00000000E+00  0.00000000E+00  0.00000000E+00
  0.00000000E+00  0.00000000E+00  0.00000000E+00
  0.00000000E+00  0.00000000E+00  0.00000000E+00
  0.00000000E+00  0.00000000E+00  0.00000000E+00
  0.00000000E+00  0.00000000E+00  0.00000000E+00
  0.00000000E+00  0.00000000E+00  0.00000000E+00
  0.00000000E+00  0.00000000E+00  0.00000000E+00
  0.00000000E+00  0.00000000E+00  0.00000000E+00
  0.00000000E+00  0.00000000E+00  0.00000000E+00
  0.00000000E+00  0.00000000E+00  0.00000000E+00
  0.00000000E+00  0.00000000E+00  0.00000000E+00
  0.00000000E+00  0.00000000E+00  0.00000000E+00
  0.00000000E+00  0.00000000E+00  0.00000000E+00
  0.00000000E+00  0.00000000E+00  0.00000000E+00
  0.00000000E+00  0.00000000E+00  0.00000000E+00
  0.00000000E+00  0.00000000E+00  0.00000000E+00
  0.00000000E+00  0.00000000E+00  0.00000000E+00
  0.00000000E+00  0.00000000E+00  0.00000000E+00
  0.00000000E+00  0.00000000E+00  0.00000000E+00
  0.00000000E+00  0.00000000E+00  0.00000000E+00
  0.00000000E+00  0.00000000E+00  0.00000000E+00
  0.00000000E+00  0.00000000E+00  0.00000000E+00
  0.00000000E+00  0.00000000E+00  0.00000000E+00
  0.00000000E+00  0.00000000E+00  0.00000000E+00
  0.00000000E+00  0.00000000E+00  0.00000000E+00
  0.00000000E+00  0.00000000E+00  0.00000000E+00
  0.00000000E+00  0.00000000E+00  0.00000000E+00
  0.00000000E+00  0.00000000E+00  0.00000000E+00
  0.00000000E+00  0.00000000E+00  0.00000000E+00
  0.00000000E+00  0.00000000E+00  0.00000000E+00
  0.00000000E+00  0.00000000E+00  0.00000000E+00
  0.00000000E+00  0.00000000E+00  0.00000000E+00
  0.00000000E+00  0.00000000E+00  0.00000000E+00
  0.00000000E+00  0.00000000E+00  0.00000000E+00
  0.00000000E+00  0.00000000E+00  0.00000000E+00
  0.00000000E+00  0.00000000E+00  0.00000000E+00
  0.00000000E+00  0.00000000E+00  0.00000000E+00
  0.00000000E+00  0.00000000E+00  0.00000000E+00
  0.00000000E+00  0.00000000E+00  0.00000000E+00
  0.00000000E+00  0.00000000E+00  0.00000000E+00
  0.00000000E+00  0.00000000E+00  0.00000000E+00
  0.00000000E+00  0.00000000E+00  0.00000000E+00
  0.00000000E+00  0.00000000E+00  0.00000000E+00
  0.00000000E+00  0.00000000E+00  0.00000000E+00
  0.00000000E+00  0.00000000E+00  0.00000000E+00
  0.00000000E+00  0.00000000E+00  0.00000000E+00
  0.00000000E+00  0.00000000E+00  0.00000000E+00
  0.00000000E+00  0.00000000E+00  0.00000000E+00
  0.00000000E+00  0.00000000E+00  0.00000000E+00
  0.00000000E+00  0.00000000E+00  0.00000000E+00
  0.00000000E+00  0.00000000E+00  0.00000000E+00
  0.00000000E+00  0.00000000E+00  0.00000000E+00
  0.00000000E+00  0.00000000E+00  0.00000000E+00
  0.00000000E+00  0.00000000E+00  0.00000000E+00
  0.00000000E+00  0.00000000E+00  0.00000000E+00
  0.00000000E+00  0.00000000E+00  0.00000000E+00
  0.00000000E+00  0.00000000E+00  0.00000000E+00
  0.00000000E+00  0.00000000E+00  0.00000000E+00
  0.00000000E+00  0.00000000E+00  0.00000000E+00
  0.00000000E+00  0.00000000E+00  0.00000000E+00
  0.00000000E+00  0.00000000E+00  0.00000000E+00
  0.00000000E+00  0.00000000E+00  0.00000000E+00
  0.00000000E+00  0.00000000E+00  0.00000000E+00
