POSCAR                                  
   1.00000000000000     
    10.3270713183355518   -0.0485740778354228   -0.1105240974310058
    -0.0486990565520014   10.2607125893187217   -0.0283027986262942
    -0.0738358004083307   -0.0190085126139569    6.9061563851580603
   Y    Zr   K    Sc   H 
     9     9     9     9   216
Direct
  0.1752049897324213  0.1673679764445239  0.2627143510194614
  0.5054912449864659  0.5024423936776543  0.2284725705698136
  0.8355778157961922  0.1643902506082497  0.2456388401861105
  0.6639919117577193  0.3320712437512441  0.4941912975166005
  0.6676862020540995  0.3327348915880677  0.9944156894671536
  0.0005040223776476  0.3344718185764322  0.5067544922216953
  0.9990330230314655  0.6742432398208535  0.5123072415009915
  0.6641441480572396  0.9933661300174847  0.9938048295680346
  0.9962769926805635  0.9971588612306377  0.5067485143159587
  0.1550824369925436  0.1674499360719324  0.7578881693175248
  0.5048217034947911  0.1642533238741350  0.7544115631375234
  0.3304831408135982  0.3271897211720258  0.0024489713066629
  0.8395327652392623  0.5054449606007765  0.2483840991228732
  0.4969621836378622  0.8230970832075855  0.7252422270326448
  0.8306054735815920  0.5010725610040510  0.7524806961858062
  0.6587647826462799  0.6669263294800061  0.9898002717126531
  0.6693588428711550  0.9996727936120209  0.4976359170670364
  0.0066158098077409  0.6659207966860734  0.0071148587177774
  0.1813010671005628  0.5043360699843262  0.2771803744818016
  0.3379284892273375  0.3443212960279638  0.5048946617209964
  0.3328790046134458  0.6611115113977917  0.4909268396451125
  0.1788646002352507  0.8418149002027420  0.7734721436898866
  0.4806243550693310  0.4952112883488553  0.7191815246370155
  0.8285103841990278  0.1666055953720473  0.7483967102057392
  0.3291596468666498  0.0022305639664850  0.4874948558042433
  0.3224479497122488  0.9850851286184792  0.9829225727365341
  0.0030959926196488  0.3357074851202952  0.0078788812797725
  0.4937300541642031  0.1529326813748426  0.2357899906239638
  0.1648584407851246  0.5092621126193535  0.7676491829977579
  0.1576948854979818  0.8317111884827995  0.2653419995420450
  0.3389633396887746  0.6757353821260921  0.0041384196621621
  0.5141024860323284  0.8368159470138608  0.2598556012640429
  0.6709486293668547  0.6642288701324901  0.4925662900139471
  0.8307850455995904  0.8315493606790909  0.2414281777367933
  0.8374319638713459  0.8313140164237254  0.7568770536535183
  0.9981854069313201  0.0030522251296290  0.0067996969450306
  0.1661713178570494  0.0784426049603795  0.0161781403353700
  0.1614540556217179  0.0849293737367987  0.5131508157152567
  0.1714767176084990  0.4207448614015732  0.0091912594280714
  0.4878777832118928  0.0744026363783661  0.9991758862415523
  0.3484247982181898  0.2465930560848406  0.2687028586064599
  0.1664156783404636  0.4199337544922415  0.5329347782491851
  0.4969500805335798  0.0856467321535348  0.4852688362295368
  0.3191542246449188  0.2526715354001539  0.7460970181664592
  0.1764459863920464  0.7538031515329777  0.0205014527270535
  0.4972205826316909  0.4165512154133708  0.9758453328498078
  0.3444754673100974  0.5889595307413558  0.2221639926311241
  0.1727198607777822  0.7602962760494592  0.5045929905279678
  0.8339432964128122  0.0774917998295734  0.9955962625729313
  0.6658598288123017  0.2481837639300579  0.2452005465022751
  0.5053831161306022  0.4155379351390138  0.4681093589629057
  0.3223939295371423  0.5811098503843226  0.7798294243442854
  0.8320375464427201  0.0819668419905781  0.4978644140644022
  0.6655148333760579  0.2510763754903635  0.7446984262736507
  0.4973960569915050  0.7499541965259908  0.9791182144192163
  0.3133160750389479  0.9139049714274279  0.2411323874129323
  0.8364588902852859  0.4184938391977724  0.9967295920030992
  0.6737212222831985  0.5878168077239536  0.2527094124024813
  0.5062943835825422  0.7469922511162892  0.4825438763317109
  0.3519317323219653  0.9166934887040767  0.7280983299643893
  0.9992909687766343  0.2551937683333563  0.2531928881308474
  0.8307118415518815  0.4179704366307249  0.5005801871335862
  0.6613647696505822  0.5805882722446611  0.7361573499706964
  0.9953474986603723  0.2550061112903421  0.7586936023607151
  0.8370266873546299  0.7480058486756747  0.9978814922393511
  0.6730456737816866  0.9125168214177179  0.2489838005366778
  0.0096846716403647  0.5874285791337570  0.2569132760572757
  0.8259597140633588  0.7518175036399342  0.5029553039213823
  0.6571212326567775  0.9122795473642782  0.7400003944641256
  0.0000223895839966  0.5829169094397031  0.7582239456649660
  0.0020453881727178  0.9143086071381177  0.2417460516408028
  0.0067006348217404  0.9174784899285910  0.7687946969399704
  0.0822620628575663  0.1688206291203898  0.0115394205195258
  0.0816211999984660  0.1672354503325764  0.5070024017684673
  0.0914954858727270  0.5017600066763848  0.0150461595506499
  0.4125966289098386  0.1564176165025515  0.9849667699516473
  0.2616603418251202  0.3332971556099977  0.2460971115653052
  0.0756528489007025  0.5066931196178999  0.5047033209734053
  0.4120636449158184  0.1696460840004761  0.5238608235435507
  0.2505446379074741  0.3181104268944921  0.7382998723082252
  0.0840386675917131  0.8342728576293510  0.0149987440625026
  0.4088277837985927  0.4967924730279663  0.9792478008307910
  0.2559968567776991  0.6868093194664198  0.2345692884222643
  0.0886253667464487  0.8357245448357773  0.5132952892022331
  0.7496878825406199  0.1610249188725774  0.9973337961207918
  0.5812633299866690  0.3275055184641644  0.2409874398535905
  0.4226101434040217  0.5068247968229613  0.4558576778221806
  0.2480335030247289  0.6733842492258901  0.7408568266125428
  0.7488180812621721  0.1652602162031371  0.4906484509951738
  0.5808109462877766  0.3415307228540669  0.7456252503839096
  0.4177608926656688  0.8337734408629487  0.0366129781019708
  0.2527781416587729  0.9792091402397887  0.2354827601847305
  0.7512057980134230  0.5072540543039281  0.9912329619744824
  0.5885459275704648  0.6727463260900421  0.2434776432435513
  0.4122171691542817  0.8320427267524551  0.4644655925206038
  0.2474279768576224  0.0207054691418591  0.7312656811573959
  0.9230117684180925  0.3333731456520184  0.2513934404585925
  0.7538792828457730  0.5005732931573803  0.4975880030453084
  0.5811794043124152  0.6594233674899144  0.7436604367437454
  0.9168013893877855  0.3381826546652960  0.7573940467738964
  0.7532314752961113  0.8269835282969353  0.9918843457604325
  0.5843697210866452  0.0007178916652961  0.2465156017062853
  0.9165187940804813  0.6759506371330275  0.2521674206534712
  0.7491951739657026  0.8338653352620682  0.5084217969489018
  0.5794847087438981  0.9914631236106572  0.7424185072742233
  0.9145162829188465  0.6671231459175999  0.7599694274521980
  0.9143593217624684  0.9911928463641146  0.2468135472417714
  0.9098773233499031  0.9969548100993464  0.7567911335810180
  0.1623252306870313  0.0024586954978076  0.1255505401326928
  0.1689800571412761  0.9958111076563227  0.6250049362442738
  0.1710549527125877  0.3383976074912951  0.1311223585637293
  0.4936150974002729  0.9900414390504721  0.1128236952756652
  0.3489266200621941  0.1770279052063728  0.3706297533037741
  0.1716476843177830  0.3363359067363234  0.6433331707562076
  0.5013540992376591  0.0048483706255524  0.6121144479263236
  0.3298269098124962  0.1604676483153469  0.8747983065294846
  0.1686742782565602  0.6680291649651338  0.1377523651684172
  0.4994984279229726  0.3228981352162776  0.1134712417023493
  0.3570711525679755  0.4976950309354677  0.3669148225340351
  0.1762853352570417  0.6685276927449948  0.6476959410011318
  0.8337327346739514  0.9923662625389156  0.1213250479018200
  0.6496280681720137  0.1653088528929487  0.3649796910300864
  0.5030555917779580  0.3161710584210553  0.6203837519025797
  0.3302687027980582  0.5143441544038794  0.8726011046822961
  0.8320401762951946  0.9894741969131289  0.6319744391885322
  0.6665034668885426  0.1609506288873277  0.8747115123262574
  0.4998685863794492  0.6855044047588237  0.1183027041405893
  0.3516334223241842  0.8327359296122765  0.3623184183696466
  0.8362511066909875  0.3405960116652125  0.1269270753943630
  0.6711467965553481  0.5059574325986063  0.3687243275682661
  0.5122804623510717  0.6625714107513900  0.6026686609382139
  0.3552424453241514  0.8205381114649200  0.8728440991823874
  0.0068974095599614  0.1655228969129467  0.3761217245934603
  0.8315530398898545  0.3381976738982928  0.6227151033016867
  0.6604614649448024  0.5037275999419819  0.8604880489266193
  0.9923283019377465  0.1607584683780061  0.8880925047017953
  0.8341987989457067  0.6696082937247212  0.1226939511787890
  0.6780765795013082  0.8266451519870515  0.3733417716439433
  0.0132325154373234  0.5036262521829826  0.3908317733343551
  0.8267874398826862  0.6705004526625800  0.6256984991937031
  0.6675202601630090  0.8279226282423977  0.8641099660443459
  0.0016595140060005  0.5031054997809647  0.8809756215223530
  0.9930523099349600  0.8353807473490704  0.3755177562890779
  0.0002678360021733  0.8352675681916466  0.8856758093623256
  0.0769528997533158  0.9993412729914226  0.2502783501128647
  0.0736406934206570  0.9923470001201835  0.7694808973222962
  0.0900326125587227  0.3391404668227338  0.2574983335001093
  0.4156753956539490  0.9921892282223439  0.2386263720333730
  0.2506658393236734  0.1736583459520631  0.5307454403703886
  0.0830731494413115  0.3497119895574201  0.7636189642509734
  0.4066772243827685  0.0057353568932470  0.7411088523011600
  0.2510613786637634  0.1568988784852010  0.9982111267310856
  0.0870330843935889  0.6648518664400385  0.2658779296737777
  0.4225021895317127  0.3213317074387803  0.2443058259296862
  0.2387122008890685  0.5012012939511905  0.5462833904027917
  0.0847840417803241  0.6730307667271376  0.7633575035142925
  0.7512576738598540  0.9942651430494038  0.2459556920420027
  0.5811641886823722  0.1607149670922396  0.4729371533402471
  0.4114325357264050  0.3176115490424962  0.7618027014647595
  0.2492826768781882  0.5178340764173583  0.0205019116024445
  0.7520195825020934  0.9873594456506822  0.7465154550562474
  0.5798961284354505  0.1641398332287878  0.0051309244637352
  0.4233876953026154  0.6847768332105844  0.2472930771618493
  0.2537999875634682  0.8275892337414774  0.5122662483012377
  0.7471408605872369  0.3300813870607087  0.2495837207588991
  0.5929068627818452  0.5057045658424855  0.4927193046141483
  0.4118716934832207  0.6667961663316007  0.7593015887992820
  0.2482003024218287  0.8198199941714037  0.0466278663781665
  0.9123343199760541  0.1654717644049413  0.5032235212110194
  0.7492866677599110  0.3355309693608675  0.7456383586854329
  0.5767513508210911  0.4977406991907358  0.9695256048092489
  0.9190632252387871  0.1637375502518736  0.9937054768325311
  0.7529496397548954  0.6723474823053550  0.2389449918908753
  0.5937397654035053  0.8316566047204930  0.4945733711432965
  0.9128553312494319  0.5029434053366089  0.5054033574161849
  0.7491044704509591  0.6706447259155510  0.7517408791605646
  0.5796467468066027  0.8281315871087216  0.9927469752655256
  0.9201926030858658  0.5019517138633418  0.0035109823427959
  0.9077570676709996  0.8345003457403308  0.4943168961664810
  0.9186672674684147  0.8341528338854118  0.0103180617618861
  0.0082187238234042  0.1642493962461842  0.1282226994384743
  0.9946348774944056  0.1654203252232662  0.6322923606478881
  0.0077094483115374  0.5028860705793718  0.1351079882011987
  0.3337366205400087  0.1576030662973338  0.1183178812111620
  0.1662861166278304  0.3310609007933962  0.3983885122367283
  0.0009743228065062  0.5061734548669463  0.6364759101131270
  0.3486936708803299  0.1719424513837851  0.6106455422266848
  0.1681179170192664  0.3407828468502956  0.8797684670349142
  0.9943462925427298  0.8334653732900748  0.1290027052834404
  0.3300960030619677  0.4994660116946008  0.1150725838977067
  0.1595836219895546  0.6783876045596600  0.3879101099993818
  0.9989152389804019  0.8357539549407633  0.6443042707414577
  0.6587377836302082  0.1614300708854870  0.1268795551289656
  0.4940715008957710  0.3116557294003499  0.3673627294955750
  0.3035787571410538  0.5066044491018999  0.6347897657766524
  0.1724090138906078  0.6714516760996148  0.8937276285170626
  0.6545436909281150  0.1646273248116117  0.6156342066785072
  0.4935256685400589  0.3329867586207413  0.8673652620003267
  0.3639256562184912  0.8342323693004730  0.1272519915016161
  0.1578408430634397  0.9953386513050546  0.3749972126837022
  0.6746142734008700  0.5049002583415358  0.1165972024515298
  0.5030532862225741  0.6775968542702770  0.3606624185751812
  0.3264274342923699  0.8322325097315613  0.6094540092666776
  0.1485879586207943  0.0112419576028060  0.8844492967193034
  0.8332124266113965  0.3429794661475398  0.3758062911645368
  0.6564543382304748  0.5077561841521288  0.6164956430379434
  0.4864882615863664  0.6595793383927386  0.8580919657549018
  0.8372173217517442  0.3376286749455915  0.8784976183998197
  0.6625798761792225  0.8269209507991349  0.1200504807270875
  0.4963028016151654  0.9990163850576295  0.3738994428897939
  0.8287867690730764  0.6726713265424991  0.3771575316865992
  0.6753600160658522  0.8229732164945744  0.6242878101277114
  0.4953774308532957  0.9901369005123968  0.8639965709596851
  0.8327708323079932  0.6691857149254972  0.8785669584357692
  0.8308277891731350  0.9870353819695055  0.3707622401424615
  0.8381723989459076  0.9937873380077988  0.8757664533792351
  0.0071492516255987  0.0780943546396600  0.2485745442399789
  0.9920680554664827  0.0832067800503964  0.7584142735320683
  0.0059705197293312  0.4230799719034479  0.2555876968376580
  0.3397287023741100  0.0728744622864497  0.2281460760360261
  0.1729768824778901  0.2588475084765918  0.5074450274108742
  0.0123322078896138  0.4186399544185448  0.7603820807102153
  0.3391321748013354  0.0796627029417749  0.7443989949301724
  0.1634588822306213  0.2514863998937642  0.0092364685738389
  0.9956119420354597  0.7530568480751896  0.2507414655920286
  0.3389342489024258  0.4178522345412432  0.2351320443601708
  0.1594150193748263  0.5881896091252017  0.5274782860724230
  0.0037488524463853  0.7569323732039663  0.7676928152679139
  0.6656409333263653  0.0793924226490006  0.2474318461367844
  0.4960021720652961  0.2464762370570668  0.4622441456949602
  0.3108984694903825  0.4185096222380196  0.7723507564578611
  0.1824515727985201  0.5829065153773527  0.0193976141217291
  0.6629243728429159  0.0783526833858588  0.7447816990927620
  0.4983096580953870  0.2457727429939212  0.0102484247083723
  0.3197420326635054  0.7510223365867361  0.2513695944557952
  0.1617682378356591  0.9221622740244086  0.5221859083403260
  0.6745022683896948  0.4190071123232357  0.2463758775077309
  0.5068401762440686  0.5854384726996500  0.4797560419359854
  0.3320962366077751  0.7427778479586635  0.7492980336797856
  0.1480351177167023  0.9151990543764654  0.0328907112717189
  0.8317141551594744  0.2488471331294448  0.4967613265029414
  0.6505669412541693  0.4186109759466206  0.7456027078884730
  0.4913378100692967  0.5840875088901996  0.9745208828531560
  0.8367443812590949  0.2517977373258660  0.9983335488938820
  0.6756684535945041  0.7517629347889141  0.2585461296089377
  0.5000209537735572  0.9233855512173577  0.4935862217111762
  0.8294932844006979  0.5901266881439540  0.5009021144373165
  0.6727532601829722  0.7506604516393764  0.7296542008197591
  0.4964964835528747  0.9129610130756021  0.9877139414783827
  0.8306206812212906  0.5889167531681139  0.9987269980626436
  0.8297431103731299  0.9117349899006797  0.5033082046550561
  0.8404791539824359  0.9100926319278031  0.9985139889824666
 
  0.00000000E+00  0.00000000E+00  0.00000000E+00
  0.00000000E+00  0.00000000E+00  0.00000000E+00
  0.00000000E+00  0.00000000E+00  0.00000000E+00
  0.00000000E+00  0.00000000E+00  0.00000000E+00
  0.00000000E+00  0.00000000E+00  0.00000000E+00
  0.00000000E+00  0.00000000E+00  0.00000000E+00
  0.00000000E+00  0.00000000E+00  0.00000000E+00
  0.00000000E+00  0.00000000E+00  0.00000000E+00
  0.00000000E+00  0.00000000E+00  0.00000000E+00
  0.00000000E+00  0.00000000E+00  0.00000000E+00
  0.00000000E+00  0.00000000E+00  0.00000000E+00
  0.00000000E+00  0.00000000E+00  0.00000000E+00
  0.00000000E+00  0.00000000E+00  0.00000000E+00
  0.00000000E+00  0.00000000E+00  0.00000000E+00
  0.00000000E+00  0.00000000E+00  0.00000000E+00
  0.00000000E+00  0.00000000E+00  0.00000000E+00
  0.00000000E+00  0.00000000E+00  0.00000000E+00
  0.00000000E+00  0.00000000E+00  0.00000000E+00
  0.00000000E+00  0.00000000E+00  0.00000000E+00
  0.00000000E+00  0.00000000E+00  0.00000000E+00
  0.00000000E+00  0.00000000E+00  0.00000000E+00
  0.00000000E+00  0.00000000E+00  0.00000000E+00
  0.00000000E+00  0.00000000E+00  0.00000000E+00
  0.00000000E+00  0.00000000E+00  0.00000000E+00
  0.00000000E+00  0.00000000E+00  0.00000000E+00
  0.00000000E+00  0.00000000E+00  0.00000000E+00
  0.00000000E+00  0.00000000E+00  0.00000000E+00
  0.00000000E+00  0.00000000E+00  0.00000000E+00
  0.00000000E+00  0.00000000E+00  0.00000000E+00
  0.00000000E+00  0.00000000E+00  0.00000000E+00
  0.00000000E+00  0.00000000E+00  0.00000000E+00
  0.00000000E+00  0.00000000E+00  0.00000000E+00
  0.00000000E+00  0.00000000E+00  0.00000000E+00
  0.00000000E+00  0.00000000E+00  0.00000000E+00
  0.00000000E+00  0.00000000E+00  0.00000000E+00
  0.00000000E+00  0.00000000E+00  0.00000000E+00
  0.00000000E+00  0.00000000E+00  0.00000000E+00
  0.00000000E+00  0.00000000E+00  0.00000000E+00
  0.00000000E+00  0.00000000E+00  0.00000000E+00
  0.00000000E+00  0.00000000E+00  0.00000000E+00
  0.00000000E+00  0.00000000E+00  0.00000000E+00
  0.00000000E+00  0.00000000E+00  0.00000000E+00
  0.00000000E+00  0.00000000E+00  0.00000000E+00
  0.00000000E+00  0.00000000E+00  0.00000000E+00
  0.00000000E+00  0.00000000E+00  0.00000000E+00
  0.00000000E+00  0.00000000E+00  0.00000000E+00
  0.00000000E+00  0.00000000E+00  0.00000000E+00
  0.00000000E+00  0.00000000E+00  0.00000000E+00
  0.00000000E+00  0.00000000E+00  0.00000000E+00
  0.00000000E+00  0.00000000E+00  0.00000000E+00
  0.00000000E+00  0.00000000E+00  0.00000000E+00
  0.00000000E+00  0.00000000E+00  0.00000000E+00
  0.00000000E+00  0.00000000E+00  0.00000000E+00
  0.00000000E+00  0.00000000E+00  0.00000000E+00
  0.00000000E+00  0.00000000E+00  0.00000000E+00
  0.00000000E+00  0.00000000E+00  0.00000000E+00
  0.00000000E+00  0.00000000E+00  0.00000000E+00
  0.00000000E+00  0.00000000E+00  0.00000000E+00
  0.00000000E+00  0.00000000E+00  0.00000000E+00
  0.00000000E+00  0.00000000E+00  0.00000000E+00
  0.00000000E+00  0.00000000E+00  0.00000000E+00
  0.00000000E+00  0.00000000E+00  0.00000000E+00
  0.00000000E+00  0.00000000E+00  0.00000000E+00
  0.00000000E+00  0.00000000E+00  0.00000000E+00
  0.00000000E+00  0.00000000E+00  0.00000000E+00
  0.00000000E+00  0.00000000E+00  0.00000000E+00
  0.00000000E+00  0.00000000E+00  0.00000000E+00
  0.00000000E+00  0.00000000E+00  0.00000000E+00
  0.00000000E+00  0.00000000E+00  0.00000000E+00
  0.00000000E+00  0.00000000E+00  0.00000000E+00
  0.00000000E+00  0.00000000E+00  0.00000000E+00
  0.00000000E+00  0.00000000E+00  0.00000000E+00
  0.00000000E+00  0.00000000E+00  0.00000000E+00
  0.00000000E+00  0.00000000E+00  0.00000000E+00
  0.00000000E+00  0.00000000E+00  0.00000000E+00
  0.00000000E+00  0.00000000E+00  0.00000000E+00
  0.00000000E+00  0.00000000E+00  0.00000000E+00
  0.00000000E+00  0.00000000E+00  0.00000000E+00
  0.00000000E+00  0.00000000E+00  0.00000000E+00
  0.00000000E+00  0.00000000E+00  0.00000000E+00
  0.00000000E+00  0.00000000E+00  0.00000000E+00
  0.00000000E+00  0.00000000E+00  0.00000000E+00
  0.00000000E+00  0.00000000E+00  0.00000000E+00
  0.00000000E+00  0.00000000E+00  0.00000000E+00
  0.00000000E+00  0.00000000E+00  0.00000000E+00
  0.00000000E+00  0.00000000E+00  0.00000000E+00
  0.00000000E+00  0.00000000E+00  0.00000000E+00
  0.00000000E+00  0.00000000E+00  0.00000000E+00
  0.00000000E+00  0.00000000E+00  0.00000000E+00
  0.00000000E+00  0.00000000E+00  0.00000000E+00
  0.00000000E+00  0.00000000E+00  0.00000000E+00
  0.00000000E+00  0.00000000E+00  0.00000000E+00
  0.00000000E+00  0.00000000E+00  0.00000000E+00
  0.00000000E+00  0.00000000E+00  0.00000000E+00
  0.00000000E+00  0.00000000E+00  0.00000000E+00
  0.00000000E+00  0.00000000E+00  0.00000000E+00
  0.00000000E+00  0.00000000E+00  0.00000000E+00
  0.00000000E+00  0.00000000E+00  0.00000000E+00
  0.00000000E+00  0.00000000E+00  0.00000000E+00
  0.00000000E+00  0.00000000E+00  0.00000000E+00
  0.00000000E+00  0.00000000E+00  0.00000000E+00
  0.00000000E+00  0.00000000E+00  0.00000000E+00
  0.00000000E+00  0.00000000E+00  0.00000000E+00
  0.00000000E+00  0.00000000E+00  0.00000000E+00
  0.00000000E+00  0.00000000E+00  0.00000000E+00
  0.00000000E+00  0.00000000E+00  0.00000000E+00
  0.00000000E+00  0.00000000E+00  0.00000000E+00
  0.00000000E+00  0.00000000E+00  0.00000000E+00
  0.00000000E+00  0.00000000E+00  0.00000000E+00
  0.00000000E+00  0.00000000E+00  0.00000000E+00
  0.00000000E+00  0.00000000E+00  0.00000000E+00
  0.00000000E+00  0.00000000E+00  0.00000000E+00
  0.00000000E+00  0.00000000E+00  0.00000000E+00
  0.00000000E+00  0.00000000E+00  0.00000000E+00
  0.00000000E+00  0.00000000E+00  0.00000000E+00
  0.00000000E+00  0.00000000E+00  0.00000000E+00
  0.00000000E+00  0.00000000E+00  0.00000000E+00
  0.00000000E+00  0.00000000E+00  0.00000000E+00
  0.00000000E+00  0.00000000E+00  0.00000000E+00
  0.00000000E+00  0.00000000E+00  0.00000000E+00
  0.00000000E+00  0.00000000E+00  0.00000000E+00
  0.00000000E+00  0.00000000E+00  0.00000000E+00
  0.00000000E+00  0.00000000E+00  0.00000000E+00
  0.00000000E+00  0.00000000E+00  0.00000000E+00
  0.00000000E+00  0.00000000E+00  0.00000000E+00
  0.00000000E+00  0.00000000E+00  0.00000000E+00
  0.00000000E+00  0.00000000E+00  0.00000000E+00
  0.00000000E+00  0.00000000E+00  0.00000000E+00
  0.00000000E+00  0.00000000E+00  0.00000000E+00
  0.00000000E+00  0.00000000E+00  0.00000000E+00
  0.00000000E+00  0.00000000E+00  0.00000000E+00
  0.00000000E+00  0.00000000E+00  0.00000000E+00
  0.00000000E+00  0.00000000E+00  0.00000000E+00
  0.00000000E+00  0.00000000E+00  0.00000000E+00
  0.00000000E+00  0.00000000E+00  0.00000000E+00
  0.00000000E+00  0.00000000E+00  0.00000000E+00
  0.00000000E+00  0.00000000E+00  0.00000000E+00
  0.00000000E+00  0.00000000E+00  0.00000000E+00
  0.00000000E+00  0.00000000E+00  0.00000000E+00
  0.00000000E+00  0.00000000E+00  0.00000000E+00
  0.00000000E+00  0.00000000E+00  0.00000000E+00
  0.00000000E+00  0.00000000E+00  0.00000000E+00
  0.00000000E+00  0.00000000E+00  0.00000000E+00
  0.00000000E+00  0.00000000E+00  0.00000000E+00
  0.00000000E+00  0.00000000E+00  0.00000000E+00
  0.00000000E+00  0.00000000E+00  0.00000000E+00
  0.00000000E+00  0.00000000E+00  0.00000000E+00
  0.00000000E+00  0.00000000E+00  0.00000000E+00
  0.00000000E+00  0.00000000E+00  0.00000000E+00
  0.00000000E+00  0.00000000E+00  0.00000000E+00
  0.00000000E+00  0.00000000E+00  0.00000000E+00
  0.00000000E+00  0.00000000E+00  0.00000000E+00
  0.00000000E+00  0.00000000E+00  0.00000000E+00
  0.00000000E+00  0.00000000E+00  0.00000000E+00
  0.00000000E+00  0.00000000E+00  0.00000000E+00
  0.00000000E+00  0.00000000E+00  0.00000000E+00
  0.00000000E+00  0.00000000E+00  0.00000000E+00
  0.00000000E+00  0.00000000E+00  0.00000000E+00
  0.00000000E+00  0.00000000E+00  0.00000000E+00
  0.00000000E+00  0.00000000E+00  0.00000000E+00
  0.00000000E+00  0.00000000E+00  0.00000000E+00
  0.00000000E+00  0.00000000E+00  0.00000000E+00
  0.00000000E+00  0.00000000E+00  0.00000000E+00
  0.00000000E+00  0.00000000E+00  0.00000000E+00
  0.00000000E+00  0.00000000E+00  0.00000000E+00
  0.00000000E+00  0.00000000E+00  0.00000000E+00
  0.00000000E+00  0.00000000E+00  0.00000000E+00
  0.00000000E+00  0.00000000E+00  0.00000000E+00
  0.00000000E+00  0.00000000E+00  0.00000000E+00
  0.00000000E+00  0.00000000E+00  0.00000000E+00
  0.00000000E+00  0.00000000E+00  0.00000000E+00
  0.00000000E+00  0.00000000E+00  0.00000000E+00
  0.00000000E+00  0.00000000E+00  0.00000000E+00
  0.00000000E+00  0.00000000E+00  0.00000000E+00
  0.00000000E+00  0.00000000E+00  0.00000000E+00
  0.00000000E+00  0.00000000E+00  0.00000000E+00
  0.00000000E+00  0.00000000E+00  0.00000000E+00
  0.00000000E+00  0.00000000E+00  0.00000000E+00
  0.00000000E+00  0.00000000E+00  0.00000000E+00
  0.00000000E+00  0.00000000E+00  0.00000000E+00
  0.00000000E+00  0.00000000E+00  0.00000000E+00
  0.00000000E+00  0.00000000E+00  0.00000000E+00
  0.00000000E+00  0.00000000E+00  0.00000000E+00
  0.00000000E+00  0.00000000E+00  0.00000000E+00
  0.00000000E+00  0.00000000E+00  0.00000000E+00
  0.00000000E+00  0.00000000E+00  0.00000000E+00
  0.00000000E+00  0.00000000E+00  0.00000000E+00
  0.00000000E+00  0.00000000E+00  0.00000000E+00
  0.00000000E+00  0.00000000E+00  0.00000000E+00
  0.00000000E+00  0.00000000E+00  0.00000000E+00
  0.00000000E+00  0.00000000E+00  0.00000000E+00
  0.00000000E+00  0.00000000E+00  0.00000000E+00
  0.00000000E+00  0.00000000E+00  0.00000000E+00
  0.00000000E+00  0.00000000E+00  0.00000000E+00
  0.00000000E+00  0.00000000E+00  0.00000000E+00
  0.00000000E+00  0.00000000E+00  0.00000000E+00
  0.00000000E+00  0.00000000E+00  0.00000000E+00
  0.00000000E+00  0.00000000E+00  0.00000000E+00
  0.00000000E+00  0.00000000E+00  0.00000000E+00
  0.00000000E+00  0.00000000E+00  0.00000000E+00
  0.00000000E+00  0.00000000E+00  0.00000000E+00
  0.00000000E+00  0.00000000E+00  0.00000000E+00
  0.00000000E+00  0.00000000E+00  0.00000000E+00
  0.00000000E+00  0.00000000E+00  0.00000000E+00
  0.00000000E+00  0.00000000E+00  0.00000000E+00
  0.00000000E+00  0.00000000E+00  0.00000000E+00
  0.00000000E+00  0.00000000E+00  0.00000000E+00
  0.00000000E+00  0.00000000E+00  0.00000000E+00
  0.00000000E+00  0.00000000E+00  0.00000000E+00
  0.00000000E+00  0.00000000E+00  0.00000000E+00
  0.00000000E+00  0.00000000E+00  0.00000000E+00
  0.00000000E+00  0.00000000E+00  0.00000000E+00
  0.00000000E+00  0.00000000E+00  0.00000000E+00
  0.00000000E+00  0.00000000E+00  0.00000000E+00
  0.00000000E+00  0.00000000E+00  0.00000000E+00
  0.00000000E+00  0.00000000E+00  0.00000000E+00
  0.00000000E+00  0.00000000E+00  0.00000000E+00
  0.00000000E+00  0.00000000E+00  0.00000000E+00
  0.00000000E+00  0.00000000E+00  0.00000000E+00
  0.00000000E+00  0.00000000E+00  0.00000000E+00
  0.00000000E+00  0.00000000E+00  0.00000000E+00
  0.00000000E+00  0.00000000E+00  0.00000000E+00
  0.00000000E+00  0.00000000E+00  0.00000000E+00
  0.00000000E+00  0.00000000E+00  0.00000000E+00
  0.00000000E+00  0.00000000E+00  0.00000000E+00
  0.00000000E+00  0.00000000E+00  0.00000000E+00
  0.00000000E+00  0.00000000E+00  0.00000000E+00
  0.00000000E+00  0.00000000E+00  0.00000000E+00
  0.00000000E+00  0.00000000E+00  0.00000000E+00
  0.00000000E+00  0.00000000E+00  0.00000000E+00
  0.00000000E+00  0.00000000E+00  0.00000000E+00
  0.00000000E+00  0.00000000E+00  0.00000000E+00
  0.00000000E+00  0.00000000E+00  0.00000000E+00
  0.00000000E+00  0.00000000E+00  0.00000000E+00
  0.00000000E+00  0.00000000E+00  0.00000000E+00
  0.00000000E+00  0.00000000E+00  0.00000000E+00
  0.00000000E+00  0.00000000E+00  0.00000000E+00
  0.00000000E+00  0.00000000E+00  0.00000000E+00
  0.00000000E+00  0.00000000E+00  0.00000000E+00
  0.00000000E+00  0.00000000E+00  0.00000000E+00
  0.00000000E+00  0.00000000E+00  0.00000000E+00
  0.00000000E+00  0.00000000E+00  0.00000000E+00
  0.00000000E+00  0.00000000E+00  0.00000000E+00
  0.00000000E+00  0.00000000E+00  0.00000000E+00
  0.00000000E+00  0.00000000E+00  0.00000000E+00
  0.00000000E+00  0.00000000E+00  0.00000000E+00
  0.00000000E+00  0.00000000E+00  0.00000000E+00
  0.00000000E+00  0.00000000E+00  0.00000000E+00
  0.00000000E+00  0.00000000E+00  0.00000000E+00
  0.00000000E+00  0.00000000E+00  0.00000000E+00
  0.00000000E+00  0.00000000E+00  0.00000000E+00
  0.00000000E+00  0.00000000E+00  0.00000000E+00
