POSCAR                                  
   1.00000000000000     
    10.3269874928895504   -0.0493950613978812   -0.1103210990192273
    -0.0495023144731040   10.2599194573439849   -0.0267726755589329
    -0.0736957193819299   -0.0179717224251192    6.9059084045715124
   Y    Zr   K    Sc   H 
     9     9     9     9   216
Direct
  0.1753200342239916  0.1670945999339703  0.2625118804425604
  0.5055658293094130  0.5022226777733232  0.2284046873172781
  0.8357673871679226  0.1642114797454164  0.2455911416393146
  0.6640496173614223  0.3320185556445364  0.4940727566820377
  0.6679483581123040  0.3328281527869622  0.9942781383035776
  0.0005674157993617  0.3345365332242528  0.5067091937010212
  0.9989515048245601  0.6742813425763692  0.5121214430847267
  0.6641279450130946  0.9933678609985336  0.9940865949014220
  0.9963125010099256  0.9973636093188094  0.5069622399557598
  0.1549008047047027  0.1674902813655519  0.7581690928477846
  0.5051213208627785  0.1642319076229200  0.7543633931993535
  0.3304421699012388  0.3269669637462224  0.0024013225667202
  0.8395114973666876  0.5056299911640021  0.2483981422468025
  0.4969318403103900  0.8231018475476594  0.7250545930061396
  0.8305849846696610  0.5012348615413220  0.7524279738637158
  0.6586083223836929  0.6670070350773111  0.9897642898877945
  0.6693387345229385 -0.0002773306775670  0.4975296481691622
  0.0066069793038983  0.6660948921505502  0.0072721223467696
  0.1812716949662284  0.5042486637678489  0.2771811457481302
  0.3380322747395228  0.3444059411638889  0.5051459040604928
  0.3325911636148632  0.6609665959435710  0.4905942049203875
  0.1788918403678301  0.8417701735535430  0.7732190075730619
  0.4805352492549615  0.4951248773749884  0.7193400904504542
  0.8285053542427969  0.1666781112575616  0.7483204919906621
  0.3291794758901679  0.0021843321364875  0.4876574370192605
  0.3223733338427136  0.9850292255855084  0.9827732541575420
  0.0031426074477202  0.3357884679158010  0.0077701322614490
  0.4937232808127501  0.1533429416276876  0.2356012708790460
  0.1648453473595119  0.5092674675437173  0.7678577154682028
  0.1580098021723034  0.8319900567939960  0.2654551926587204
  0.3391796217387689  0.6755760077890244  0.0040092316980011
  0.5140068915529312  0.8367521065976509  0.2597582528386952
  0.6707989785908762  0.6643927079042499  0.4927903299143272
  0.8305096120589301  0.8315179895613776  0.2415108164328234
  0.8374222303816514  0.8313588606337404  0.7569595725731113
  0.9980521791453240  0.0028626020572845  0.0068286601140832
  0.1658296796879912  0.0785224741464558  0.0152797358630984
  0.1614700651146862  0.0850591370513503  0.5135631486237863
  0.1716940305838967  0.4206795456580322  0.0092179888008212
  0.4879280876884974  0.0742977348881939  0.9993659868979925
  0.3482638454602681  0.2465245597127231  0.2689303943368063
  0.1664308635013604  0.4199937377969359  0.5331268736506642
  0.4970370739745745  0.0854565581416185  0.4845651594501644
  0.3189448788003870  0.2524183971691131  0.7462142271062082
  0.1766852689770652  0.7537567188894603  0.0203281719654835
  0.4971722515731785  0.4161597781879515  0.9761018154768413
  0.3445285736715155  0.5887630782424308  0.2220427817214414
  0.1725528654088591  0.7604125944816449  0.5049061867966883
  0.8339355442041142  0.0772400763321772  0.9954779305658624
  0.6669976054440816  0.2487129726243933  0.2452068371285350
  0.5054793902643552  0.4155373677866215  0.4684217831450297
  0.3223244443254944  0.5810170724182330  0.7799128053263457
  0.8319996924041480  0.0818487889472281  0.4979568525180280
  0.6654970104846509  0.2510007183218204  0.7447182954274914
  0.4973707154373467  0.7499441284046023  0.9788470461481765
  0.3139918028414121  0.9140796597139469  0.2411842849139044
  0.8366893680659234  0.4183198320774763  0.9961220381815533
  0.6737107297875032  0.5876838852092870  0.2527412110442682
  0.5059719427253561  0.7467722328472339  0.4824002250039421
  0.3519733703388894  0.9164716358224230  0.7280936514780164
  0.9989528234963321  0.2556014246202593  0.2532665070648867
  0.8307682173952419  0.4179706270465698  0.5008675610977568
  0.6613455609997907  0.5805135369255527  0.7361829080146847
  0.9951460329250004  0.2550702952607466  0.7587014746501645
  0.8368161930450688  0.7480455611757044  0.9975815659379749
  0.6727452970152878  0.9126374792427034  0.2492203239401157
  0.0094733417333297  0.5874848058093577  0.2567216541863542
  0.8259847660668235  0.7520213918889646  0.5027277575199162
  0.6571272588729784  0.9123629402464658  0.7403108692208965
  0.0000068189833979  0.5829765977509284  0.7581918340099104
  0.0021996419197760  0.9141215242806244  0.2421676156600125
  0.0067532895081039  0.9174544206264319  0.7688441001817571
  0.0820671522414481  0.1688036622069475  0.0120081443506814
  0.0816573054109772  0.1674465032784790  0.5068115564641607
  0.0913553165946546  0.5019187724331402  0.0154526199224012
  0.4126470733614505  0.1561284101313135  0.9842462492374171
  0.2617234617943956  0.3332225282123748  0.2461864732890397
  0.0755608251860293  0.5067566587063003  0.5042851460328475
  0.4119955954907287  0.1697628275008144  0.5242162059780201
  0.2504346766049564  0.3180240703590421  0.7382690078881451
  0.0842496655797841  0.8340839482506976  0.0151681197509936
  0.4088697936462928  0.4967567247860676  0.9793555246210992
  0.2559969769437053  0.6866343382907187  0.2339751986596838
  0.0886207592689297  0.8358399297153619  0.5132265074581462
  0.7496745313119101  0.1610937684586979  0.9973887201209881
  0.5812604028733940  0.3274065824854878  0.2409337295182055
  0.4226564159561885  0.5070701044033209  0.4558117441143824
  0.2479241111886495  0.6731922053616610  0.7405473476918645
  0.7488865861759363  0.1652782031571068  0.4906161037001068
  0.5807952748938501  0.3415057588050810  0.7456203667334096
  0.4176177718381555  0.8338175327858868  0.0367107485307595
  0.2529288374901490  0.9796376696482325  0.2354079429490173
  0.7513071478912313  0.5072745056428060  0.9915654982360437
  0.5884597515656412  0.6726281895359486  0.2438382223230106
  0.4120927015807117  0.8319166981736851  0.4640849201049867
  0.2474089341011944  0.0209525392638900  0.7313280265461740
  0.9236348433101030  0.3329095705685653  0.2514018029940174
  0.7539013016399871  0.5004775533532291  0.4971273652364858
  0.5813350356813355  0.6593841381616138  0.7432615741993189
  0.9168563386816159  0.3382192905996691  0.7573878440848817
  0.7531154065432957  0.8270853646389410  0.9919953023218799
  0.5843010744334667  0.0008964892279721  0.2467369782419531
  0.9165063234242051  0.6765214171670912  0.2520654424272319
  0.7491822148277372  0.8339785331927499  0.5085235080000055
  0.5796068274382485  0.9913209204399116  0.7425471498475110
  0.9145044364845750  0.6671567468441171  0.7599970882051694
  0.9142401698045353  0.9909648659059328  0.2472288196420358
  0.9097346970433197  0.9970146986269646  0.7566524937254894
  0.1622052789320790  0.0015826905223218  0.1261270277009889
  0.1690353290444065  0.9963750627760232  0.6254812010375895
  0.1707343801458765  0.3383101095702275  0.1317121328456656
  0.4935584905123780  0.9902401736246099  0.1126434680387317
  0.3489519771915571  0.1770804773781155  0.3707668581956129
  0.1717043039431672  0.3360318162192872  0.6433994880997173
  0.5014414304351731  0.0046389194731404  0.6120547567781506
  0.3300345907357440  0.1603755145641143  0.8746564676108221
  0.1684390674766038  0.6681331008885303  0.1379117624180210
  0.4995875199179116  0.3225147011375080  0.1131196446531457
  0.3570640341182683  0.4975324937545310  0.3667082797911836
  0.1764199949585026  0.6683555272581062  0.6475604084185755
  0.8338081161093451  0.9921750661556448  0.1214538196614642
  0.6493845680878908  0.1654582595533760  0.3650430072920988
  0.5032411845480210  0.3162139006279090  0.6204150732011483
  0.3302380134188217  0.5142356272264003  0.8728114383402177
  0.8320258828431349  0.9893793055591446  0.6324047710089586
  0.6667380539932752  0.1609503110004302  0.8748923501338546
  0.4997202088435663  0.6854040320551367  0.1180885005466554
  0.3514969902631936  0.8326655826718203  0.3622939266578949
  0.8363031667264904  0.3407817907226554  0.1271872798844990
  0.6710526442399084  0.5061654882678710  0.3689176087721863
  0.5119242001382618  0.6625966001277438  0.6025091504427313
  0.3552289392482850  0.8203656533040128  0.8725949263934630
  0.0071688040276045  0.1657037034240953  0.3760423569365973
  0.8315529898107301  0.3382306145915019  0.6223475543012756
  0.6604262316075085  0.5037633831020376  0.8601565957496310
  0.9920743392476518  0.1607286503581173  0.8881805539653387
  0.8340032521270280  0.6697486285508518  0.1228443556456435
  0.6781320825211380  0.8266568426045791  0.3735357299158011
  0.0135928469868178  0.5035917625729971  0.3910688217121564
  0.8267413094995915  0.6708018117277178  0.6256071082358193
  0.6674769888152429  0.8281022977194215  0.8642077035237732
  0.0014990444227413  0.5033066599232754  0.8806342875464094
  0.9925974286778746  0.8356661523438064  0.3758623016963291
  0.0004273383055502  0.8350923760924709  0.8854747711293975
  0.0768260961517950 -0.0005778667528702  0.2503676435342930
  0.0735615160916723  0.9920973948536068  0.7693398970375310
  0.0906393424943592  0.3386205341701974  0.2571865265650540
  0.4157014008459503  0.9923423774804374  0.2388448659449890
  0.2506882069693251  0.1736440186278078  0.5311421068653659
  0.0829447266522406  0.3498503649059453  0.7635419895649218
  0.4067596937013859  0.0060936846648487  0.7409630578258458
  0.2510076140900486  0.1566987709444625  0.9980203254639601
  0.0876001352142653  0.6650457369391950  0.2664449724475415
  0.4224576286892092  0.3215108717949295  0.2442690152039043
  0.2386311979457829  0.5010138631912778  0.5465007698140107
  0.0846283550683811  0.6727849393565508  0.7632493376364811
  0.7510877724820326  0.9944826233538677  0.2462425599646777
  0.5809515488602555  0.1608939696570952  0.4732046130300648
  0.4114266353427871  0.3172920402920744  0.7619476902481652
  0.2492788137106738  0.5180883536477391  0.0209465902945369
  0.7520048453708679  0.9875284406916582  0.7465591549543911
  0.5801070162350334  0.1642844573554297  0.0047843898187319
  0.4234017493790189  0.6845280214440380  0.2471961590339170
  0.2538330154771923  0.8275228546610205  0.5123496646662220
  0.7470524401617590  0.3297515402252205  0.2495247708924901
  0.5928743537940679  0.5057133289898053  0.4927704150953377
  0.4119407662186332  0.6667101898731298  0.7588893404360464
  0.2483234322507326  0.8196232917226872  0.0463568956961726
  0.9123585620760523  0.1656603543659505  0.5033788872918782
  0.7493753459061286  0.3356962054346277  0.7455394160347922
  0.5770227756828645  0.4977935663688701  0.9695522514552130
  0.9188109335080802  0.1640984935857951  0.9935373196657650
  0.7528685101658701  0.6722924184605549  0.2390040539563136
  0.5935870861640599  0.8316890303839293  0.4946227828240528
  0.9127145313750392  0.5028937571393551  0.5049343071742591
  0.7490612409056204  0.6708345983585410  0.7516171439721850
  0.5794580220564225  0.8282415288609468  0.9930794658240930
  0.9200300101923953  0.5019479916479808  0.0037821126411904
  0.9080548018961342  0.8345366621507624  0.4934774994547582
  0.9189150359889559  0.8339352663570591  0.0110615522648416
  0.0082926243098843  0.1641296217282989  0.1282187406109688
  0.9946151706343607  0.1656327922140151  0.6320207618859045
  0.0078200092976027  0.5029870623918540  0.1343310695881218
  0.3338174486713268  0.1576769739423068  0.1183096549547914
  0.1664666327905505  0.3307927064149259  0.3986677648505543
  0.0009474325219272  0.5063376731652607  0.6367987944929346
  0.3487808565345266  0.1719535664753265  0.6107809371610091
  0.1681074681820939  0.3405408083001141  0.8798009763061703
  0.9942742492923232  0.8337589488335132  0.1290157999996291
  0.3303238986976260  0.4988104979569347  0.1150919963836747
  0.1593909102992412  0.6783259516191813  0.3875468604384482
  0.9988263306689423  0.8357352539164261  0.6439368320719425
  0.6586753963159420  0.1615919077978500  0.1269847642419979
  0.4940034874191671  0.3117800825874232  0.3674418015046192
  0.3034658899339924  0.5067409874928429  0.6348907004747524
  0.1725661162988833  0.6716227809715926  0.8939221977469037
  0.6547545127213874  0.1646116466317722  0.6154893714419964
  0.4937897170402210  0.3328738759085929  0.8671637682422122
  0.3636981333136229  0.8340152125406313  0.1272402746855875
  0.1578562559632592  0.9953445376619992  0.3751771068035577
  0.6746649772970735  0.5050769228419680  0.1165473600557351
  0.5027031926976357  0.6775006197177739  0.3604584015763273
  0.3265156027385411  0.8319066474489598  0.6094023017975050
  0.1484473512527826  0.0110243972586123  0.8849053094497414
  0.8334099421680179  0.3430876816568206  0.3754362086057317
  0.6562699954155785  0.5077190295182201  0.6163384686258825
  0.4864356003915150  0.6597133776343495  0.8580911542502455
  0.8372996881593261  0.3378698033157126  0.8785357957830991
  0.6627535794379041  0.8268769053064696  0.1203727067899080
  0.4959060911851730 -0.0007911728334067  0.3736990976790704
  0.8287352231779702  0.6726129910681629  0.3770012713300723
  0.6756444844289685  0.8233386644515408  0.6242771567280646
  0.4954733486474210  0.9896933404773161  0.8641461105273666
  0.8326520093391285  0.6694557351529433  0.8787588956982999
  0.8309385647557636  0.9868455732873758  0.3707803598521583
  0.8380332657445446  0.9938140050804039  0.8761126431431066
  0.0070386844214102  0.0780516403630279  0.2484122251789766
  0.9919444221061970  0.0832431752555555  0.7587513612410512
  0.0052594905843241  0.4234734455260653  0.2557425715601450
  0.3399675032491430  0.0728900639542946  0.2279090169985860
  0.1731629259861083  0.2588971264761575  0.5072808005254811
  0.0124161009652206  0.4185841758485663  0.7602913025009277
  0.3396160361073531  0.0794060421829201  0.7443896402420392
  0.1635162224593398  0.2514836384791822  0.0095987883927365
  0.9964349632033835  0.7532117729973685  0.2506805736116891
  0.3388671873608872  0.4178160854963651  0.2351570150048605
  0.1591772188542993  0.5880837346899216  0.5277317599059572
  0.0036797467260039  0.7572478510429475  0.7677197541388154
  0.6652542815757111  0.0798352677974190  0.2472522177956204
  0.4958545289838203  0.2464458629643584  0.4619839318623622
  0.3107647478641354  0.4184455977706650  0.7725120953591770
  0.1826709025696184  0.5828045182042487  0.0192634703665334
  0.6630719398758089  0.0783799486375006  0.7450224994252397
  0.4983295704403267  0.2457835434206380  0.0101512255196734
  0.3196437595369073  0.7507536506828274  0.2510775968953007
  0.1617742845850024  0.9222146248096673  0.5218015222132174
  0.6748297679165504  0.4190543383067380  0.2463319656393653
  0.5065610056909136  0.5852831240917752  0.4797508860581472
  0.3322884030455885  0.7426357931598300  0.7489478671000340
  0.1479551212300238  0.9152183978097307  0.0326179960464157
  0.8317831747966246  0.2487656819610260  0.4965671664154339
  0.6504473162021123  0.4185831863793682  0.7454541556189451
  0.4913962468505574  0.5838069225368280  0.9745851935960320
  0.8369567679155265  0.2512971963989191  0.9984272515615243
  0.6753480147959192  0.7516855513902713  0.2586705072153503
  0.5000359369093881  0.9234219289063090  0.4931581074377321
  0.8291596669246879  0.5903587663011411  0.5014470942272824
  0.6725721224705290  0.7508704937687203  0.7298255180198793
  0.4963793283716655  0.9130324154522299  0.9875666681083973
  0.8307186341902935  0.5890121621733734  0.9983243719019246
  0.8297722483504412  0.9120271623406174  0.5042036752726611
  0.8403438220462078  0.9100915390217810  0.9983732972653470
 
  0.00000000E+00  0.00000000E+00  0.00000000E+00
  0.00000000E+00  0.00000000E+00  0.00000000E+00
  0.00000000E+00  0.00000000E+00  0.00000000E+00
  0.00000000E+00  0.00000000E+00  0.00000000E+00
  0.00000000E+00  0.00000000E+00  0.00000000E+00
  0.00000000E+00  0.00000000E+00  0.00000000E+00
  0.00000000E+00  0.00000000E+00  0.00000000E+00
  0.00000000E+00  0.00000000E+00  0.00000000E+00
  0.00000000E+00  0.00000000E+00  0.00000000E+00
  0.00000000E+00  0.00000000E+00  0.00000000E+00
  0.00000000E+00  0.00000000E+00  0.00000000E+00
  0.00000000E+00  0.00000000E+00  0.00000000E+00
  0.00000000E+00  0.00000000E+00  0.00000000E+00
  0.00000000E+00  0.00000000E+00  0.00000000E+00
  0.00000000E+00  0.00000000E+00  0.00000000E+00
  0.00000000E+00  0.00000000E+00  0.00000000E+00
  0.00000000E+00  0.00000000E+00  0.00000000E+00
  0.00000000E+00  0.00000000E+00  0.00000000E+00
  0.00000000E+00  0.00000000E+00  0.00000000E+00
  0.00000000E+00  0.00000000E+00  0.00000000E+00
  0.00000000E+00  0.00000000E+00  0.00000000E+00
  0.00000000E+00  0.00000000E+00  0.00000000E+00
  0.00000000E+00  0.00000000E+00  0.00000000E+00
  0.00000000E+00  0.00000000E+00  0.00000000E+00
  0.00000000E+00  0.00000000E+00  0.00000000E+00
  0.00000000E+00  0.00000000E+00  0.00000000E+00
  0.00000000E+00  0.00000000E+00  0.00000000E+00
  0.00000000E+00  0.00000000E+00  0.00000000E+00
  0.00000000E+00  0.00000000E+00  0.00000000E+00
  0.00000000E+00  0.00000000E+00  0.00000000E+00
  0.00000000E+00  0.00000000E+00  0.00000000E+00
  0.00000000E+00  0.00000000E+00  0.00000000E+00
  0.00000000E+00  0.00000000E+00  0.00000000E+00
  0.00000000E+00  0.00000000E+00  0.00000000E+00
  0.00000000E+00  0.00000000E+00  0.00000000E+00
  0.00000000E+00  0.00000000E+00  0.00000000E+00
  0.00000000E+00  0.00000000E+00  0.00000000E+00
  0.00000000E+00  0.00000000E+00  0.00000000E+00
  0.00000000E+00  0.00000000E+00  0.00000000E+00
  0.00000000E+00  0.00000000E+00  0.00000000E+00
  0.00000000E+00  0.00000000E+00  0.00000000E+00
  0.00000000E+00  0.00000000E+00  0.00000000E+00
  0.00000000E+00  0.00000000E+00  0.00000000E+00
  0.00000000E+00  0.00000000E+00  0.00000000E+00
  0.00000000E+00  0.00000000E+00  0.00000000E+00
  0.00000000E+00  0.00000000E+00  0.00000000E+00
  0.00000000E+00  0.00000000E+00  0.00000000E+00
  0.00000000E+00  0.00000000E+00  0.00000000E+00
  0.00000000E+00  0.00000000E+00  0.00000000E+00
  0.00000000E+00  0.00000000E+00  0.00000000E+00
  0.00000000E+00  0.00000000E+00  0.00000000E+00
  0.00000000E+00  0.00000000E+00  0.00000000E+00
  0.00000000E+00  0.00000000E+00  0.00000000E+00
  0.00000000E+00  0.00000000E+00  0.00000000E+00
  0.00000000E+00  0.00000000E+00  0.00000000E+00
  0.00000000E+00  0.00000000E+00  0.00000000E+00
  0.00000000E+00  0.00000000E+00  0.00000000E+00
  0.00000000E+00  0.00000000E+00  0.00000000E+00
  0.00000000E+00  0.00000000E+00  0.00000000E+00
  0.00000000E+00  0.00000000E+00  0.00000000E+00
  0.00000000E+00  0.00000000E+00  0.00000000E+00
  0.00000000E+00  0.00000000E+00  0.00000000E+00
  0.00000000E+00  0.00000000E+00  0.00000000E+00
  0.00000000E+00  0.00000000E+00  0.00000000E+00
  0.00000000E+00  0.00000000E+00  0.00000000E+00
  0.00000000E+00  0.00000000E+00  0.00000000E+00
  0.00000000E+00  0.00000000E+00  0.00000000E+00
  0.00000000E+00  0.00000000E+00  0.00000000E+00
  0.00000000E+00  0.00000000E+00  0.00000000E+00
  0.00000000E+00  0.00000000E+00  0.00000000E+00
  0.00000000E+00  0.00000000E+00  0.00000000E+00
  0.00000000E+00  0.00000000E+00  0.00000000E+00
  0.00000000E+00  0.00000000E+00  0.00000000E+00
  0.00000000E+00  0.00000000E+00  0.00000000E+00
  0.00000000E+00  0.00000000E+00  0.00000000E+00
  0.00000000E+00  0.00000000E+00  0.00000000E+00
  0.00000000E+00  0.00000000E+00  0.00000000E+00
  0.00000000E+00  0.00000000E+00  0.00000000E+00
  0.00000000E+00  0.00000000E+00  0.00000000E+00
  0.00000000E+00  0.00000000E+00  0.00000000E+00
  0.00000000E+00  0.00000000E+00  0.00000000E+00
  0.00000000E+00  0.00000000E+00  0.00000000E+00
  0.00000000E+00  0.00000000E+00  0.00000000E+00
  0.00000000E+00  0.00000000E+00  0.00000000E+00
  0.00000000E+00  0.00000000E+00  0.00000000E+00
  0.00000000E+00  0.00000000E+00  0.00000000E+00
  0.00000000E+00  0.00000000E+00  0.00000000E+00
  0.00000000E+00  0.00000000E+00  0.00000000E+00
  0.00000000E+00  0.00000000E+00  0.00000000E+00
  0.00000000E+00  0.00000000E+00  0.00000000E+00
  0.00000000E+00  0.00000000E+00  0.00000000E+00
  0.00000000E+00  0.00000000E+00  0.00000000E+00
  0.00000000E+00  0.00000000E+00  0.00000000E+00
  0.00000000E+00  0.00000000E+00  0.00000000E+00
  0.00000000E+00  0.00000000E+00  0.00000000E+00
  0.00000000E+00  0.00000000E+00  0.00000000E+00
  0.00000000E+00  0.00000000E+00  0.00000000E+00
  0.00000000E+00  0.00000000E+00  0.00000000E+00
  0.00000000E+00  0.00000000E+00  0.00000000E+00
  0.00000000E+00  0.00000000E+00  0.00000000E+00
  0.00000000E+00  0.00000000E+00  0.00000000E+00
  0.00000000E+00  0.00000000E+00  0.00000000E+00
  0.00000000E+00  0.00000000E+00  0.00000000E+00
  0.00000000E+00  0.00000000E+00  0.00000000E+00
  0.00000000E+00  0.00000000E+00  0.00000000E+00
  0.00000000E+00  0.00000000E+00  0.00000000E+00
  0.00000000E+00  0.00000000E+00  0.00000000E+00
  0.00000000E+00  0.00000000E+00  0.00000000E+00
  0.00000000E+00  0.00000000E+00  0.00000000E+00
  0.00000000E+00  0.00000000E+00  0.00000000E+00
  0.00000000E+00  0.00000000E+00  0.00000000E+00
  0.00000000E+00  0.00000000E+00  0.00000000E+00
  0.00000000E+00  0.00000000E+00  0.00000000E+00
  0.00000000E+00  0.00000000E+00  0.00000000E+00
  0.00000000E+00  0.00000000E+00  0.00000000E+00
  0.00000000E+00  0.00000000E+00  0.00000000E+00
  0.00000000E+00  0.00000000E+00  0.00000000E+00
  0.00000000E+00  0.00000000E+00  0.00000000E+00
  0.00000000E+00  0.00000000E+00  0.00000000E+00
  0.00000000E+00  0.00000000E+00  0.00000000E+00
  0.00000000E+00  0.00000000E+00  0.00000000E+00
  0.00000000E+00  0.00000000E+00  0.00000000E+00
  0.00000000E+00  0.00000000E+00  0.00000000E+00
  0.00000000E+00  0.00000000E+00  0.00000000E+00
  0.00000000E+00  0.00000000E+00  0.00000000E+00
  0.00000000E+00  0.00000000E+00  0.00000000E+00
  0.00000000E+00  0.00000000E+00  0.00000000E+00
  0.00000000E+00  0.00000000E+00  0.00000000E+00
  0.00000000E+00  0.00000000E+00  0.00000000E+00
  0.00000000E+00  0.00000000E+00  0.00000000E+00
  0.00000000E+00  0.00000000E+00  0.00000000E+00
  0.00000000E+00  0.00000000E+00  0.00000000E+00
  0.00000000E+00  0.00000000E+00  0.00000000E+00
  0.00000000E+00  0.00000000E+00  0.00000000E+00
  0.00000000E+00  0.00000000E+00  0.00000000E+00
  0.00000000E+00  0.00000000E+00  0.00000000E+00
  0.00000000E+00  0.00000000E+00  0.00000000E+00
  0.00000000E+00  0.00000000E+00  0.00000000E+00
  0.00000000E+00  0.00000000E+00  0.00000000E+00
  0.00000000E+00  0.00000000E+00  0.00000000E+00
  0.00000000E+00  0.00000000E+00  0.00000000E+00
  0.00000000E+00  0.00000000E+00  0.00000000E+00
  0.00000000E+00  0.00000000E+00  0.00000000E+00
  0.00000000E+00  0.00000000E+00  0.00000000E+00
  0.00000000E+00  0.00000000E+00  0.00000000E+00
  0.00000000E+00  0.00000000E+00  0.00000000E+00
  0.00000000E+00  0.00000000E+00  0.00000000E+00
  0.00000000E+00  0.00000000E+00  0.00000000E+00
  0.00000000E+00  0.00000000E+00  0.00000000E+00
  0.00000000E+00  0.00000000E+00  0.00000000E+00
  0.00000000E+00  0.00000000E+00  0.00000000E+00
  0.00000000E+00  0.00000000E+00  0.00000000E+00
  0.00000000E+00  0.00000000E+00  0.00000000E+00
  0.00000000E+00  0.00000000E+00  0.00000000E+00
  0.00000000E+00  0.00000000E+00  0.00000000E+00
  0.00000000E+00  0.00000000E+00  0.00000000E+00
  0.00000000E+00  0.00000000E+00  0.00000000E+00
  0.00000000E+00  0.00000000E+00  0.00000000E+00
  0.00000000E+00  0.00000000E+00  0.00000000E+00
  0.00000000E+00  0.00000000E+00  0.00000000E+00
  0.00000000E+00  0.00000000E+00  0.00000000E+00
  0.00000000E+00  0.00000000E+00  0.00000000E+00
  0.00000000E+00  0.00000000E+00  0.00000000E+00
  0.00000000E+00  0.00000000E+00  0.00000000E+00
  0.00000000E+00  0.00000000E+00  0.00000000E+00
  0.00000000E+00  0.00000000E+00  0.00000000E+00
  0.00000000E+00  0.00000000E+00  0.00000000E+00
  0.00000000E+00  0.00000000E+00  0.00000000E+00
  0.00000000E+00  0.00000000E+00  0.00000000E+00
  0.00000000E+00  0.00000000E+00  0.00000000E+00
  0.00000000E+00  0.00000000E+00  0.00000000E+00
  0.00000000E+00  0.00000000E+00  0.00000000E+00
  0.00000000E+00  0.00000000E+00  0.00000000E+00
  0.00000000E+00  0.00000000E+00  0.00000000E+00
  0.00000000E+00  0.00000000E+00  0.00000000E+00
  0.00000000E+00  0.00000000E+00  0.00000000E+00
  0.00000000E+00  0.00000000E+00  0.00000000E+00
  0.00000000E+00  0.00000000E+00  0.00000000E+00
  0.00000000E+00  0.00000000E+00  0.00000000E+00
  0.00000000E+00  0.00000000E+00  0.00000000E+00
  0.00000000E+00  0.00000000E+00  0.00000000E+00
  0.00000000E+00  0.00000000E+00  0.00000000E+00
  0.00000000E+00  0.00000000E+00  0.00000000E+00
  0.00000000E+00  0.00000000E+00  0.00000000E+00
  0.00000000E+00  0.00000000E+00  0.00000000E+00
  0.00000000E+00  0.00000000E+00  0.00000000E+00
  0.00000000E+00  0.00000000E+00  0.00000000E+00
  0.00000000E+00  0.00000000E+00  0.00000000E+00
  0.00000000E+00  0.00000000E+00  0.00000000E+00
  0.00000000E+00  0.00000000E+00  0.00000000E+00
  0.00000000E+00  0.00000000E+00  0.00000000E+00
  0.00000000E+00  0.00000000E+00  0.00000000E+00
  0.00000000E+00  0.00000000E+00  0.00000000E+00
  0.00000000E+00  0.00000000E+00  0.00000000E+00
  0.00000000E+00  0.00000000E+00  0.00000000E+00
  0.00000000E+00  0.00000000E+00  0.00000000E+00
  0.00000000E+00  0.00000000E+00  0.00000000E+00
  0.00000000E+00  0.00000000E+00  0.00000000E+00
  0.00000000E+00  0.00000000E+00  0.00000000E+00
  0.00000000E+00  0.00000000E+00  0.00000000E+00
  0.00000000E+00  0.00000000E+00  0.00000000E+00
  0.00000000E+00  0.00000000E+00  0.00000000E+00
  0.00000000E+00  0.00000000E+00  0.00000000E+00
  0.00000000E+00  0.00000000E+00  0.00000000E+00
  0.00000000E+00  0.00000000E+00  0.00000000E+00
  0.00000000E+00  0.00000000E+00  0.00000000E+00
  0.00000000E+00  0.00000000E+00  0.00000000E+00
  0.00000000E+00  0.00000000E+00  0.00000000E+00
  0.00000000E+00  0.00000000E+00  0.00000000E+00
  0.00000000E+00  0.00000000E+00  0.00000000E+00
  0.00000000E+00  0.00000000E+00  0.00000000E+00
  0.00000000E+00  0.00000000E+00  0.00000000E+00
  0.00000000E+00  0.00000000E+00  0.00000000E+00
  0.00000000E+00  0.00000000E+00  0.00000000E+00
  0.00000000E+00  0.00000000E+00  0.00000000E+00
  0.00000000E+00  0.00000000E+00  0.00000000E+00
  0.00000000E+00  0.00000000E+00  0.00000000E+00
  0.00000000E+00  0.00000000E+00  0.00000000E+00
  0.00000000E+00  0.00000000E+00  0.00000000E+00
  0.00000000E+00  0.00000000E+00  0.00000000E+00
  0.00000000E+00  0.00000000E+00  0.00000000E+00
  0.00000000E+00  0.00000000E+00  0.00000000E+00
  0.00000000E+00  0.00000000E+00  0.00000000E+00
  0.00000000E+00  0.00000000E+00  0.00000000E+00
  0.00000000E+00  0.00000000E+00  0.00000000E+00
  0.00000000E+00  0.00000000E+00  0.00000000E+00
  0.00000000E+00  0.00000000E+00  0.00000000E+00
  0.00000000E+00  0.00000000E+00  0.00000000E+00
  0.00000000E+00  0.00000000E+00  0.00000000E+00
  0.00000000E+00  0.00000000E+00  0.00000000E+00
  0.00000000E+00  0.00000000E+00  0.00000000E+00
  0.00000000E+00  0.00000000E+00  0.00000000E+00
  0.00000000E+00  0.00000000E+00  0.00000000E+00
  0.00000000E+00  0.00000000E+00  0.00000000E+00
  0.00000000E+00  0.00000000E+00  0.00000000E+00
  0.00000000E+00  0.00000000E+00  0.00000000E+00
  0.00000000E+00  0.00000000E+00  0.00000000E+00
  0.00000000E+00  0.00000000E+00  0.00000000E+00
  0.00000000E+00  0.00000000E+00  0.00000000E+00
  0.00000000E+00  0.00000000E+00  0.00000000E+00
  0.00000000E+00  0.00000000E+00  0.00000000E+00
  0.00000000E+00  0.00000000E+00  0.00000000E+00
  0.00000000E+00  0.00000000E+00  0.00000000E+00
  0.00000000E+00  0.00000000E+00  0.00000000E+00
  0.00000000E+00  0.00000000E+00  0.00000000E+00
  0.00000000E+00  0.00000000E+00  0.00000000E+00
  0.00000000E+00  0.00000000E+00  0.00000000E+00
  0.00000000E+00  0.00000000E+00  0.00000000E+00
  0.00000000E+00  0.00000000E+00  0.00000000E+00
  0.00000000E+00  0.00000000E+00  0.00000000E+00
  0.00000000E+00  0.00000000E+00  0.00000000E+00
  0.00000000E+00  0.00000000E+00  0.00000000E+00
