       N       E                     dE             d eps       ncg     rms          rms(c)
DAV:   1     0.106250538900E+05    0.10625E+05   -0.27148E+05 17616   0.170E+03
DAV:   2     0.124912608255E+04   -0.93759E+04   -0.87555E+04 24032   0.780E+02
DAV:   3    -0.483046469434E+03   -0.17322E+04   -0.16018E+04 29408   0.354E+02
DAV:   4    -0.735413805836E+03   -0.25237E+03   -0.24087E+03 32528   0.176E+02
DAV:   5    -0.765233625654E+03   -0.29820E+02   -0.28769E+02 32528   0.699E+01    0.295E+02
DAV:   6    -0.641535902754E+03    0.12370E+03   -0.23127E+02 30184   0.577E+01    0.174E+02
DAV:   7    -0.649982077384E+03   -0.84462E+01   -0.26592E+02 29136   0.561E+01    0.585E+01
DAV:   8    -0.644794693130E+03    0.51874E+01   -0.69672E+01 28288   0.437E+01    0.216E+01
DAV:   9    -0.642340773176E+03    0.24539E+01   -0.25137E+01 30000   0.264E+01    0.909E+00
DAV:  10    -0.641884625480E+03    0.45615E+00   -0.76321E+00 30384   0.108E+01    0.952E+00
DAV:  11    -0.641911960834E+03   -0.27335E-01   -0.15244E+00 30868   0.484E+00    0.722E+00
DAV:  12    -0.641881544830E+03    0.30416E-01   -0.36352E-01 30408   0.260E+00    0.387E+00
DAV:  13    -0.641859992234E+03    0.21553E-01   -0.26395E-01 28288   0.185E+00    0.242E+00
DAV:  14    -0.641850847562E+03    0.91447E-02   -0.67029E-02 27624   0.137E+00    0.936E-01
DAV:  15    -0.641851680310E+03   -0.83275E-03   -0.15495E-02 29248   0.383E-01    0.608E-01
DAV:  16    -0.641851083642E+03    0.59667E-03   -0.33338E-03 28280   0.231E-01    0.164E-01
DAV:  17    -0.641851159398E+03   -0.75756E-04   -0.12146E-03 31072   0.103E-01    0.220E-01
DAV:  18    -0.641851095375E+03    0.64023E-04   -0.40472E-04 28720   0.891E-02    0.626E-02
DAV:  19    -0.641851099169E+03   -0.37943E-05   -0.11503E-04 31592   0.317E-02    0.391E-02
DAV:  20    -0.641851098567E+03    0.60207E-06   -0.17980E-05 27352   0.205E-02    0.167E-02
DAV:  21    -0.641851097728E+03    0.83935E-06   -0.23344E-06 17064   0.682E-03
   1 F= 0.27152094E+03 E0= 0.27151921E+03  d E =0.271521E+03
