opt                                     
           1
    10.327071   -0.048574   -0.110524
    -0.048699   10.260713   -0.028303
    -0.073836   -0.019009    6.906156
   Y    Zr   K    Sc   H 
   9   9   9   9 216
Direct configuration=     1
   0.17520499  0.16736798  0.26271435
   0.50549124  0.50244239  0.22847257
   0.83557782  0.16439025  0.24563884
   0.66399191  0.33207124  0.49419130
   0.66768620  0.33273489  0.99441569
   0.00050402  0.33447182  0.50675449
   0.99903302  0.67424324  0.51230724
   0.66414415  0.99336613  0.99380483
   0.99627699  0.99715886  0.50674851
   0.15508244  0.16744994  0.75788817
   0.50482170  0.16425332  0.75441156
   0.33048314  0.32718972  0.00244897
   0.83953277  0.50544496  0.24838410
   0.49696218  0.82309708  0.72524223
   0.83060547  0.50107256  0.75248070
   0.65876478  0.66692633  0.98980027
   0.66935884  0.99967279  0.49763592
   0.00661581  0.66592080  0.00711486
   0.18130107  0.50433607  0.27718037
   0.33792849  0.34432130  0.50489466
   0.33287900  0.66111151  0.49092684
   0.17886460  0.84181490  0.77347214
   0.48062436  0.49521129  0.71918152
   0.82851038  0.16660560  0.74839671
   0.32915965  0.00223056  0.48749486
   0.32244795  0.98508513  0.98292257
   0.00309599  0.33570749  0.00787888
   0.49373005  0.15293268  0.23578999
   0.16485844  0.50926211  0.76764918
   0.15769489  0.83171119  0.26534200
   0.33896334  0.67573538  0.00413842
   0.51410249  0.83681595  0.25985560
   0.67094863  0.66422887  0.49256629
   0.83078505  0.83154936  0.24142818
   0.83743196  0.83131402  0.75687705
   0.99818541  0.00305223  0.00679970
   0.16617132  0.07844260  0.01617814
   0.16145406  0.08492937  0.51315082
   0.17147672  0.42074486  0.00919126
   0.48787778  0.07440264  0.99917589
   0.34842480  0.24659306  0.26870286
   0.16641568  0.41993375  0.53293478
   0.49695008  0.08564673  0.48526884
   0.31915422  0.25267154  0.74609702
   0.17644599  0.75380315  0.02050145
   0.49722058  0.41655122  0.97584533
   0.34447547  0.58895953  0.22216399
   0.17271986  0.76029628  0.50459299
   0.83394330  0.07749180  0.99559626
   0.66585983  0.24818376  0.24520055
   0.50538312  0.41553794  0.46810936
   0.32239393  0.58110985  0.77982942
   0.83203755  0.08196684  0.49786441
   0.66551483  0.25107638  0.74469843
   0.49739606  0.74995420  0.97911821
   0.31331608  0.91390497  0.24113239
   0.83645889  0.41849384  0.99672959
   0.67372122  0.58781681  0.25270941
   0.50629438  0.74699225  0.48254388
   0.35193173  0.91669349  0.72809833
   0.99929097  0.25519377  0.25319289
   0.83071184  0.41797044  0.50058019
   0.66136477  0.58058827  0.73615735
   0.99534750  0.25500611  0.75869360
   0.83702669  0.74800585  0.99788149
   0.67304567  0.91251682  0.24898380
   0.00968467  0.58742858  0.25691328
   0.82595971  0.75181750  0.50295530
   0.65712123  0.91227955  0.74000039
   0.00002239  0.58291691  0.75822395
   0.00204539  0.91430861  0.24174605
   0.00670063  0.91747849  0.76879470
   0.08226206  0.16882063  0.01153942
   0.08162120  0.16723545  0.50700240
   0.09149549  0.50176001  0.01504616
   0.41259663  0.15641762  0.98496677
   0.26166034  0.33329716  0.24609711
   0.07565285  0.50669312  0.50470332
   0.41206364  0.16964608  0.52386082
   0.25054464  0.31811043  0.73829987
   0.08403867  0.83427286  0.01499874
   0.40882778  0.49679247  0.97924780
   0.25599686  0.68680932  0.23456929
   0.08862537  0.83572454  0.51329529
   0.74968788  0.16102492  0.99733380
   0.58126333  0.32750552  0.24098744
   0.42261014  0.50682480  0.45585768
   0.24803350  0.67338425  0.74085683
   0.74881808  0.16526022  0.49064845
   0.58081095  0.34153072  0.74562525
   0.41776089  0.83377344  0.03661298
   0.25277814  0.97920914  0.23548276
   0.75120580  0.50725405  0.99123296
   0.58854593  0.67274633  0.24347764
   0.41221717  0.83204273  0.46446559
   0.24742798  0.02070547  0.73126568
   0.92301177  0.33337315  0.25139344
   0.75387928  0.50057329  0.49758800
   0.58117940  0.65942337  0.74366044
   0.91680139  0.33818265  0.75739405
   0.75323148  0.82698353  0.99188435
   0.58436972  0.00071789  0.24651560
   0.91651879  0.67595064  0.25216742
   0.74919517  0.83386534  0.50842180
   0.57948471  0.99146312  0.74241851
   0.91451628  0.66712315  0.75996943
   0.91435932  0.99119285  0.24681355
   0.90987732  0.99695481  0.75679113
   0.16232523  0.00245870  0.12555054
   0.16898006  0.99581111  0.62500494
   0.17105495  0.33839761  0.13112236
   0.49361510  0.99004144  0.11282370
   0.34892662  0.17702791  0.37062975
   0.17164768  0.33633591  0.64333317
   0.50135410  0.00484837  0.61211445
   0.32982691  0.16046765  0.87479831
   0.16867428  0.66802916  0.13775237
   0.49949843  0.32289814  0.11347124
   0.35707115  0.49769503  0.36691482
   0.17628534  0.66852769  0.64769594
   0.83373273  0.99236626  0.12132505
   0.64962807  0.16530885  0.36497969
   0.50305559  0.31617106  0.62038375
   0.33026870  0.51434415  0.87260110
   0.83204018  0.98947420  0.63197444
   0.66650347  0.16095063  0.87471151
   0.49986859  0.68550440  0.11830270
   0.35163342  0.83273593  0.36231842
   0.83625111  0.34059601  0.12692708
   0.67114680  0.50595743  0.36872433
   0.51228046  0.66257141  0.60266866
   0.35524245  0.82053811  0.87284410
   0.00689741  0.16552290  0.37612172
   0.83155304  0.33819767  0.62271510
   0.66046146  0.50372760  0.86048805
   0.99232830  0.16075847  0.88809250
   0.83419880  0.66960829  0.12269395
   0.67807658  0.82664515  0.37334177
   0.01323252  0.50362625  0.39083177
   0.82678744  0.67050045  0.62569850
   0.66752026  0.82792263  0.86410997
   0.00165951  0.50310550  0.88097562
   0.99305231  0.83538075  0.37551776
   0.00026784  0.83526757  0.88567581
   0.07695290  0.99934127  0.25027835
   0.07364069  0.99234700  0.76948090
   0.09003261  0.33914047  0.25749833
   0.41567540  0.99218923  0.23862637
   0.25066584  0.17365835  0.53074544
   0.08307315  0.34971199  0.76361896
   0.40667722  0.00573536  0.74110885
   0.25106138  0.15689888  0.99821113
   0.08703308  0.66485187  0.26587793
   0.42250219  0.32133171  0.24430583
   0.23871220  0.50120129  0.54628339
   0.08478404  0.67303077  0.76335750
   0.75125767  0.99426514  0.24595569
   0.58116419  0.16071497  0.47293715
   0.41143254  0.31761155  0.76180270
   0.24928268  0.51783408  0.02050191
   0.75201958  0.98735945  0.74651546
   0.57989613  0.16413983  0.00513092
   0.42338770  0.68477683  0.24729308
   0.25379999  0.82758923  0.51226625
   0.74714086  0.33008139  0.24958372
   0.59290686  0.50570457  0.49271930
   0.41187169  0.66679617  0.75930159
   0.24820030  0.81981999  0.04662787
   0.91233432  0.16547176  0.50322352
   0.74928667  0.33553097  0.74563836
   0.57675135  0.49774070  0.96952560
   0.91906323  0.16373755  0.99370548
   0.75294964  0.67234748  0.23894499
   0.59373977  0.83165660  0.49457337
   0.91285533  0.50294341  0.50540336
   0.74910447  0.67064473  0.75174088
   0.57964675  0.82813159  0.99274698
   0.92019260  0.50195171  0.00351098
   0.90775707  0.83450035  0.49431690
   0.91866727  0.83415283  0.01031806
   0.00821872  0.16424940  0.12822270
   0.99463488  0.16542033  0.63229236
   0.00770945  0.50288607  0.13510799
   0.33373662  0.15760307  0.11831788
   0.16628612  0.33106090  0.39838851
   0.00097432  0.50617345  0.63647591
   0.34869367  0.17194245  0.61064554
   0.16811792  0.34078285  0.87976847
   0.99434629  0.83346537  0.12900271
   0.33009600  0.49946601  0.11507258
   0.15958362  0.67838760  0.38791011
   0.99891524  0.83575395  0.64430427
   0.65873778  0.16143007  0.12687956
   0.49407150  0.31165573  0.36736273
   0.30357876  0.50660445  0.63478977
   0.17240901  0.67145168  0.89372763
   0.65454369  0.16462732  0.61563421
   0.49352567  0.33298676  0.86736526
   0.36392566  0.83423237  0.12725199
   0.15784084  0.99533865  0.37499721
   0.67461427  0.50490026  0.11659720
   0.50305329  0.67759685  0.36066242
   0.32642743  0.83223251  0.60945401
   0.14858796  0.01124196  0.88444930
   0.83321243  0.34297947  0.37580629
   0.65645434  0.50775618  0.61649564
   0.48648826  0.65957934  0.85809197
   0.83721732  0.33762867  0.87849762
   0.66257988  0.82692095  0.12005048
   0.49630280  0.99901639  0.37389944
   0.82878677  0.67267133  0.37715753
   0.67536002  0.82297322  0.62428781
   0.49537743  0.99013690  0.86399657
   0.83277083  0.66918571  0.87856696
   0.83082779  0.98703538  0.37076224
   0.83817240  0.99378734  0.87576645
   0.00714925  0.07809435  0.24857454
   0.99206806  0.08320678  0.75841427
   0.00597052  0.42307997  0.25558770
   0.33972870  0.07287446  0.22814608
   0.17297688  0.25884751  0.50744503
   0.01233221  0.41863995  0.76038208
   0.33913217  0.07966270  0.74439899
   0.16345888  0.25148640  0.00923647
   0.99561194  0.75305685  0.25074147
   0.33893425  0.41785223  0.23513204
   0.15941502  0.58818961  0.52747829
   0.00374885  0.75693237  0.76769282
   0.66564093  0.07939242  0.24743185
   0.49600217  0.24647624  0.46224415
   0.31089847  0.41850962  0.77235076
   0.18245157  0.58290652  0.01939761
   0.66292437  0.07835268  0.74478170
   0.49830966  0.24577274  0.01024842
   0.31974203  0.75102234  0.25136959
   0.16176824  0.92216227  0.52218591
   0.67450227  0.41900711  0.24637588
   0.50684018  0.58543847  0.47975604
   0.33209624  0.74277785  0.74929803
   0.14803512  0.91519905  0.03289071
   0.83171416  0.24884713  0.49676133
   0.65056694  0.41861098  0.74560271
   0.49133781  0.58408751  0.97452088
   0.83674438  0.25179774  0.99833355
   0.67566845  0.75176293  0.25854613
   0.50002095  0.92338555  0.49358622
   0.82949328  0.59012669  0.50090211
   0.67275326  0.75066045  0.72965420
   0.49649648  0.91296101  0.98771394
   0.83062068  0.58891675  0.99872700
   0.82974311  0.91173499  0.50330820
   0.84047915  0.91009263  0.99851399
