generated by phonopy                    
   1.00000000000000     
     0.0000000000000000    3.3511719276644261    3.3511719276644811
     3.3511719276644474    0.0000000000000000    3.3511719276644811
     3.3511719276644474    3.3511719276644261    0.0000000000000000
   Ca   Y    Sc   Zr   H 
     1     1     1     1    24
Direct
  0.2500000000000000  0.2500000000000000  0.2500000000000000
  0.7500000000000000  0.7500000000000000  0.7500000000000000
  0.0000000000000000  0.0000000000000000  0.0000000000000000
  0.5000000000000000  0.5000000000000000  0.5000000000000000
  0.1223970591993293  0.8864477363845822  0.6240655745446446
  0.8864477363845822  0.1223970591993293  0.3670896298714510
  0.6240655745446446  0.3670896298714510  0.1223970591993293
  0.3670896298714510  0.6240655745446446  0.8864477363845822
  0.6240655745446446  0.1223970591993293  0.8864477363845822
  0.3670896298714510  0.8864477363845822  0.1223970591993293
  0.1223970591993293  0.6240655745446446  0.3670896298714510
  0.8864477363845822  0.3670896298714510  0.6240655745446446
  0.8864477363845822  0.6240655745446446  0.1223970591993293
  0.1223970591993293  0.3670896298714510  0.8864477363845822
  0.3670896298714510  0.1223970591993293  0.6240655745446446
  0.6240655745446446  0.8864477363845822  0.3670896298714510
  0.1223970591993293  0.3670896298714510  0.6240655745446446
  0.3670896298714510  0.1223970591993293  0.8864477363845822
  0.6240655745446446  0.8864477363845822  0.1223970591993293
  0.8864477363845822  0.6240655745446446  0.3670896298714510
  0.6240655745446446  0.1223970591993293  0.3670896298714510
  0.8864477363845822  0.3670896298714510  0.1223970591993293
  0.1223970591993293  0.6240655745446446  0.8864477363845822
  0.3670896298714510  0.8864477363845822  0.6240655745446446
  0.3670896298714510  0.6240655745446446  0.1223970591993293
  0.1223970591993293  0.8864477363845822  0.3670896298714510
  0.8864477363845822  0.1223970591993293  0.6240655745446446
  0.6240655745446446  0.3670896298714510  0.8864477363845822
 
  0.00000000E+00  0.00000000E+00  0.00000000E+00
  0.00000000E+00  0.00000000E+00  0.00000000E+00
  0.00000000E+00  0.00000000E+00  0.00000000E+00
  0.00000000E+00  0.00000000E+00  0.00000000E+00
  0.00000000E+00  0.00000000E+00  0.00000000E+00
  0.00000000E+00  0.00000000E+00  0.00000000E+00
  0.00000000E+00  0.00000000E+00  0.00000000E+00
  0.00000000E+00  0.00000000E+00  0.00000000E+00
  0.00000000E+00  0.00000000E+00  0.00000000E+00
  0.00000000E+00  0.00000000E+00  0.00000000E+00
  0.00000000E+00  0.00000000E+00  0.00000000E+00
  0.00000000E+00  0.00000000E+00  0.00000000E+00
  0.00000000E+00  0.00000000E+00  0.00000000E+00
  0.00000000E+00  0.00000000E+00  0.00000000E+00
  0.00000000E+00  0.00000000E+00  0.00000000E+00
  0.00000000E+00  0.00000000E+00  0.00000000E+00
  0.00000000E+00  0.00000000E+00  0.00000000E+00
  0.00000000E+00  0.00000000E+00  0.00000000E+00
  0.00000000E+00  0.00000000E+00  0.00000000E+00
  0.00000000E+00  0.00000000E+00  0.00000000E+00
  0.00000000E+00  0.00000000E+00  0.00000000E+00
  0.00000000E+00  0.00000000E+00  0.00000000E+00
  0.00000000E+00  0.00000000E+00  0.00000000E+00
  0.00000000E+00  0.00000000E+00  0.00000000E+00
  0.00000000E+00  0.00000000E+00  0.00000000E+00
  0.00000000E+00  0.00000000E+00  0.00000000E+00
  0.00000000E+00  0.00000000E+00  0.00000000E+00
  0.00000000E+00  0.00000000E+00  0.00000000E+00
