generated by phonopy                    
   1.00000000000000     
     0.0000000000000000    3.2345987028799486    3.2345987028800187
     3.2345987028799783    0.0000000000000000    3.2345987028800187
     3.2345987028799783    3.2345987028799486    0.0000000000000000
   Na   Sr   Ca   Sc   H 
     1     1     1     1    24
Direct
  0.2500000000000000  0.2500000000000000  0.2500000000000000
  0.7500000000000000  0.7500000000000000  0.7500000000000000
  0.0000000000000000  0.0000000000000000  0.0000000000000000
  0.5000000000000000  0.5000000000000000  0.5000000000000000
  0.1388869694249877  0.8911057826958100  0.6077111576595655
  0.8911057826958100  0.1388869694249877  0.3622960902196439
  0.6077111576595655  0.3622960902196439  0.1388869694249877
  0.3622960902196439  0.6077111576595655  0.8911057826958100
  0.6077111576595655  0.1388869694249877  0.8911057826958100
  0.3622960902196439  0.8911057826958100  0.1388869694249877
  0.1388869694249877  0.6077111576595655  0.3622960902196439
  0.8911057826958100  0.3622960902196439  0.6077111576595655
  0.8911057826958100  0.6077111576595655  0.1388869694249877
  0.1388869694249877  0.3622960902196439  0.8911057826958100
  0.3622960902196439  0.1388869694249877  0.6077111576595655
  0.6077111576595655  0.8911057826958100  0.3622960902196439
  0.1388869694249877  0.3622960902196439  0.6077111576595655
  0.3622960902196439  0.1388869694249877  0.8911057826958100
  0.6077111576595655  0.8911057826958100  0.1388869694249877
  0.8911057826958100  0.6077111576595655  0.3622960902196439
  0.6077111576595655  0.1388869694249877  0.3622960902196439
  0.8911057826958100  0.3622960902196439  0.1388869694249877
  0.1388869694249877  0.6077111576595655  0.8911057826958100
  0.3622960902196439  0.8911057826958100  0.6077111576595655
  0.3622960902196439  0.6077111576595655  0.1388869694249877
  0.1388869694249877  0.8911057826958100  0.3622960902196439
  0.8911057826958100  0.1388869694249877  0.6077111576595655
  0.6077111576595655  0.3622960902196439  0.8911057826958100
 
  0.00000000E+00  0.00000000E+00  0.00000000E+00
  0.00000000E+00  0.00000000E+00  0.00000000E+00
  0.00000000E+00  0.00000000E+00  0.00000000E+00
  0.00000000E+00  0.00000000E+00  0.00000000E+00
  0.00000000E+00  0.00000000E+00  0.00000000E+00
  0.00000000E+00  0.00000000E+00  0.00000000E+00
  0.00000000E+00  0.00000000E+00  0.00000000E+00
  0.00000000E+00  0.00000000E+00  0.00000000E+00
  0.00000000E+00  0.00000000E+00  0.00000000E+00
  0.00000000E+00  0.00000000E+00  0.00000000E+00
  0.00000000E+00  0.00000000E+00  0.00000000E+00
  0.00000000E+00  0.00000000E+00  0.00000000E+00
  0.00000000E+00  0.00000000E+00  0.00000000E+00
  0.00000000E+00  0.00000000E+00  0.00000000E+00
  0.00000000E+00  0.00000000E+00  0.00000000E+00
  0.00000000E+00  0.00000000E+00  0.00000000E+00
  0.00000000E+00  0.00000000E+00  0.00000000E+00
  0.00000000E+00  0.00000000E+00  0.00000000E+00
  0.00000000E+00  0.00000000E+00  0.00000000E+00
  0.00000000E+00  0.00000000E+00  0.00000000E+00
  0.00000000E+00  0.00000000E+00  0.00000000E+00
  0.00000000E+00  0.00000000E+00  0.00000000E+00
  0.00000000E+00  0.00000000E+00  0.00000000E+00
  0.00000000E+00  0.00000000E+00  0.00000000E+00
  0.00000000E+00  0.00000000E+00  0.00000000E+00
  0.00000000E+00  0.00000000E+00  0.00000000E+00
  0.00000000E+00  0.00000000E+00  0.00000000E+00
  0.00000000E+00  0.00000000E+00  0.00000000E+00
