generated by phonopy                    
   1.00000000000000     
     0.0000000000000000    3.3545371883609563    3.3545371883610406
     3.3545371883609896    0.0000000000000000    3.3545371883610406
     3.3545371883609896    3.3545371883609563    0.0000000000000000
   K    Y    Hf   Ce   H 
     1     1     1     1    24
Direct
  0.2500000000000000  0.2500000000000000  0.2500000000000000
  0.7500000000000000  0.7500000000000000  0.7500000000000000
  0.0000000000000000  0.0000000000000000  0.0000000000000000
  0.5000000000000000  0.5000000000000000  0.5000000000000000
  0.1238052572155794  0.8838195562894029  0.6222842307440004
  0.8838195562894029  0.1238052572155794  0.3700909557510244
  0.6222842307440004  0.3700909557510244  0.1238052572155794
  0.3700909557510244  0.6222842307440004  0.8838195562894029
  0.6222842307440004  0.1238052572155794  0.8838195562894029
  0.3700909557510244  0.8838195562894029  0.1238052572155794
  0.1238052572155794  0.6222842307440004  0.3700909557510244
  0.8838195562894029  0.3700909557510244  0.6222842307440004
  0.8838195562894029  0.6222842307440004  0.1238052572155794
  0.1238052572155794  0.3700909557510244  0.8838195562894029
  0.3700909557510244  0.1238052572155794  0.6222842307440004
  0.6222842307440004  0.8838195562894029  0.3700909557510244
  0.1238052572155794  0.3700909557510244  0.6222842307440004
  0.3700909557510244  0.1238052572155794  0.8838195562894029
  0.6222842307440004  0.8838195562894029  0.1238052572155794
  0.8838195562894029  0.6222842307440004  0.3700909557510244
  0.6222842307440004  0.1238052572155794  0.3700909557510244
  0.8838195562894029  0.3700909557510244  0.1238052572155794
  0.1238052572155794  0.6222842307440004  0.8838195562894029
  0.3700909557510244  0.8838195562894029  0.6222842307440004
  0.3700909557510244  0.6222842307440004  0.1238052572155794
  0.1238052572155794  0.8838195562894029  0.3700909557510244
  0.8838195562894029  0.1238052572155794  0.6222842307440004
  0.6222842307440004  0.3700909557510244  0.8838195562894029
 
  0.00000000E+00  0.00000000E+00  0.00000000E+00
  0.00000000E+00  0.00000000E+00  0.00000000E+00
  0.00000000E+00  0.00000000E+00  0.00000000E+00
  0.00000000E+00  0.00000000E+00  0.00000000E+00
  0.00000000E+00  0.00000000E+00  0.00000000E+00
  0.00000000E+00  0.00000000E+00  0.00000000E+00
  0.00000000E+00  0.00000000E+00  0.00000000E+00
  0.00000000E+00  0.00000000E+00  0.00000000E+00
  0.00000000E+00  0.00000000E+00  0.00000000E+00
  0.00000000E+00  0.00000000E+00  0.00000000E+00
  0.00000000E+00  0.00000000E+00  0.00000000E+00
  0.00000000E+00  0.00000000E+00  0.00000000E+00
  0.00000000E+00  0.00000000E+00  0.00000000E+00
  0.00000000E+00  0.00000000E+00  0.00000000E+00
  0.00000000E+00  0.00000000E+00  0.00000000E+00
  0.00000000E+00  0.00000000E+00  0.00000000E+00
  0.00000000E+00  0.00000000E+00  0.00000000E+00
  0.00000000E+00  0.00000000E+00  0.00000000E+00
  0.00000000E+00  0.00000000E+00  0.00000000E+00
  0.00000000E+00  0.00000000E+00  0.00000000E+00
  0.00000000E+00  0.00000000E+00  0.00000000E+00
  0.00000000E+00  0.00000000E+00  0.00000000E+00
  0.00000000E+00  0.00000000E+00  0.00000000E+00
  0.00000000E+00  0.00000000E+00  0.00000000E+00
  0.00000000E+00  0.00000000E+00  0.00000000E+00
  0.00000000E+00  0.00000000E+00  0.00000000E+00
  0.00000000E+00  0.00000000E+00  0.00000000E+00
  0.00000000E+00  0.00000000E+00  0.00000000E+00
