POSCAR                                  
   1.00000000000000     
    10.3163217510292320   -0.0658915122523998    0.0021643392079273
    -0.0659664528642666   10.2930580117975339    0.0126852754181691
     0.0014177324970674    0.0085076755876695    6.8896068139284798
   Sc   Zr   Y    K    H 
     9     9     9     9   216
Direct
  0.1577008480294733  0.1694076244956285  0.2552093245761925
  0.1685798808084754  0.8238224523495490  0.2556574439151539
  0.3511376876720115  0.6738630951412036  0.4996226739968953
  0.3120829689972075  0.9976746438664054  0.4894089237698806
  0.8331426451221935  0.5006837848520905  0.2597873759856520
  0.9979726388934737  0.3299092058472294  0.4980566245402968
  0.8351421914876527  0.5054815297485261  0.7412734632303899
  0.6770258136762326  0.0045839495683715  0.4912661452945882
  0.0010597031059017  0.6654165088515041  0.5025723520207119
  0.1595464253781235  0.1617723662757346  0.7495238229085449
  0.1704945049034849  0.5018642487679434  0.2577632831622040
  0.4905845582898132  0.1635844559030158  0.7439030958749648
  0.3309889324961471  0.3304745469895340  0.0032504748317421
  0.3339153143477911  0.6716368305061000  0.0026587886446731
  0.8263081996620776  0.1641176175462662  0.7485579962843727
  0.3175955582401012  0.0004140174158704  0.0161636439247413
  0.6828410332669553  0.6655660703824827 -0.0014149640177425
  0.9937783539144966  0.3317969021304615  0.0020807557312727
  0.4948419685481386  0.1671346180788176  0.2532861551925158
  0.3288426035952611  0.3362741805025744  0.5019462484772540
  0.1629038050608814  0.4982086656332113  0.7538242755318850
  0.1736429724842774  0.8311371604845262  0.7510075765274106
  0.6674013485428739  0.3346278277920092  0.4959331882417020
  0.5029473774703552  0.5046369819735907  0.7513607946033863
  0.6668583816788545  0.3323653396453105  0.0016801491482187
  0.6637098542870726  0.6741683177396299  0.4974062752460316
  0.8464086366500234  0.8392925423727572  0.2432898807829021
  0.5043347675972173  0.5039060708315866  0.2519711183949359
  0.8363479181785175  0.1729546933818863  0.2355871739201371
  0.5093377417818805  0.8441279240241639  0.2443987226426416
  0.5141424545500526  0.8469036197489052  0.7564571630855935
  0.8512820402063968  0.8421919798632252  0.7457325750876442
  0.6370944389638441  0.9841625850492515  0.9937974401062644
  0.0102525005982949  0.6546436070814251  0.9983768239662527
  0.9931875968532211  0.9917079857554406  0.5085208045888230
  0.9822032375879232  0.9920634273199723  0.0063266749705311
  0.1505380092984776  0.0784715265278801  0.0260516571533061
  0.1549446714035010  0.0769872152155496  0.4775302141282561
  0.1679105932933785  0.4090171094573543  0.0065169658063331
  0.4880323092060584  0.0902751303130326  0.9941028535343283
  0.3208105586263793  0.2472960341277805  0.2530224996313603
  0.1576785844675470  0.4151621811625974  0.5010400677322323
  0.5183941260248072  0.0830275561347637  0.5005122302414057
  0.3298348411166103  0.2446412504723806  0.7491743133215973
  0.1697402158121053  0.7496981016953044  0.0142535102149884
  0.4971405022262760  0.4160007311169106  0.0005869543553464
  0.3357418624319300  0.5867964698887937  0.2433999787437167
  0.1713688817531690  0.7445125639956350  0.4967407243478276
  0.8127226764538541  0.0871917917694293  0.9898567430537053
  0.6696303994922348  0.2510470470822730  0.2502979025729196
  0.4975037962786573  0.4177680103611529  0.5018598629536927
  0.3352002317653247  0.5857095110947766  0.7634276291455572
  0.8290924657366320  0.0825854811779755  0.4769485140913454
  0.6674950554040815  0.2525022886441617  0.7472480158580919
  0.5104829898953964  0.7547709670178060  0.0006896502127699
  0.3323874628030780  0.9080883859468916  0.2578660221049123
  0.8330960256297870  0.4183024798674703  0.9735627477317478
  0.6761577288157535  0.5827957040929723  0.2455319562966815
  0.4989795094268596  0.7666887884874056  0.5011939001877408
  0.3387242555290215  0.9161546912599103  0.7560203841483254
  0.0048547326190425  0.2517715539097498  0.2590277674746425
  0.8421562304512815  0.4184394926515982  0.5098696666133468
  0.6777277892419831  0.5827078014369603  0.7478351618030569
  0.9953950229415305  0.2476681193676288  0.7447397416529217
  0.8518850456931174  0.7503926029693880  0.9946857703728788
  0.6828689676167095  0.9214826168568752  0.2670873565310636
  0.9962842089813210  0.5769731292997069  0.2610932116743152
  0.8346839977293957  0.7537245879247383  0.4980364762121577
  0.6854876722343300  0.9206586005513668  0.7191661568262957
  0.9927520016073744  0.5778412588893398  0.7387513141762753
  0.0252034600170890  0.9157163578479837  0.2598253087775989
  0.0189705295808605  0.9157341516039919  0.7627199240254657
  0.0769020716039781  0.1627375282429760  0.9913967235948159
  0.0777938423549313  0.1620735425041200  0.5051104021848658
  0.0833005808843950  0.4881533048356836  0.0146368017083508
  0.4079855778375389  0.1646676923133329 -0.0002750671468580
  0.2431352555330095  0.3327251194854906  0.2506551168202949
  0.0749394793266814  0.4996928679053363  0.5010421199024118
  0.4099026966718662  0.1480207208287742  0.5011602343049477
  0.2478220533727292  0.3276138873972311  0.7565186730205860
  0.0893596350156814  0.8308665478125158  0.0184592480521709
  0.4198858489128880  0.5115817481023499  0.0066116602315249
  0.2517000460484303  0.6682147578309423  0.2851425884534871
  0.0907205861611680  0.8278918126718484  0.4928025414272724
  0.7386212608224302  0.1514586479321215 -0.0015645312510676
  0.5780652671454969  0.3360954638471345  0.2469227139464611
  0.4174055454703853  0.5084552062187144  0.4972074951836911
  0.2532900750984388  0.6634385655575992  0.7177823185428401
  0.7562478288841717  0.1689244903592004  0.4900082971020991
  0.5829394070778594  0.3288380642374656  0.7508202267547830
  0.4211411371068091  0.8337399132105400  0.0003785920591357
  0.2349107840421762  0.9851832452016099  0.2557510670712100
  0.7553157226996532  0.4986872455065428  0.9942901734129126
  0.5861079630388107  0.6733960421465124  0.2375476536765729
  0.4202600183639211  0.8401036805889399  0.5013834057393420
  0.2543589416641320  0.0046843919721309  0.7505396618979279
  0.9206976707599777  0.3424224895729950  0.2602948956925824
  0.7564495896269150  0.5024595266700800  0.5034531283985567
  0.5874924614130621  0.6745281207748296  0.7602556172535099
  0.9181160626145506  0.3291242347659109  0.7455072621136050
  0.7594952934573858  0.8491266855093963  0.9874430593701564
  0.5837826054608631  0.0105270795712225  0.2736246602757540
  0.9268943116136632  0.6658666367101103  0.2551893074833877
  0.7645055215994015  0.8356772074665739  0.5001196451401088
  0.5830667792769550  0.0145357458758260  0.7137118199047978
  0.9234107194695773  0.6669502493007738  0.7446712379354878
  0.9188122601031579  0.0126208617722497  0.2649648209635070
  0.9095869279874190  0.0177398621156224  0.7498060984033813
  0.1496865546978109  0.0127486678912629  0.1276328537805351
  0.1649977380147445  0.0008378511956619  0.6267251222435892
  0.1603532339810530  0.3279979974866376  0.1299793540016803
  0.4775703222782436  0.0076729948087681  0.1249106378523015
  0.3200919789300045  0.1616774644404909  0.3762165169965301
  0.1555649705473815  0.3268511325106603  0.6259640631444234
  0.4695218073338450  0.9920343576898702  0.6029662400351169
  0.3275787886699267  0.1629031366901362  0.8754646194394149
  0.1753714906348757  0.6657564984972831  0.1308330487224279
  0.4981290427028197  0.3361014078803151  0.1268830974660246
  0.3366389614726140  0.5113365312311288  0.3768526902466326
  0.1890858063963358  0.6636123695106001  0.6222364656684919
  0.8059004921712946  0.0090500703333001  0.1190130648309243
  0.6703694242074809  0.1622663901454447  0.3696493284662731
  0.4975206596582443  0.3350031205004211  0.6295000159870789
  0.3320188669241706  0.4983906836960161  0.8806555165418641
  0.8255361638500167  0.0080467875879486  0.6195221449564455
  0.6605426982343890  0.1566090849646909  0.8671492834302160
  0.4975440303333933  0.6713990548163437  0.1212257921182342
  0.3380744392539883  0.8382170508342300  0.3765575395326650
  0.8328896198161315  0.3498437909444730  0.1298770665261849
  0.6744679973516794  0.5056277465351421  0.3715038681732876
  0.4978522237526075  0.6779161415191153  0.6402030672774329
  0.3432497981541532  0.8371413780193812  0.8634952225656030
  0.0012512491121388  0.1646815708965778  0.3741586394357541
  0.8388367393521157  0.3373328116910317  0.6218508929501556
  0.6789986201437926  0.5032255748034664  0.8742999768805011
  0.0005893029228977  0.1626279918476368  0.8828947411861293
  0.8425078925150120  0.6590993588322215  0.1251277281951165
  0.6767405569213701  0.8391017216102794  0.3666331618892633
  0.9978845078239440  0.4958600131867772  0.3837485141719197
  0.8326760619487731  0.6684728359677657  0.6243464101483450
  0.6884289527031442  0.8200392872544470  0.8704953004019673
  0.9886310846404587  0.4917948561881319  0.8723628948493438
  0.0119785510312456  0.8253638251678653  0.3753919140792123
  0.0094058721863321  0.8228114807654380  0.8814608120249671
  0.0787847366924015  0.9881687188921070  0.2503333200077904
  0.0705639767872997  0.9901030820242365  0.7606391464714845
  0.0823912668735238  0.3393889759728537  0.2521165005669730
  0.4146569300825646  0.9991961369467289  0.2849011778300989
  0.2453379658357367  0.1644938069660313  0.5050333395496269
  0.0771790600299130  0.3287156611876329  0.7528118877101739
  0.4173317840731537  0.9985913553754194  0.6974018239694203
  0.2411451189947791  0.1654901558605312  0.9963696183318301
  0.0844887773727979  0.6635672795627811  0.2667337726834646
  0.4139156345538755  0.3369015649652720  0.2492237453598012
  0.2515150423639935  0.5151458573548993  0.5058077362486819
  0.0834627023632636  0.6654449668040047  0.7335033626888944
  0.7496913457177534  0.0026182068196967  0.2151444061362058
  0.5850129750408599  0.1533687932709657  0.5008731400043832
  0.4185049256071972  0.3321414423639212  0.7516127385401733
  0.2501689085410715  0.4937442339495033  0.0032266827116568
  0.7416415218301350  0.9903432299723586  0.7645166896660618
  0.5727144350473188  0.1595046914900652  0.9922638446966803
  0.4263915964770129  0.6753368541648734  0.2574199401916318
  0.2550817289469079  0.8218671917136565  0.4942873669757261
  0.7565008107300039  0.3390849600133452  0.2489829302469512
  0.5865782914501700  0.5030279557191797  0.5015730720433652
  0.4267700959929644  0.6794866585407189  0.7442948486079254
  0.2523972751282999  0.8326263271470984  0.0085478098458083
  0.9185525447652909  0.1676135821749161  0.5005768854541757
  0.7553894585822739  0.3375246371860164  0.7487229993915792
  0.5826102173906071  0.5086602607351806  0.0015766188465320
  0.9145773794302887  0.1644087394014713  0.9821360115704331
  0.7619091945482754  0.6670978386009158  0.2595649976198267
  0.5819348034309944  0.8526193729966067  0.4983802016534960
  0.9169674884575810  0.4988852704048956  0.4935027350179675
  0.7611301015679776  0.6724966368939848  0.7381807211853888
  0.5848961478290082  0.8051195518932779  0.0020320058637946
  0.9161219087674655  0.4974450765731175  0.0201605042535811
  0.9290573476258673  0.8159424189233082  0.4905041663476095
  0.9286177056871191  0.8115305680761535  0.9925514564102574
  0.0080333113692986  0.1645335080506017  0.1281889377092087
  0.9979067983651079  0.1679569766577819  0.6193382025575394
  0.9916591542582039  0.4929874966393236  0.1346341080149129
  0.3190445953453220  0.1671515332010394  0.1313814720817022
  0.1575520573428569  0.3253903135873645  0.3789777765903627
  0.9969391059932705  0.4908132942689943  0.6225041140163937
  0.3267675787778366  0.1553139097015269  0.6181192991430297
  0.1618210991875403  0.3265724779895432  0.8804536303418228
  0.0153880866446236  0.8198995605098114  0.1289973474525561
  0.3362373599904546  0.5002465814479087  0.1306006363890237
  0.1840679331814923  0.6642308248271324  0.3833215508049375
  0.0128719950491675  0.8185363695995403  0.6184875527677811
  0.6656474547950191  0.1562295695232941  0.1160639480429517
  0.4977138297076029  0.3371872253379862  0.3727112565894468
  0.3309725029309631  0.5107589243246695  0.6252220234006183
  0.1766933073370204  0.6652525503808313  0.8771496499317053
  0.6640002034821034  0.1641151976265275  0.6205166210054190
  0.4971689282237707  0.3301939690428276  0.8750547930223243
  0.3336731482006026  0.8299261271240181  0.1426544928501557
  0.1576220795807017  0.0106482585582743  0.3784524996660082
  0.6786976715676850  0.5037848252429041  0.1252803690077751
  0.4974743070374843  0.6743261122975720  0.3584664491660275
  0.3446093948870055  0.8436942686560474  0.6191653159185551
  0.1584911432077915  0.9999375802457863  0.8837255369034951
  0.8392439292535864  0.3383335081921331  0.3739801663210505
  0.6758623601033481  0.5066469602921971  0.6269486036784520
  0.4942224346726667  0.6747409155685167  0.8774158878693861
  0.8333709504509674  0.3490860473204332  0.8660889561007564
  0.6827191060555541  0.8231370021339102  0.1240792297454888
  0.4742921290259399 -0.0003157999119233  0.3814534477140640
  0.8328314032413840  0.6649942918999444  0.3727183096207992
  0.6803853498215329  0.8392424305029847  0.6248243381318356
  0.4663500671369011  0.0083645077369464  0.8678910020860462
  0.8422186456342069  0.6644186461522156  0.8731375153986909
  0.8357945856047757  0.0147592117817816  0.3713013697612378
  0.8063673703443943  0.0063159199675527  0.8694866597434940
  0.0011800549034315  0.0826497440170244  0.2566794752048087
  0.9948777082657291  0.0814897148962482  0.7569449070246090
  0.0045589423039728  0.4173036757416894  0.2632308626266908
  0.3170825320888442  0.0821802239505231  0.2549854427210576
  0.1607778367568832  0.2507860570834050  0.4903024482227477
  0.9910270997698084  0.4124868772177669  0.7380375950137121
  0.3278896660388030  0.0799176828458503  0.7577588013301821
  0.1614260954936873  0.2487033361237874  0.0167447329995533
  0.0076360089374537  0.7373726908949081  0.2543096196954889
  0.3334617772838495  0.4228800527963258  0.2477830276825754
  0.1512889551293622  0.5826945304265190  0.5031758443237193
  0.0058501454524549  0.7402408611023163  0.7426346109442187
  0.6646673097429544  0.0841552771490584  0.2487678695527240
  0.4981269854527658  0.2476992276368121  0.5056091871104610
  0.3341845738558964  0.4187760509590251  0.7570814213141357
  0.1766078675372705  0.5761348993773885  0.0103585278874485
  0.6551412946592966  0.0815937654960321  0.7419760597062862
  0.4953135761913547  0.2522986190504613  0.9947538731142421
  0.3369408796185341  0.7499055045818872  0.2488322254437262
  0.1595183065940144  0.9091823043384217  0.4856750557874453
  0.6718874039763497  0.4219514126335484  0.2480159815164874
  0.4981266641558126  0.5868429387161719  0.4998597419449031
  0.3444696457900246  0.7544579774033368  0.7546632430497989
  0.1539823550692755  0.9129097096238773  0.0185102622516588
  0.8353581389193298  0.2495613751579047  0.4983876437349596
  0.6714028408313820  0.4197274667832509  0.7506996199755794
  0.4947768746193648  0.5820018583786549  0.0049922362654764
  0.8308645164849942  0.2542978661573901  0.9839333251341573
  0.6757204864396834  0.7555677943596988  0.2474159483279579
  0.5237092186201949  0.9218984507171202  0.4992265458898901
  0.8438015586185390  0.5851886157862086  0.4975695025007317
  0.6817961721713756  0.7572390608091986  0.7513756053041120
  0.4656899389711892  0.9184413271764035  0.9996944533738866
  0.8421577878570998  0.5766443652478149  0.0109203743870911
  0.8202646609534615  0.9196057586108186  0.4951852458725398
  0.8093088943010427  0.9186448764460730  0.9919327137829248
 
  0.00000000E+00  0.00000000E+00  0.00000000E+00
  0.00000000E+00  0.00000000E+00  0.00000000E+00
  0.00000000E+00  0.00000000E+00  0.00000000E+00
  0.00000000E+00  0.00000000E+00  0.00000000E+00
  0.00000000E+00  0.00000000E+00  0.00000000E+00
  0.00000000E+00  0.00000000E+00  0.00000000E+00
  0.00000000E+00  0.00000000E+00  0.00000000E+00
  0.00000000E+00  0.00000000E+00  0.00000000E+00
  0.00000000E+00  0.00000000E+00  0.00000000E+00
  0.00000000E+00  0.00000000E+00  0.00000000E+00
  0.00000000E+00  0.00000000E+00  0.00000000E+00
  0.00000000E+00  0.00000000E+00  0.00000000E+00
  0.00000000E+00  0.00000000E+00  0.00000000E+00
  0.00000000E+00  0.00000000E+00  0.00000000E+00
  0.00000000E+00  0.00000000E+00  0.00000000E+00
  0.00000000E+00  0.00000000E+00  0.00000000E+00
  0.00000000E+00  0.00000000E+00  0.00000000E+00
  0.00000000E+00  0.00000000E+00  0.00000000E+00
  0.00000000E+00  0.00000000E+00  0.00000000E+00
  0.00000000E+00  0.00000000E+00  0.00000000E+00
  0.00000000E+00  0.00000000E+00  0.00000000E+00
  0.00000000E+00  0.00000000E+00  0.00000000E+00
  0.00000000E+00  0.00000000E+00  0.00000000E+00
  0.00000000E+00  0.00000000E+00  0.00000000E+00
  0.00000000E+00  0.00000000E+00  0.00000000E+00
  0.00000000E+00  0.00000000E+00  0.00000000E+00
  0.00000000E+00  0.00000000E+00  0.00000000E+00
  0.00000000E+00  0.00000000E+00  0.00000000E+00
  0.00000000E+00  0.00000000E+00  0.00000000E+00
  0.00000000E+00  0.00000000E+00  0.00000000E+00
  0.00000000E+00  0.00000000E+00  0.00000000E+00
  0.00000000E+00  0.00000000E+00  0.00000000E+00
  0.00000000E+00  0.00000000E+00  0.00000000E+00
  0.00000000E+00  0.00000000E+00  0.00000000E+00
  0.00000000E+00  0.00000000E+00  0.00000000E+00
  0.00000000E+00  0.00000000E+00  0.00000000E+00
  0.00000000E+00  0.00000000E+00  0.00000000E+00
  0.00000000E+00  0.00000000E+00  0.00000000E+00
  0.00000000E+00  0.00000000E+00  0.00000000E+00
  0.00000000E+00  0.00000000E+00  0.00000000E+00
  0.00000000E+00  0.00000000E+00  0.00000000E+00
  0.00000000E+00  0.00000000E+00  0.00000000E+00
  0.00000000E+00  0.00000000E+00  0.00000000E+00
  0.00000000E+00  0.00000000E+00  0.00000000E+00
  0.00000000E+00  0.00000000E+00  0.00000000E+00
  0.00000000E+00  0.00000000E+00  0.00000000E+00
  0.00000000E+00  0.00000000E+00  0.00000000E+00
  0.00000000E+00  0.00000000E+00  0.00000000E+00
  0.00000000E+00  0.00000000E+00  0.00000000E+00
  0.00000000E+00  0.00000000E+00  0.00000000E+00
  0.00000000E+00  0.00000000E+00  0.00000000E+00
  0.00000000E+00  0.00000000E+00  0.00000000E+00
  0.00000000E+00  0.00000000E+00  0.00000000E+00
  0.00000000E+00  0.00000000E+00  0.00000000E+00
  0.00000000E+00  0.00000000E+00  0.00000000E+00
  0.00000000E+00  0.00000000E+00  0.00000000E+00
  0.00000000E+00  0.00000000E+00  0.00000000E+00
  0.00000000E+00  0.00000000E+00  0.00000000E+00
  0.00000000E+00  0.00000000E+00  0.00000000E+00
  0.00000000E+00  0.00000000E+00  0.00000000E+00
  0.00000000E+00  0.00000000E+00  0.00000000E+00
  0.00000000E+00  0.00000000E+00  0.00000000E+00
  0.00000000E+00  0.00000000E+00  0.00000000E+00
  0.00000000E+00  0.00000000E+00  0.00000000E+00
  0.00000000E+00  0.00000000E+00  0.00000000E+00
  0.00000000E+00  0.00000000E+00  0.00000000E+00
  0.00000000E+00  0.00000000E+00  0.00000000E+00
  0.00000000E+00  0.00000000E+00  0.00000000E+00
  0.00000000E+00  0.00000000E+00  0.00000000E+00
  0.00000000E+00  0.00000000E+00  0.00000000E+00
  0.00000000E+00  0.00000000E+00  0.00000000E+00
  0.00000000E+00  0.00000000E+00  0.00000000E+00
  0.00000000E+00  0.00000000E+00  0.00000000E+00
  0.00000000E+00  0.00000000E+00  0.00000000E+00
  0.00000000E+00  0.00000000E+00  0.00000000E+00
  0.00000000E+00  0.00000000E+00  0.00000000E+00
  0.00000000E+00  0.00000000E+00  0.00000000E+00
  0.00000000E+00  0.00000000E+00  0.00000000E+00
  0.00000000E+00  0.00000000E+00  0.00000000E+00
  0.00000000E+00  0.00000000E+00  0.00000000E+00
  0.00000000E+00  0.00000000E+00  0.00000000E+00
  0.00000000E+00  0.00000000E+00  0.00000000E+00
  0.00000000E+00  0.00000000E+00  0.00000000E+00
  0.00000000E+00  0.00000000E+00  0.00000000E+00
  0.00000000E+00  0.00000000E+00  0.00000000E+00
  0.00000000E+00  0.00000000E+00  0.00000000E+00
  0.00000000E+00  0.00000000E+00  0.00000000E+00
  0.00000000E+00  0.00000000E+00  0.00000000E+00
  0.00000000E+00  0.00000000E+00  0.00000000E+00
  0.00000000E+00  0.00000000E+00  0.00000000E+00
  0.00000000E+00  0.00000000E+00  0.00000000E+00
  0.00000000E+00  0.00000000E+00  0.00000000E+00
  0.00000000E+00  0.00000000E+00  0.00000000E+00
  0.00000000E+00  0.00000000E+00  0.00000000E+00
  0.00000000E+00  0.00000000E+00  0.00000000E+00
  0.00000000E+00  0.00000000E+00  0.00000000E+00
  0.00000000E+00  0.00000000E+00  0.00000000E+00
  0.00000000E+00  0.00000000E+00  0.00000000E+00
  0.00000000E+00  0.00000000E+00  0.00000000E+00
  0.00000000E+00  0.00000000E+00  0.00000000E+00
  0.00000000E+00  0.00000000E+00  0.00000000E+00
  0.00000000E+00  0.00000000E+00  0.00000000E+00
  0.00000000E+00  0.00000000E+00  0.00000000E+00
  0.00000000E+00  0.00000000E+00  0.00000000E+00
  0.00000000E+00  0.00000000E+00  0.00000000E+00
  0.00000000E+00  0.00000000E+00  0.00000000E+00
  0.00000000E+00  0.00000000E+00  0.00000000E+00
  0.00000000E+00  0.00000000E+00  0.00000000E+00
  0.00000000E+00  0.00000000E+00  0.00000000E+00
  0.00000000E+00  0.00000000E+00  0.00000000E+00
  0.00000000E+00  0.00000000E+00  0.00000000E+00
  0.00000000E+00  0.00000000E+00  0.00000000E+00
  0.00000000E+00  0.00000000E+00  0.00000000E+00
  0.00000000E+00  0.00000000E+00  0.00000000E+00
  0.00000000E+00  0.00000000E+00  0.00000000E+00
  0.00000000E+00  0.00000000E+00  0.00000000E+00
  0.00000000E+00  0.00000000E+00  0.00000000E+00
  0.00000000E+00  0.00000000E+00  0.00000000E+00
  0.00000000E+00  0.00000000E+00  0.00000000E+00
  0.00000000E+00  0.00000000E+00  0.00000000E+00
  0.00000000E+00  0.00000000E+00  0.00000000E+00
  0.00000000E+00  0.00000000E+00  0.00000000E+00
  0.00000000E+00  0.00000000E+00  0.00000000E+00
  0.00000000E+00  0.00000000E+00  0.00000000E+00
  0.00000000E+00  0.00000000E+00  0.00000000E+00
  0.00000000E+00  0.00000000E+00  0.00000000E+00
  0.00000000E+00  0.00000000E+00  0.00000000E+00
  0.00000000E+00  0.00000000E+00  0.00000000E+00
  0.00000000E+00  0.00000000E+00  0.00000000E+00
  0.00000000E+00  0.00000000E+00  0.00000000E+00
  0.00000000E+00  0.00000000E+00  0.00000000E+00
  0.00000000E+00  0.00000000E+00  0.00000000E+00
  0.00000000E+00  0.00000000E+00  0.00000000E+00
  0.00000000E+00  0.00000000E+00  0.00000000E+00
  0.00000000E+00  0.00000000E+00  0.00000000E+00
  0.00000000E+00  0.00000000E+00  0.00000000E+00
  0.00000000E+00  0.00000000E+00  0.00000000E+00
  0.00000000E+00  0.00000000E+00  0.00000000E+00
  0.00000000E+00  0.00000000E+00  0.00000000E+00
  0.00000000E+00  0.00000000E+00  0.00000000E+00
  0.00000000E+00  0.00000000E+00  0.00000000E+00
  0.00000000E+00  0.00000000E+00  0.00000000E+00
  0.00000000E+00  0.00000000E+00  0.00000000E+00
  0.00000000E+00  0.00000000E+00  0.00000000E+00
  0.00000000E+00  0.00000000E+00  0.00000000E+00
  0.00000000E+00  0.00000000E+00  0.00000000E+00
  0.00000000E+00  0.00000000E+00  0.00000000E+00
  0.00000000E+00  0.00000000E+00  0.00000000E+00
  0.00000000E+00  0.00000000E+00  0.00000000E+00
  0.00000000E+00  0.00000000E+00  0.00000000E+00
  0.00000000E+00  0.00000000E+00  0.00000000E+00
  0.00000000E+00  0.00000000E+00  0.00000000E+00
  0.00000000E+00  0.00000000E+00  0.00000000E+00
  0.00000000E+00  0.00000000E+00  0.00000000E+00
  0.00000000E+00  0.00000000E+00  0.00000000E+00
  0.00000000E+00  0.00000000E+00  0.00000000E+00
  0.00000000E+00  0.00000000E+00  0.00000000E+00
  0.00000000E+00  0.00000000E+00  0.00000000E+00
  0.00000000E+00  0.00000000E+00  0.00000000E+00
  0.00000000E+00  0.00000000E+00  0.00000000E+00
  0.00000000E+00  0.00000000E+00  0.00000000E+00
  0.00000000E+00  0.00000000E+00  0.00000000E+00
  0.00000000E+00  0.00000000E+00  0.00000000E+00
  0.00000000E+00  0.00000000E+00  0.00000000E+00
  0.00000000E+00  0.00000000E+00  0.00000000E+00
  0.00000000E+00  0.00000000E+00  0.00000000E+00
  0.00000000E+00  0.00000000E+00  0.00000000E+00
  0.00000000E+00  0.00000000E+00  0.00000000E+00
  0.00000000E+00  0.00000000E+00  0.00000000E+00
  0.00000000E+00  0.00000000E+00  0.00000000E+00
  0.00000000E+00  0.00000000E+00  0.00000000E+00
  0.00000000E+00  0.00000000E+00  0.00000000E+00
  0.00000000E+00  0.00000000E+00  0.00000000E+00
  0.00000000E+00  0.00000000E+00  0.00000000E+00
  0.00000000E+00  0.00000000E+00  0.00000000E+00
  0.00000000E+00  0.00000000E+00  0.00000000E+00
  0.00000000E+00  0.00000000E+00  0.00000000E+00
  0.00000000E+00  0.00000000E+00  0.00000000E+00
  0.00000000E+00  0.00000000E+00  0.00000000E+00
  0.00000000E+00  0.00000000E+00  0.00000000E+00
  0.00000000E+00  0.00000000E+00  0.00000000E+00
  0.00000000E+00  0.00000000E+00  0.00000000E+00
  0.00000000E+00  0.00000000E+00  0.00000000E+00
  0.00000000E+00  0.00000000E+00  0.00000000E+00
  0.00000000E+00  0.00000000E+00  0.00000000E+00
  0.00000000E+00  0.00000000E+00  0.00000000E+00
  0.00000000E+00  0.00000000E+00  0.00000000E+00
  0.00000000E+00  0.00000000E+00  0.00000000E+00
  0.00000000E+00  0.00000000E+00  0.00000000E+00
  0.00000000E+00  0.00000000E+00  0.00000000E+00
  0.00000000E+00  0.00000000E+00  0.00000000E+00
  0.00000000E+00  0.00000000E+00  0.00000000E+00
  0.00000000E+00  0.00000000E+00  0.00000000E+00
  0.00000000E+00  0.00000000E+00  0.00000000E+00
  0.00000000E+00  0.00000000E+00  0.00000000E+00
  0.00000000E+00  0.00000000E+00  0.00000000E+00
  0.00000000E+00  0.00000000E+00  0.00000000E+00
  0.00000000E+00  0.00000000E+00  0.00000000E+00
  0.00000000E+00  0.00000000E+00  0.00000000E+00
  0.00000000E+00  0.00000000E+00  0.00000000E+00
  0.00000000E+00  0.00000000E+00  0.00000000E+00
  0.00000000E+00  0.00000000E+00  0.00000000E+00
  0.00000000E+00  0.00000000E+00  0.00000000E+00
  0.00000000E+00  0.00000000E+00  0.00000000E+00
  0.00000000E+00  0.00000000E+00  0.00000000E+00
  0.00000000E+00  0.00000000E+00  0.00000000E+00
  0.00000000E+00  0.00000000E+00  0.00000000E+00
  0.00000000E+00  0.00000000E+00  0.00000000E+00
  0.00000000E+00  0.00000000E+00  0.00000000E+00
  0.00000000E+00  0.00000000E+00  0.00000000E+00
  0.00000000E+00  0.00000000E+00  0.00000000E+00
  0.00000000E+00  0.00000000E+00  0.00000000E+00
  0.00000000E+00  0.00000000E+00  0.00000000E+00
  0.00000000E+00  0.00000000E+00  0.00000000E+00
  0.00000000E+00  0.00000000E+00  0.00000000E+00
  0.00000000E+00  0.00000000E+00  0.00000000E+00
  0.00000000E+00  0.00000000E+00  0.00000000E+00
  0.00000000E+00  0.00000000E+00  0.00000000E+00
  0.00000000E+00  0.00000000E+00  0.00000000E+00
  0.00000000E+00  0.00000000E+00  0.00000000E+00
  0.00000000E+00  0.00000000E+00  0.00000000E+00
  0.00000000E+00  0.00000000E+00  0.00000000E+00
  0.00000000E+00  0.00000000E+00  0.00000000E+00
  0.00000000E+00  0.00000000E+00  0.00000000E+00
  0.00000000E+00  0.00000000E+00  0.00000000E+00
  0.00000000E+00  0.00000000E+00  0.00000000E+00
  0.00000000E+00  0.00000000E+00  0.00000000E+00
  0.00000000E+00  0.00000000E+00  0.00000000E+00
  0.00000000E+00  0.00000000E+00  0.00000000E+00
  0.00000000E+00  0.00000000E+00  0.00000000E+00
  0.00000000E+00  0.00000000E+00  0.00000000E+00
  0.00000000E+00  0.00000000E+00  0.00000000E+00
  0.00000000E+00  0.00000000E+00  0.00000000E+00
  0.00000000E+00  0.00000000E+00  0.00000000E+00
  0.00000000E+00  0.00000000E+00  0.00000000E+00
  0.00000000E+00  0.00000000E+00  0.00000000E+00
  0.00000000E+00  0.00000000E+00  0.00000000E+00
  0.00000000E+00  0.00000000E+00  0.00000000E+00
  0.00000000E+00  0.00000000E+00  0.00000000E+00
  0.00000000E+00  0.00000000E+00  0.00000000E+00
  0.00000000E+00  0.00000000E+00  0.00000000E+00
  0.00000000E+00  0.00000000E+00  0.00000000E+00
  0.00000000E+00  0.00000000E+00  0.00000000E+00
  0.00000000E+00  0.00000000E+00  0.00000000E+00
  0.00000000E+00  0.00000000E+00  0.00000000E+00
  0.00000000E+00  0.00000000E+00  0.00000000E+00
  0.00000000E+00  0.00000000E+00  0.00000000E+00
  0.00000000E+00  0.00000000E+00  0.00000000E+00
  0.00000000E+00  0.00000000E+00  0.00000000E+00
  0.00000000E+00  0.00000000E+00  0.00000000E+00
  0.00000000E+00  0.00000000E+00  0.00000000E+00
  0.00000000E+00  0.00000000E+00  0.00000000E+00
