POSCAR                                  
   1.00000000000000     
    10.3243757191174357   -0.0501866413740189   -0.0036893666368467
    -0.0502405100119816   10.3110400926702948    0.0112062018250383
    -0.0024882359137212    0.0075179921436895    6.8743737333021722
   Sc   Zr   Y    K    H 
     9     9     9     9   216
Direct
  0.1596448319518617  0.1724184555970048  0.2546976783581772
  0.1672897995206429  0.8231193724278817  0.2558548470943536
  0.3503416157558519  0.6741476841612597  0.5000749713620658
  0.3113923822018630 -0.0031616803526944  0.4881271472741739
  0.8319660750983175  0.5022001835314351  0.2596271837936844
 -0.0016947177324902  0.3292032019621599  0.4973321320155397
  0.8350431734655618  0.5071678657232676  0.7406108876224951
  0.6781734533563253  0.0046054740942511  0.4908714691196150
  0.0000037068677198  0.6654793996796159  0.5033641035515940
  0.1597067154227070  0.1597155178511675  0.7502625893809118
  0.1704346799386482  0.5030968743925656  0.2570260624786915
  0.4892623760977032  0.1624859869798058  0.7436194222955267
  0.3317745227803869  0.3311606019781447  0.0023770433379837
  0.3339019754255490  0.6725978434714280  0.0026740260103845
  0.8264323248144013  0.1637390407596910  0.7479585003563286
  0.3183536148982921 -0.0008910272637339  0.0193146473743994
  0.6837702281873047  0.6653159578523724 -0.0010969484378700
 -0.0059246261343702  0.3326452503089524  0.0012587662872213
  0.4955248898818755  0.1667940909496826  0.2536123279186898
  0.3285429245106289  0.3361218765700510  0.5023738616068443
  0.1627480333561818  0.4985135115740024  0.7546062892685940
  0.1729391405301938  0.8320069096059121  0.7514909446730421
  0.6679891329933968  0.3350520046021957  0.4958085871060759
  0.5024511631175383  0.5047961135807112  0.7515769779548259
  0.6676882071263158  0.3325424313541183  0.0014664515840182
  0.6617368558764977  0.6737257518979197  0.4982482672850241
  0.8468918500821629  0.8392473577737322  0.2442357481560215
  0.5045627591460250  0.5038835486188153  0.2520269226206165
  0.8376286539205419  0.1735886598259726  0.2347962501581022
  0.5092901878540965  0.8436290111250294  0.2450871357522410
  0.5147249251608482  0.8466172028902901  0.7566173703636220
  0.8499213496178530  0.8409209196414049  0.7475404655840455
  0.6375208915411322 -0.0156210946385307 -0.0064635858748344
  0.0099938410551857  0.6552656424052569 -0.0021639856931064
 -0.0061659661387166 -0.0072294331518095  0.5061200010584807
 -0.0176106544197159 -0.0068008732500311  0.0055491092598937
  0.1517462153656414  0.0787325362479737  0.0288319506068166
  0.1554432212249238  0.0777177646354167  0.4749962066449017
  0.1669290079197627  0.4090849625336647  0.0059366044037225
  0.4880385007948901  0.0898645433088107 -0.0052441737458977
  0.3228850220721909  0.2473610686419569  0.2525256188401826
  0.1578565019668652  0.4159079318627374  0.5006744163849645
  0.5198862564411785  0.0832764279147617  0.5001742200901291
  0.3292263285055489  0.2437832222801139  0.7502448167616294
  0.1699061745473808  0.7493767033037442  0.0144315738811128
  0.4984121846887031  0.4160082235285907  0.0006626682779698
  0.3356824161207683  0.5852385003592030  0.2426413993388785
  0.1692482222887686  0.7426575841744146  0.4970006236284669
  0.8130891405278157  0.0873566065064869 -0.0113271944978395
  0.6690536649925095  0.2508431579296098  0.2491867670598014
  0.4966877050817282  0.4175424901528850  0.5029432073196131
  0.3347941175668989  0.5858268750331965  0.7636187474473196
  0.8292656062956899  0.0824301792831760  0.4772963357423994
  0.6666564679458018  0.2518078762192539  0.7477902795900753
  0.5047183537241797  0.7549394747609502  0.0010863133126690
  0.3335167563814623  0.9081963474615011  0.2568489717002123
  0.8356367542152033  0.4168581264808640 -0.0340792216693116
  0.6757400254899713  0.5837153212887047  0.2444945771329057
  0.4985388471135916  0.7656523487560939  0.5008523158671531
  0.3387132040838712  0.9162241785524661  0.7585841863749336
  0.0055259826891970  0.2533278632650300  0.2568824506427533
  0.8432014823363317  0.4175284978814021  0.5136988180241359
  0.6779827352116075  0.5817561000853544  0.7491995278895145
 -0.0016033391636272  0.2463493490895233  0.7456985766810834
  0.8509288805552154  0.7499735848001828 -0.0030289981338291
  0.6822994410457871  0.9205173632577931  0.2668930324673155
 -0.0049317191935217  0.5756966785913192  0.2602410766278449
  0.8296248172493836  0.7549069196872453  0.4982906854794713
  0.6850394474314251  0.9206450939778819  0.7180623256064668
 -0.0081235225502181  0.5785969383861579  0.7374337001413612
  0.0260005615235579  0.9162058861284891  0.2582463167258179
  0.0173271067833886  0.9144231323590195  0.7599886569505752
  0.0780171507326983  0.1634763764558330 -0.0078925525880628
  0.0788652790921211  0.1631876052723784  0.5041390900809536
  0.0830877939291169  0.4888874312152569  0.0147532998584845
  0.4087692003182694  0.1655941959342398  0.0005933066461357
  0.2436006643037920  0.3322425087168744  0.2493792914710612
  0.0752793486142943  0.5005911335463430  0.5023655980817284
  0.4099399227357933  0.1473933585811473  0.5006488366356934
  0.2463699944224370  0.3284761437035422  0.7564443036029704
  0.0890026154328653  0.8323542928719693  0.0201407073422122
  0.4188205073789135  0.5089617913061456  0.0074907437325328
  0.2507359023228568  0.6675228236853189  0.2834923488659751
  0.0906417214557191  0.8277937724410155  0.4928159078576668
  0.7371218888058957  0.1519352356934131  0.0008852523857286
  0.5780043970700360  0.3356298696895801  0.2482607312089581
  0.4156200060850425  0.5061146631007989  0.4960770339605581
  0.2531431807983819  0.6636853583332474  0.7186077071338529
  0.7554164353612475  0.1700951315159809  0.4879305675019596
  0.5830162787132190  0.3265697739613299  0.7494163545297761
  0.4227332015913671  0.8318405217036047 -0.0000100786122619
  0.2331166962758984 -0.0178917490176324  0.2565825460795652
  0.7566576700696080  0.4991892421658269 -0.0029872767574318
  0.5866227807549703  0.6726121915395531  0.2344561520949951
  0.4180528746291081  0.8444890969348658  0.5034240580897876
  0.2553261474554270  0.0038217035219633  0.7484657331028054
  0.9204940704598885  0.3441323689882773  0.2603596536305292
  0.7577736028667863  0.5033615739884819  0.5033291109263323
  0.5871624291665808  0.6735660919001795  0.7644135614187570
  0.9191987382086080  0.3259854994769823  0.7438742552060295
  0.7601608629794226  0.8495453971676342 -0.0095690137934465
  0.5841019218533742  0.0097762722906130  0.2742837582303256
  0.9271768167481350  0.6676479278959152  0.2553283598122202
  0.7646917229739543  0.8305579159155956  0.5018060706048605
  0.5832038057183714  0.0143148754156204  0.7121071531087872
  0.9227337666052503  0.6662793442907409  0.7446444533914803
  0.9169714638997220  0.0112686029029866  0.2633614937436382
  0.9067661282446285  0.0159031989608098  0.7466617823257350
  0.1509549759124719  0.0154642819324111  0.1277797452169737
  0.1648508129702280 -0.0002005416607815  0.6259250984938560
  0.1599978484565928  0.3275937423185202  0.1282953708987431
  0.4790673105563064  0.0076400248207191  0.1258757153187827
  0.3205455294872428  0.1625219551909526  0.3750847813365201
  0.1561676964399537  0.3270045988305847  0.6258572453728639
  0.4681507130225951 -0.0069003063414986  0.6045424040420271
  0.3256746083146636  0.1603396389588837  0.8774341460962926
  0.1748964960289798  0.6658875927591476  0.1314162411584556
  0.4992067413820951  0.3361177340382165  0.1250228681750631
  0.3369369920468839  0.5111301706279904  0.3774458358264314
  0.1903918485522041  0.6641882720565934  0.6226526501772002
  0.8062889521385235  0.0088807851888495  0.1200459259586996
  0.6714925174864600  0.1629311526578164  0.3713638083734893
  0.4966893878954534  0.3351341382395310  0.6296722926864650
  0.3315899115553266  0.4990344029541273  0.8810958933961417
  0.8279392519994606  0.0061914623044480  0.6199236750835179
  0.6615397358530489  0.1564337397149266  0.8640063307053164
  0.4971612774520556  0.6705939369088313  0.1216705028851466
  0.3373791390022794  0.8372185160610883  0.3771917128316021
  0.8336665062676867  0.3520010199445845  0.1287231075072179
  0.6741235798532705  0.5057797577581075  0.3741715721579560
  0.4955126931372002  0.6778800187537729  0.6399077999815727
  0.3431510308529210  0.8388729812945932  0.8631658186781976
  0.0031578991232426  0.1640870422823561  0.3731660993618885
  0.8393195127303984  0.3366878600063876  0.6199900896485457
  0.6788513244128782  0.5029735685816814  0.8726157448549297
 -0.0010601169218899  0.1634350529833867  0.8811430254717029
  0.8431180667843142  0.6594923331522999  0.1266123609602395
  0.6772653326299241  0.8385395696159832  0.3657217472935187
 -0.0035633250687762  0.4971028271994370  0.3856070793092029
  0.8321940209755796  0.6670407404021313  0.6233462288314777
  0.6873065197923476  0.8198864770411671  0.8721518262593406
 -0.0110310620317915  0.4917235092584410  0.8714395817968547
  0.0129012629445829  0.8255307095990774  0.3747367072906205
  0.0075497240652585  0.8237313683857431  0.8837984738472303
  0.0793781896467265 -0.0146113325558857  0.2490292594668930
  0.0691826984979208 -0.0090899798967305  0.7599972229754935
  0.0830142029258944  0.3399564505988968  0.2533299877161636
  0.4137574679989259 -0.0004793777025847  0.2834991791059200
  0.2452329740619002  0.1644946654134469  0.5052650809884980
  0.0768602564698981  0.3286705577594000  0.7515417933588874
  0.4163346093459109 -0.0023833954363283  0.6981782288607769
  0.2431934917638915  0.1650085663295044 -0.0040367430648620
  0.0852226988295388  0.6628916687885340  0.2663910279276785
  0.4136939034681135  0.3370053227945038  0.2488730979474221
  0.2502160170958506  0.5153229040790415  0.5055759713967163
  0.0839882417967876  0.6652412953332936  0.7330987065079819
  0.7493477174108454  0.0059507856690965  0.2152947885578928
  0.5839867965753538  0.1536518483284434  0.5012244611141261
  0.4183857244097073  0.3328522899911659  0.7507376420791316
  0.2508069389377190  0.4925363327418704  0.0040072616105255
  0.7418066432035179 -0.0078873440838113  0.7620857565416324
  0.5707499138188841  0.1596995864308114 -0.0077566613409971
  0.4270322571020397  0.6746037833676676  0.2562966898352135
  0.2554963970441398  0.8232753363509089  0.4948617594174659
  0.7567673236339546  0.3394664118595450  0.2501323748469095
  0.5862148440721339  0.5026421479295259  0.5020506266607753
  0.4274945348521843  0.6787532131908314  0.7470147064190681
  0.2534696848566619  0.8331703629166498  0.0080378587157431
  0.9195341055876124  0.1692292534915729  0.5006399917739008
  0.7558064723599049  0.3354603897433004  0.7480404925519204
  0.5830460087389279  0.5088257848700253  0.0015252701544801
  0.9155072498520325  0.1651532606321598 -0.0190090549382190
  0.7623352623759682  0.6656121584026587  0.2613576706867842
  0.5802857629643033  0.8542546203332380  0.4982756922799769
  0.9173363144282536  0.4977315210732610  0.4898253846938336
  0.7597516246934035  0.6736477181462852  0.7374723694602242
  0.5851100640579261  0.8031419352045346  0.0032819993880372
  0.9157491570945526  0.4974863191916641  0.0252796013582377
  0.9292005964930170  0.8168271813989647  0.4942716861580084
  0.9294812295823506  0.8125786455389499 -0.0089999133333538
  0.0096154960811627  0.1651297735427549  0.1271841682610994
 -0.0026340023955612  0.1684113938738613  0.6201742098978245
 -0.0080872469346509  0.4938654989751051  0.1355558280212156
  0.3186138338810530  0.1674341513613760  0.1308343150346334
  0.1573740970010054  0.3278702014793388  0.3780976144063922
 -0.0023333752744381  0.4905278176131773  0.6229332821298508
  0.3261155708574407  0.1545489398219561  0.6173965061880683
  0.1628808263407505  0.3264591418514620  0.8805758197572396
  0.0155913212531128  0.8210373133779572  0.1283463629153050
  0.3365526435562610  0.5015787060999336  0.1314659346007617
  0.1845334468839930  0.6637667429871709  0.3837819955443597
  0.0106115367622844  0.8193595774077820  0.6193028435582660
  0.6672562239830802  0.1572795732642883  0.1154298151802989
  0.4986298316823437  0.3369619947964260  0.3710316491606674
  0.3303022927770822  0.5114166912551862  0.6249889867862418
  0.1764731372014819  0.6657248524666574  0.8762797072398284
  0.6645620851829089  0.1661116157171545  0.6219680842392643
  0.4975586267618382  0.3310278400285729  0.8765109367589879
  0.3330056547931791  0.8306579942330307  0.1429221519281914
  0.1579351364940973  0.0133428835435204  0.3767850189977064
  0.6777897271419417  0.5026232608555135  0.1266989993822207
  0.4951852038739100  0.6736201690102567  0.3600455352608794
  0.3458392419251924  0.8427616069815388  0.6180384079379179
  0.1596269503367542 -0.0009184073713932  0.8828932129521369
  0.8391982998310525  0.3384515608500624  0.3725805325445106
  0.6751220553145323  0.5066094396095100  0.6266093024860262
  0.4932694450589054  0.6741801914245640  0.8771899407665020
  0.8335168677472031  0.3507919579476976  0.8662005389784271
  0.6828607036905265  0.8232528283471030  0.1241106561355998
  0.4726114259186082 -0.0000993090227205  0.3831651259471012
  0.8325578139589906  0.6648913935493931  0.3743757637303123
  0.6803179307420411  0.8411208890050944  0.6221642475415952
  0.4663770001112419  0.0082539655597346  0.8680440426784137
  0.8427777080834258  0.6625493548690182  0.8734437629917454
  0.8364013128103480  0.0156385037016817  0.3707563830653615
  0.8068233462092116  0.0066170090605839  0.8701779359782540
  0.0058660908452977  0.0853741079514501  0.2556280265015042
 -0.0004421690920197  0.0813768674442605  0.7551005219777597
  0.0064573129390683  0.4170734476491887  0.2625059654149824
  0.3156192376079334  0.0813202465824455  0.2554213040571210
  0.1613005054949470  0.2499630755311410  0.4931938565371313
 -0.0101657584997092  0.4118518280576348  0.7382602955721705
  0.3271058002899556  0.0788388566273537  0.7579005522718579
  0.1630042930276280  0.2463523340600697  0.0113123313539621
  0.0055149006048375  0.7356536012809648  0.2560758835088566
  0.3330444229581994  0.4229375469693778  0.2471150520520350
  0.1503800767153108  0.5822396463106561  0.5030836031123844
  0.0064312771657545  0.7410224018321306  0.7402098647070525
  0.6663909709496785  0.0829582462987063  0.2494258955085343
  0.4975968837478976  0.2476297842728408  0.5059631043869781
  0.3329971573328298  0.4186330117308150  0.7578304929669670
  0.1768907356569475  0.5779135279160912  0.0105475571732402
  0.6530047388281279  0.0818258407727581  0.7425012856428613
  0.4962740872413426  0.2513242840783795 -0.0078182704318335
  0.3369741539486671  0.7496848132691764  0.2512693838024962
  0.1584593144452837  0.9094089968785990  0.4868455468549725
  0.6715571850762848  0.4224486370449904  0.2463276585991462
  0.4967162088283827  0.5871869513844926  0.5001569888014514
  0.3440331786899338  0.7547714644567880  0.7532125555731262
  0.1539522875362244  0.9128420975284532  0.0203066555512529
  0.8354328523974989  0.2494853016379054  0.4974919248761870
  0.6716123985188397  0.4206573154835505  0.7516139565416712
  0.4948819578276792  0.5836604081287037  0.0052078060307124
  0.8310710604535081  0.2549145401549641 -0.0177681166667903
  0.6764520201558595  0.7565248152062966  0.2495907994999598
  0.5251435388766778  0.9226031222885535  0.4993443425617733
  0.8441743632644685  0.5841801128372451  0.5004061504338981
  0.6830071540693188  0.7551074059120381  0.7548337713474800
  0.4657822867108456  0.9184640590221861 -0.0003837276311914
  0.8437714930823987  0.5737642109569988  0.0095563467440257
  0.8213901031825762  0.9202459290648302  0.4966415230918768
  0.8097337428564986  0.9189019879369856 -0.0066026310354772
 
  0.00000000E+00  0.00000000E+00  0.00000000E+00
  0.00000000E+00  0.00000000E+00  0.00000000E+00
  0.00000000E+00  0.00000000E+00  0.00000000E+00
  0.00000000E+00  0.00000000E+00  0.00000000E+00
  0.00000000E+00  0.00000000E+00  0.00000000E+00
  0.00000000E+00  0.00000000E+00  0.00000000E+00
  0.00000000E+00  0.00000000E+00  0.00000000E+00
  0.00000000E+00  0.00000000E+00  0.00000000E+00
  0.00000000E+00  0.00000000E+00  0.00000000E+00
  0.00000000E+00  0.00000000E+00  0.00000000E+00
  0.00000000E+00  0.00000000E+00  0.00000000E+00
  0.00000000E+00  0.00000000E+00  0.00000000E+00
  0.00000000E+00  0.00000000E+00  0.00000000E+00
  0.00000000E+00  0.00000000E+00  0.00000000E+00
  0.00000000E+00  0.00000000E+00  0.00000000E+00
  0.00000000E+00  0.00000000E+00  0.00000000E+00
  0.00000000E+00  0.00000000E+00  0.00000000E+00
  0.00000000E+00  0.00000000E+00  0.00000000E+00
  0.00000000E+00  0.00000000E+00  0.00000000E+00
  0.00000000E+00  0.00000000E+00  0.00000000E+00
  0.00000000E+00  0.00000000E+00  0.00000000E+00
  0.00000000E+00  0.00000000E+00  0.00000000E+00
  0.00000000E+00  0.00000000E+00  0.00000000E+00
  0.00000000E+00  0.00000000E+00  0.00000000E+00
  0.00000000E+00  0.00000000E+00  0.00000000E+00
  0.00000000E+00  0.00000000E+00  0.00000000E+00
  0.00000000E+00  0.00000000E+00  0.00000000E+00
  0.00000000E+00  0.00000000E+00  0.00000000E+00
  0.00000000E+00  0.00000000E+00  0.00000000E+00
  0.00000000E+00  0.00000000E+00  0.00000000E+00
  0.00000000E+00  0.00000000E+00  0.00000000E+00
  0.00000000E+00  0.00000000E+00  0.00000000E+00
  0.00000000E+00  0.00000000E+00  0.00000000E+00
  0.00000000E+00  0.00000000E+00  0.00000000E+00
  0.00000000E+00  0.00000000E+00  0.00000000E+00
  0.00000000E+00  0.00000000E+00  0.00000000E+00
  0.00000000E+00  0.00000000E+00  0.00000000E+00
  0.00000000E+00  0.00000000E+00  0.00000000E+00
  0.00000000E+00  0.00000000E+00  0.00000000E+00
  0.00000000E+00  0.00000000E+00  0.00000000E+00
  0.00000000E+00  0.00000000E+00  0.00000000E+00
  0.00000000E+00  0.00000000E+00  0.00000000E+00
  0.00000000E+00  0.00000000E+00  0.00000000E+00
  0.00000000E+00  0.00000000E+00  0.00000000E+00
  0.00000000E+00  0.00000000E+00  0.00000000E+00
  0.00000000E+00  0.00000000E+00  0.00000000E+00
  0.00000000E+00  0.00000000E+00  0.00000000E+00
  0.00000000E+00  0.00000000E+00  0.00000000E+00
  0.00000000E+00  0.00000000E+00  0.00000000E+00
  0.00000000E+00  0.00000000E+00  0.00000000E+00
  0.00000000E+00  0.00000000E+00  0.00000000E+00
  0.00000000E+00  0.00000000E+00  0.00000000E+00
  0.00000000E+00  0.00000000E+00  0.00000000E+00
  0.00000000E+00  0.00000000E+00  0.00000000E+00
  0.00000000E+00  0.00000000E+00  0.00000000E+00
  0.00000000E+00  0.00000000E+00  0.00000000E+00
  0.00000000E+00  0.00000000E+00  0.00000000E+00
  0.00000000E+00  0.00000000E+00  0.00000000E+00
  0.00000000E+00  0.00000000E+00  0.00000000E+00
  0.00000000E+00  0.00000000E+00  0.00000000E+00
  0.00000000E+00  0.00000000E+00  0.00000000E+00
  0.00000000E+00  0.00000000E+00  0.00000000E+00
  0.00000000E+00  0.00000000E+00  0.00000000E+00
  0.00000000E+00  0.00000000E+00  0.00000000E+00
  0.00000000E+00  0.00000000E+00  0.00000000E+00
  0.00000000E+00  0.00000000E+00  0.00000000E+00
  0.00000000E+00  0.00000000E+00  0.00000000E+00
  0.00000000E+00  0.00000000E+00  0.00000000E+00
  0.00000000E+00  0.00000000E+00  0.00000000E+00
  0.00000000E+00  0.00000000E+00  0.00000000E+00
  0.00000000E+00  0.00000000E+00  0.00000000E+00
  0.00000000E+00  0.00000000E+00  0.00000000E+00
  0.00000000E+00  0.00000000E+00  0.00000000E+00
  0.00000000E+00  0.00000000E+00  0.00000000E+00
  0.00000000E+00  0.00000000E+00  0.00000000E+00
  0.00000000E+00  0.00000000E+00  0.00000000E+00
  0.00000000E+00  0.00000000E+00  0.00000000E+00
  0.00000000E+00  0.00000000E+00  0.00000000E+00
  0.00000000E+00  0.00000000E+00  0.00000000E+00
  0.00000000E+00  0.00000000E+00  0.00000000E+00
  0.00000000E+00  0.00000000E+00  0.00000000E+00
  0.00000000E+00  0.00000000E+00  0.00000000E+00
  0.00000000E+00  0.00000000E+00  0.00000000E+00
  0.00000000E+00  0.00000000E+00  0.00000000E+00
  0.00000000E+00  0.00000000E+00  0.00000000E+00
  0.00000000E+00  0.00000000E+00  0.00000000E+00
  0.00000000E+00  0.00000000E+00  0.00000000E+00
  0.00000000E+00  0.00000000E+00  0.00000000E+00
  0.00000000E+00  0.00000000E+00  0.00000000E+00
  0.00000000E+00  0.00000000E+00  0.00000000E+00
  0.00000000E+00  0.00000000E+00  0.00000000E+00
  0.00000000E+00  0.00000000E+00  0.00000000E+00
  0.00000000E+00  0.00000000E+00  0.00000000E+00
  0.00000000E+00  0.00000000E+00  0.00000000E+00
  0.00000000E+00  0.00000000E+00  0.00000000E+00
  0.00000000E+00  0.00000000E+00  0.00000000E+00
  0.00000000E+00  0.00000000E+00  0.00000000E+00
  0.00000000E+00  0.00000000E+00  0.00000000E+00
  0.00000000E+00  0.00000000E+00  0.00000000E+00
  0.00000000E+00  0.00000000E+00  0.00000000E+00
  0.00000000E+00  0.00000000E+00  0.00000000E+00
  0.00000000E+00  0.00000000E+00  0.00000000E+00
  0.00000000E+00  0.00000000E+00  0.00000000E+00
  0.00000000E+00  0.00000000E+00  0.00000000E+00
  0.00000000E+00  0.00000000E+00  0.00000000E+00
  0.00000000E+00  0.00000000E+00  0.00000000E+00
  0.00000000E+00  0.00000000E+00  0.00000000E+00
  0.00000000E+00  0.00000000E+00  0.00000000E+00
  0.00000000E+00  0.00000000E+00  0.00000000E+00
  0.00000000E+00  0.00000000E+00  0.00000000E+00
  0.00000000E+00  0.00000000E+00  0.00000000E+00
  0.00000000E+00  0.00000000E+00  0.00000000E+00
  0.00000000E+00  0.00000000E+00  0.00000000E+00
  0.00000000E+00  0.00000000E+00  0.00000000E+00
  0.00000000E+00  0.00000000E+00  0.00000000E+00
  0.00000000E+00  0.00000000E+00  0.00000000E+00
  0.00000000E+00  0.00000000E+00  0.00000000E+00
  0.00000000E+00  0.00000000E+00  0.00000000E+00
  0.00000000E+00  0.00000000E+00  0.00000000E+00
  0.00000000E+00  0.00000000E+00  0.00000000E+00
  0.00000000E+00  0.00000000E+00  0.00000000E+00
  0.00000000E+00  0.00000000E+00  0.00000000E+00
  0.00000000E+00  0.00000000E+00  0.00000000E+00
  0.00000000E+00  0.00000000E+00  0.00000000E+00
  0.00000000E+00  0.00000000E+00  0.00000000E+00
  0.00000000E+00  0.00000000E+00  0.00000000E+00
  0.00000000E+00  0.00000000E+00  0.00000000E+00
  0.00000000E+00  0.00000000E+00  0.00000000E+00
  0.00000000E+00  0.00000000E+00  0.00000000E+00
  0.00000000E+00  0.00000000E+00  0.00000000E+00
  0.00000000E+00  0.00000000E+00  0.00000000E+00
  0.00000000E+00  0.00000000E+00  0.00000000E+00
  0.00000000E+00  0.00000000E+00  0.00000000E+00
  0.00000000E+00  0.00000000E+00  0.00000000E+00
  0.00000000E+00  0.00000000E+00  0.00000000E+00
  0.00000000E+00  0.00000000E+00  0.00000000E+00
  0.00000000E+00  0.00000000E+00  0.00000000E+00
  0.00000000E+00  0.00000000E+00  0.00000000E+00
  0.00000000E+00  0.00000000E+00  0.00000000E+00
  0.00000000E+00  0.00000000E+00  0.00000000E+00
  0.00000000E+00  0.00000000E+00  0.00000000E+00
  0.00000000E+00  0.00000000E+00  0.00000000E+00
  0.00000000E+00  0.00000000E+00  0.00000000E+00
  0.00000000E+00  0.00000000E+00  0.00000000E+00
  0.00000000E+00  0.00000000E+00  0.00000000E+00
  0.00000000E+00  0.00000000E+00  0.00000000E+00
  0.00000000E+00  0.00000000E+00  0.00000000E+00
  0.00000000E+00  0.00000000E+00  0.00000000E+00
  0.00000000E+00  0.00000000E+00  0.00000000E+00
  0.00000000E+00  0.00000000E+00  0.00000000E+00
  0.00000000E+00  0.00000000E+00  0.00000000E+00
  0.00000000E+00  0.00000000E+00  0.00000000E+00
  0.00000000E+00  0.00000000E+00  0.00000000E+00
  0.00000000E+00  0.00000000E+00  0.00000000E+00
  0.00000000E+00  0.00000000E+00  0.00000000E+00
  0.00000000E+00  0.00000000E+00  0.00000000E+00
  0.00000000E+00  0.00000000E+00  0.00000000E+00
  0.00000000E+00  0.00000000E+00  0.00000000E+00
  0.00000000E+00  0.00000000E+00  0.00000000E+00
  0.00000000E+00  0.00000000E+00  0.00000000E+00
  0.00000000E+00  0.00000000E+00  0.00000000E+00
  0.00000000E+00  0.00000000E+00  0.00000000E+00
  0.00000000E+00  0.00000000E+00  0.00000000E+00
  0.00000000E+00  0.00000000E+00  0.00000000E+00
  0.00000000E+00  0.00000000E+00  0.00000000E+00
  0.00000000E+00  0.00000000E+00  0.00000000E+00
  0.00000000E+00  0.00000000E+00  0.00000000E+00
  0.00000000E+00  0.00000000E+00  0.00000000E+00
  0.00000000E+00  0.00000000E+00  0.00000000E+00
  0.00000000E+00  0.00000000E+00  0.00000000E+00
  0.00000000E+00  0.00000000E+00  0.00000000E+00
  0.00000000E+00  0.00000000E+00  0.00000000E+00
  0.00000000E+00  0.00000000E+00  0.00000000E+00
  0.00000000E+00  0.00000000E+00  0.00000000E+00
  0.00000000E+00  0.00000000E+00  0.00000000E+00
  0.00000000E+00  0.00000000E+00  0.00000000E+00
  0.00000000E+00  0.00000000E+00  0.00000000E+00
  0.00000000E+00  0.00000000E+00  0.00000000E+00
  0.00000000E+00  0.00000000E+00  0.00000000E+00
  0.00000000E+00  0.00000000E+00  0.00000000E+00
  0.00000000E+00  0.00000000E+00  0.00000000E+00
  0.00000000E+00  0.00000000E+00  0.00000000E+00
  0.00000000E+00  0.00000000E+00  0.00000000E+00
  0.00000000E+00  0.00000000E+00  0.00000000E+00
  0.00000000E+00  0.00000000E+00  0.00000000E+00
  0.00000000E+00  0.00000000E+00  0.00000000E+00
  0.00000000E+00  0.00000000E+00  0.00000000E+00
  0.00000000E+00  0.00000000E+00  0.00000000E+00
  0.00000000E+00  0.00000000E+00  0.00000000E+00
  0.00000000E+00  0.00000000E+00  0.00000000E+00
  0.00000000E+00  0.00000000E+00  0.00000000E+00
  0.00000000E+00  0.00000000E+00  0.00000000E+00
  0.00000000E+00  0.00000000E+00  0.00000000E+00
  0.00000000E+00  0.00000000E+00  0.00000000E+00
  0.00000000E+00  0.00000000E+00  0.00000000E+00
  0.00000000E+00  0.00000000E+00  0.00000000E+00
  0.00000000E+00  0.00000000E+00  0.00000000E+00
  0.00000000E+00  0.00000000E+00  0.00000000E+00
  0.00000000E+00  0.00000000E+00  0.00000000E+00
  0.00000000E+00  0.00000000E+00  0.00000000E+00
  0.00000000E+00  0.00000000E+00  0.00000000E+00
  0.00000000E+00  0.00000000E+00  0.00000000E+00
  0.00000000E+00  0.00000000E+00  0.00000000E+00
  0.00000000E+00  0.00000000E+00  0.00000000E+00
  0.00000000E+00  0.00000000E+00  0.00000000E+00
  0.00000000E+00  0.00000000E+00  0.00000000E+00
  0.00000000E+00  0.00000000E+00  0.00000000E+00
  0.00000000E+00  0.00000000E+00  0.00000000E+00
  0.00000000E+00  0.00000000E+00  0.00000000E+00
  0.00000000E+00  0.00000000E+00  0.00000000E+00
  0.00000000E+00  0.00000000E+00  0.00000000E+00
  0.00000000E+00  0.00000000E+00  0.00000000E+00
  0.00000000E+00  0.00000000E+00  0.00000000E+00
  0.00000000E+00  0.00000000E+00  0.00000000E+00
  0.00000000E+00  0.00000000E+00  0.00000000E+00
  0.00000000E+00  0.00000000E+00  0.00000000E+00
  0.00000000E+00  0.00000000E+00  0.00000000E+00
  0.00000000E+00  0.00000000E+00  0.00000000E+00
  0.00000000E+00  0.00000000E+00  0.00000000E+00
  0.00000000E+00  0.00000000E+00  0.00000000E+00
  0.00000000E+00  0.00000000E+00  0.00000000E+00
  0.00000000E+00  0.00000000E+00  0.00000000E+00
  0.00000000E+00  0.00000000E+00  0.00000000E+00
  0.00000000E+00  0.00000000E+00  0.00000000E+00
  0.00000000E+00  0.00000000E+00  0.00000000E+00
  0.00000000E+00  0.00000000E+00  0.00000000E+00
  0.00000000E+00  0.00000000E+00  0.00000000E+00
  0.00000000E+00  0.00000000E+00  0.00000000E+00
  0.00000000E+00  0.00000000E+00  0.00000000E+00
  0.00000000E+00  0.00000000E+00  0.00000000E+00
  0.00000000E+00  0.00000000E+00  0.00000000E+00
  0.00000000E+00  0.00000000E+00  0.00000000E+00
  0.00000000E+00  0.00000000E+00  0.00000000E+00
  0.00000000E+00  0.00000000E+00  0.00000000E+00
  0.00000000E+00  0.00000000E+00  0.00000000E+00
  0.00000000E+00  0.00000000E+00  0.00000000E+00
  0.00000000E+00  0.00000000E+00  0.00000000E+00
  0.00000000E+00  0.00000000E+00  0.00000000E+00
  0.00000000E+00  0.00000000E+00  0.00000000E+00
  0.00000000E+00  0.00000000E+00  0.00000000E+00
  0.00000000E+00  0.00000000E+00  0.00000000E+00
  0.00000000E+00  0.00000000E+00  0.00000000E+00
  0.00000000E+00  0.00000000E+00  0.00000000E+00
  0.00000000E+00  0.00000000E+00  0.00000000E+00
  0.00000000E+00  0.00000000E+00  0.00000000E+00
  0.00000000E+00  0.00000000E+00  0.00000000E+00
  0.00000000E+00  0.00000000E+00  0.00000000E+00
  0.00000000E+00  0.00000000E+00  0.00000000E+00
  0.00000000E+00  0.00000000E+00  0.00000000E+00
  0.00000000E+00  0.00000000E+00  0.00000000E+00
  0.00000000E+00  0.00000000E+00  0.00000000E+00
  0.00000000E+00  0.00000000E+00  0.00000000E+00
