POSCAR                                  
   1.00000000000000     
    10.3284776975580375   -0.0651375606659843    0.0356497350955181
    -0.0652856382880766   10.2837933229747929    0.0308600594747360
     0.0238422924791732    0.0207991002226541    6.8861949836653489
   Sc   Zr   Y    K    H 
     9     9     9     9   216
Direct
  0.1575475200932601  0.1608584645206932  0.2571800065803060
  0.1696582118195593  0.8287354774481130  0.2572129061115049
  0.3520446142109037  0.6748217065280215  0.4929846601889381
  0.3137308922478184  0.9975865591281234  0.4970303428309393
  0.8348812470407765  0.4996351106566976  0.2562974246856200
  0.9989548923410538  0.3290372633573497  0.4991818158600907
  0.8363855653895484  0.5028601673194899  0.7418429739066070
  0.6762309288914921  0.0089525546646030  0.4956246965465141
  0.9998966877931039  0.6644481184790791  0.4987275554384070
  0.1589685213988261  0.1622867833908970  0.7525643685727559
  0.1694171880566913  0.5020863986448703  0.2571450804079376
  0.4910472499656962  0.1639033608644738  0.7431843301845049
  0.3307893457678261  0.3304162525699397  0.0055233721757801
  0.3337451231686046  0.6725969169193320  0.0045121672767721
  0.8252134651380771  0.1652276149764376  0.7533772750736532
  0.3198849557582903  0.0002875463126912  0.0075686536240198
  0.6845285739710931  0.6662162870674777  0.9937807531643870
  0.9942606842198387  0.3310496118146062  0.0046702528118843
  0.4945376747321077  0.1677419637639375  0.2541215457679300
  0.3267227735989238  0.3360453467379543  0.5011380323691910
  0.1639643891969342  0.4980827062823181  0.7529883206234516
  0.1726835007992449  0.8284699609128765  0.7499733433905291
  0.6668411590955969  0.3346614084449655  0.4963623237821011
  0.5016675344464119  0.5054806606220552  0.7490256515268925
  0.6653926602402791  0.3331610661280919  0.0016068398051630
  0.6652939807512581  0.6707939825479130  0.4950941441945318
  0.8456116165568375  0.8378615919544714  0.2369728775478279
  0.5043670037791088  0.5045531041268703  0.2491463736000057
  0.8369182967721969  0.1715309376316796  0.2400694625220439
  0.5103208626173412  0.8458420700174543  0.2400266118395322
  0.5140910904318119  0.8456653395905391  0.7513432498405308
  0.8508497623501441  0.8438750455902024  0.7362450230637592
  0.6380768722539258  0.9834484866120263  0.9982034587343520
  0.0113271476840424  0.6565669096876832  0.9949480002410240
  0.9904214111795042  0.9891186914081871  0.5203789897255149
  0.9830056870488733  0.9943022281663474  0.0172193381042831
  0.1532308861171146  0.0791660473356117  0.0185499471256207
  0.1533386099837486  0.0762418128471509  0.4889069177278955
  0.1669026904728312  0.4081297003198756  0.0086008884736515
  0.4869282333041056  0.0888284361597584  0.9963280742253886
  0.3187873511167965  0.2457236841385608  0.2531781698068016
  0.1573900896930809  0.4150595091422389  0.4995700626060184
  0.5164090747717651  0.0840457587280383  0.5010372833961938
  0.3304758935197825  0.2452702240822262  0.7494066744446712
  0.1696279031715235  0.7513657230077371  0.0151686917895688
  0.4969540136511270  0.4180354513102174  0.9981057162568661
  0.3353069928727592  0.5879810930584810  0.2451246559322158
  0.1688952299833346  0.7436563459242009  0.4950225927313312
  0.8129450007478383  0.0849615107458774  0.9941671141739050
  0.6709790959714965  0.2518709840019966  0.2509787655797879
  0.4964600147721256  0.4171444416673751  0.4995619553574073
  0.3342485132434518  0.5855983313782076  0.7650552309232381
  0.8301254855802540  0.0841785086298685  0.4834974031641366
  0.6676690503285201  0.2529632118508474  0.7486955805165678
  0.5142305554781359  0.7531879790406819  0.9975546598145684
  0.3308606336094684  0.9122555150028973  0.2580847151888506
  0.8320715289690739  0.4205402007229111  0.9837439473171727
  0.6770013493823086  0.5808675000699210  0.2413854347684818
  0.5019504058792847  0.7654236599956761  0.4966860826892443
  0.3384198047096874  0.9156114301815066  0.7484015337007719
  0.0071713568918526  0.2495525116522757  0.2619910710747888
  0.8420535788172714  0.4189086387727343  0.5057644684072145
  0.6782875635181540  0.5806992153703447  0.7471185183316322
  0.9921385541378953  0.2495089480307016  0.7489261340233284
  0.8482848186820533  0.7486887220705256  0.9877280819163019
  0.6841394225108033  0.9260476692474811  0.2740521112061387
  0.9967810529923966  0.5795394210808951  0.2590833314555212
  0.8367374453217593  0.7504189473769998  0.4924981730643196
  0.6836303530717984  0.9228519252211527  0.7254735941243382
  0.9942261590150281  0.5756162198174195  0.7396642505514066
  0.0207576480186233  0.9127873321965438  0.2732019790723967
  0.0189029615834428  0.9132484976275705  0.7794976249333203
  0.0771007668136647  0.1617006571209956  0.0008214555174106
  0.0768813067284384  0.1597686018540330  0.5072905923933462
  0.0832573812721122  0.4886882512141781  0.0117554892864291
  0.4099407728415372  0.1641328296803408  0.9996873486584263
  0.2408354407673201  0.3303871015183049  0.2505683717985434
  0.0751838144275325  0.4999940678313095  0.5008626465022630
  0.4082500944781131  0.1492439531556897  0.5014774270000544
  0.2471373881955117  0.3268302287734315  0.7580355012440165
  0.0912322521558337  0.8308640535060690  0.0188847842835429
  0.4182454295251077  0.5114270925575113  0.0049915914471299
  0.2510651852558681  0.6707659066648688  0.2819280102987989
  0.0899341010188763  0.8258851865226760  0.4979204732088860
  0.7392499471452112  0.1562274393181440  0.0003144743403212
  0.5783521757936256  0.3366885429416229  0.2481639589960736
  0.4162713224220127  0.5087749707476732  0.4949603548833181
  0.2549809888285353  0.6629784557415945  0.7133111054080672
  0.7576046147890594  0.1688076402188585  0.4942000343152202
  0.5810570085526905  0.3302380695694538  0.7511198851740133
  0.4200530009850283  0.8374405119114030  0.9973952952888467
  0.2396582177242692  0.9932814537241086  0.2574354598964916
  0.7555878579291502  0.4959701403418180  0.9910820269542810
  0.5882979950657088  0.6744653333337780  0.2346174020207101
  0.4204000945029449  0.8420880617828530  0.4970094590814611
  0.2494771159406284  0.0038641596017470  0.7526317747110696
  0.9206522944846043  0.3413131715170437  0.2620455649828557
  0.7572949607988093  0.5004381671351794  0.5016149576300180
  0.5885054621584587  0.6734014273214228  0.7603297313624040
  0.9191650433883396  0.3289252662467064  0.7448538294562113
  0.7621437225173651  0.8488638520909149  0.9821314530940626
  0.5842515037380025  0.0117569039448000  0.2817517833661753
  0.9254731083500971  0.6633063728785160  0.2511111100437446
  0.7612234877070208  0.8433599444746420  0.4952273771792761
  0.5825085096789451  0.0158926369933141  0.7184647830149089
  0.9228928467497823  0.6688052157986490  0.7452659686615206
  0.9191623653048993  0.0106909564156936  0.2764238758867563
  0.9125791964295331  0.0200185148962575  0.7674272208251978
  0.1546901824997491  0.9987501050437899  0.1355949144491930
  0.1631931903098973  0.0008714808189652  0.6291302292269094
  0.1614995504896442  0.3277542301181526  0.1329786127641626
  0.4759032543711186  0.0097576981791079  0.1247680799138990
  0.3207722392580408  0.1595102811486626  0.3782458433180338
  0.1548663554775516  0.3264753998925798  0.6271533872316724
  0.4723379360832567  0.9953382674208981  0.6060206427944408
  0.3244043103564493  0.1654063100991578  0.8763745143669723
  0.1744447844259795  0.6681971017829369  0.1302793867756264
  0.4966701721667519  0.3356596463203516  0.1259640468256080
  0.3356319275257960  0.5105679992961001  0.3747427751531944
  0.1927721134741205  0.6623965831394969  0.6195696518461418
  0.8048863585380701  0.0110524984330667  0.1195904753222194
  0.6683233150369006  0.1652811379317782  0.3727326903856820
  0.4954700463413744  0.3358985181332486  0.6287811604397433
  0.3321899503378916  0.4994869094343954  0.8810626622961450
  0.8214546720589979  0.0134719521563937  0.6245764379340315
  0.6609603016545336  0.1537970009708332  0.8710787717628534
  0.4970338016077562  0.6728014960335784  0.1194333314374916
  0.3391743601373562  0.8406709882349759  0.3740812948079153
  0.8315688883821650  0.3460494315931655  0.1297643331755793
  0.6751221893650552  0.5046531729072967  0.3678327395727905
  0.4966487879761559  0.6781006399943692  0.6334992087397850
  0.3432130921777343  0.8321631930844120  0.8606656010684191
  0.0006890459494571  0.1627565060742384  0.3806030255850601
  0.8392774818649542  0.3387602735200090  0.6241472819157181
  0.6775596435919766  0.5048993571602836  0.8723406175226316
  0.0048688103733880  0.1638002708981290  0.8882763069761950
  0.8447534183173602  0.6586028800904771  0.1215873349062448
  0.6754311363647503  0.8326076721235367  0.3603632523859943
  0.9992882115890609  0.4948626026031562  0.3804338482951195
  0.8327762022665155  0.6672478975839979  0.6201377129160974
  0.6878377979473598  0.8210218858885625  0.8676293832184214
  0.9895132534224373  0.4924059055199237  0.8726428212417972
  0.0073810962646093  0.8293022339425846  0.3743843712486594
  0.0030299957469850  0.8310245065629616  0.8845760161233045
  0.0801457093593498  0.9924978429632887  0.2565828023761583
  0.0737338988376663  0.9916993640140888  0.7682249497070970
  0.0818335913855606  0.3385433089468961  0.2547180755547984
  0.4149044157529929  0.9991595893386673  0.2889973304707354
  0.2450633604224493  0.1631737737185261  0.5071736580358674
  0.0777329842137178  0.3277272338613244  0.7537639037235593
  0.4177673028848758  0.9974061869927766  0.7023839733193071
  0.2433587440962128  0.1656766141968404  0.0025682442823438
  0.0843560134297476  0.6654801900755203  0.2647059623433350
  0.4139746977073528  0.3375365797511165  0.2515278014179287
  0.2509076774646530  0.5163702412974018  0.5031225856834922
  0.0838028907249679  0.6630603867397156  0.7279626124357250
  0.7502677779559690  0.9989521426040042  0.2191400270841584
  0.5857903113059351  0.1554591084399348  0.5006477514491934
  0.4170550693899386  0.3322845239839012  0.7502333622884336
  0.2489813516212962  0.4938119240282646  0.0030410939060204
  0.7388756978717907  0.9875355755759827  0.7581545077033525
  0.5736790081585781  0.1616226682689685  0.9923825611091743
  0.4284160283515419  0.6762812480263563  0.2498200315200165
  0.2546906082563893  0.8218601263638448  0.4938578243646532
  0.7563472522340717  0.3381580732418072  0.2476980080540372
  0.5850981889319371  0.5016972850965331  0.4989048720384233
  0.4272613546345312  0.6791504974660256  0.7434538195039835
  0.2517177963083910  0.8339487298858614  0.0050585099557878
  0.9176067507255610  0.1663501178372755  0.5037489353908526
  0.7547060594057768  0.3394457949372125  0.7498893361266283
  0.5818222840561305  0.5097988463314707  0.9982298582129943
  0.9121019235171275  0.1645146091518797  0.9847353061429942
  0.7602711425911295  0.6668633602690122  0.2525130928586066
  0.5831233691000364  0.8539093632644352  0.4935806285156161
  0.9169340231865135  0.4974794497375399  0.4952448595174417
  0.7615128619930402  0.6709049682996024  0.7373631385316415
  0.5845407666332889  0.8050607220107011  0.9956618038170575
  0.9170129306681361  0.4983181078362691  0.0084159637892611
  0.9270019352452081  0.8144465885371517  0.4794116541417708
  0.9317288574553189  0.8151002570360077  0.9810223743841178
  0.0080375882541972  0.1660592529930582  0.1334775569036850
  0.9992731342953292  0.1664648100249480  0.6271494723757556
  0.9940005177485958  0.4934159951479273  0.1347478755477454
  0.3195399812504718  0.1646219330565302  0.1327515594221609
  0.1572097630670442  0.3207657470990313  0.3787693794712297
  0.9967186522740974  0.4915485644805671  0.6204026197985186
  0.3268114750869628  0.1568352673443627  0.6216798461072841
  0.1623391539023373  0.3272760391595213  0.8828411547764645
  0.0175549703324620  0.8191396760936627  0.1300539410211599
  0.3354583083070537  0.5006981283662242  0.1302526623846489
  0.1825630404781222  0.6670211830682788  0.3807438165864738
  0.0146265897448785  0.8145570653396703  0.6194072660164593
  0.6671646470157100  0.1522854433272016  0.1236431641704741
  0.4960862088298370  0.3386260100520531  0.3720193254912729
  0.3312359441060835  0.5126836784241746  0.6230041181106998
  0.1790597784386421  0.6638872772883602  0.8769727014340987
  0.6619508915624195  0.1655568324501644  0.6214490073505843
  0.4955625323124480  0.3302822093978435  0.8750523152637157
  0.3342373756454080  0.8329977400177384  0.1389891135045644
  0.1583198514920454  0.0040317710294104  0.3848528919182286
  0.6784461630650540  0.5064003927697414  0.1226170722895290
  0.5006263020005477  0.6751342774578006  0.3574974824456376
  0.3449370495318078  0.8401972331098904  0.6182563377687771
  0.1574227319288823  0.9979632906047371  0.8882326760307251
  0.8394412776050757  0.3375650432287998  0.3764934883529847
  0.6771132594971832  0.5054004882417118  0.6268784149684592
  0.4902245463456651  0.6758944757944150  0.8721810755963872
  0.8334177994923522  0.3458104165215232  0.8675203731501355
  0.6835851689973822  0.8214591641425883  0.1182532199182589
  0.4741997410873040  0.9987061291642831  0.3819643786621469
  0.8334276936954339  0.6643603586967899  0.3697180447971533
  0.6802283922818333  0.8313099280763510  0.6235076708769824
  0.4730793118988359  0.0080369658562560  0.8686531467837000
  0.8451774117576036  0.6647438615075671  0.8664111305034652
  0.8371326766647442  0.0119154507333903  0.3746225495900504
  0.8092338434612429  0.0065485694218737  0.8735418458676492
  0.9995063399158610  0.0793730860536854  0.2690150442568608
  0.9895019000285075  0.0798379059731147  0.7650272108782730
  0.0017630290846427  0.4165854333275334  0.2624905780684870
  0.3206746647092018  0.0808163867405298  0.2536138849677272
  0.1592951857882454  0.2490082511773295  0.4895672454131486
  0.9927466858252885  0.4132025037650706  0.7403305372713973
  0.3289854703777522  0.0805874623624376  0.7538847180691945
  0.1613569407935884  0.2465691617594530  0.0220056402669115
  0.0119370107901631  0.7412218645070041  0.2499831479348273
  0.3321389251481861  0.4233429268327811  0.2486643830045736
  0.1503335419188616  0.5830899692951945  0.5011545129568020
  0.0016542687704728  0.7376871585264198  0.7338133327903975
  0.6636486510039390  0.0877960076517184  0.2388402540803796
  0.4963908992586994  0.2486777495877632  0.5056508200138055
  0.3335284863077987  0.4184238736136834  0.7574374937876982
  0.1765746666949823  0.5763454932590690  0.0100692339065489
  0.6584117920661541  0.0851557013872508  0.7583006096935492
  0.4946753538912247  0.2522461896209478  0.9929257269496929
  0.3362608507040434  0.7536387113666621  0.2487021172264079
  0.1589670259210578  0.9093825581152402  0.4897439169565274
  0.6721343548794252  0.4206012195653912  0.2477817424829851
  0.4980988657912846  0.5868098622485434  0.4956351403869590
  0.3442897089345678  0.7535099955173052  0.7515368608303845
  0.1551186995543219  0.9152324626545933  0.0086511856356850
  0.8353650623693980  0.2512107355587077  0.5003469388295940
  0.6702907090440462  0.4180749085913433  0.7499988855794442
  0.4971348608353665  0.5838238623206351  0.0015701162213304
  0.8307480647546939  0.2546644945274394  0.9899101234004704
  0.6738118311295480  0.7588156285236707  0.2519947196225942
  0.5264251199679322  0.9209202303351489  0.4954061765067266
  0.8428956898520852  0.5845454318718737  0.4937230101877930
  0.6816678953180713  0.7617853157529524  0.7393252469758735
  0.4680781124563751  0.9168096623724438  0.9930375500131348
  0.8435657622707993  0.5788305319071014  0.0059668236318728
  0.8163131411014035  0.9177556188203724  0.4829260112449276
  0.8109989624962282  0.9192635987188851  0.9831801447972595
 
  0.00000000E+00  0.00000000E+00  0.00000000E+00
  0.00000000E+00  0.00000000E+00  0.00000000E+00
  0.00000000E+00  0.00000000E+00  0.00000000E+00
  0.00000000E+00  0.00000000E+00  0.00000000E+00
  0.00000000E+00  0.00000000E+00  0.00000000E+00
  0.00000000E+00  0.00000000E+00  0.00000000E+00
  0.00000000E+00  0.00000000E+00  0.00000000E+00
  0.00000000E+00  0.00000000E+00  0.00000000E+00
  0.00000000E+00  0.00000000E+00  0.00000000E+00
  0.00000000E+00  0.00000000E+00  0.00000000E+00
  0.00000000E+00  0.00000000E+00  0.00000000E+00
  0.00000000E+00  0.00000000E+00  0.00000000E+00
  0.00000000E+00  0.00000000E+00  0.00000000E+00
  0.00000000E+00  0.00000000E+00  0.00000000E+00
  0.00000000E+00  0.00000000E+00  0.00000000E+00
  0.00000000E+00  0.00000000E+00  0.00000000E+00
  0.00000000E+00  0.00000000E+00  0.00000000E+00
  0.00000000E+00  0.00000000E+00  0.00000000E+00
  0.00000000E+00  0.00000000E+00  0.00000000E+00
  0.00000000E+00  0.00000000E+00  0.00000000E+00
  0.00000000E+00  0.00000000E+00  0.00000000E+00
  0.00000000E+00  0.00000000E+00  0.00000000E+00
  0.00000000E+00  0.00000000E+00  0.00000000E+00
  0.00000000E+00  0.00000000E+00  0.00000000E+00
  0.00000000E+00  0.00000000E+00  0.00000000E+00
  0.00000000E+00  0.00000000E+00  0.00000000E+00
  0.00000000E+00  0.00000000E+00  0.00000000E+00
  0.00000000E+00  0.00000000E+00  0.00000000E+00
  0.00000000E+00  0.00000000E+00  0.00000000E+00
  0.00000000E+00  0.00000000E+00  0.00000000E+00
  0.00000000E+00  0.00000000E+00  0.00000000E+00
  0.00000000E+00  0.00000000E+00  0.00000000E+00
  0.00000000E+00  0.00000000E+00  0.00000000E+00
  0.00000000E+00  0.00000000E+00  0.00000000E+00
  0.00000000E+00  0.00000000E+00  0.00000000E+00
  0.00000000E+00  0.00000000E+00  0.00000000E+00
  0.00000000E+00  0.00000000E+00  0.00000000E+00
  0.00000000E+00  0.00000000E+00  0.00000000E+00
  0.00000000E+00  0.00000000E+00  0.00000000E+00
  0.00000000E+00  0.00000000E+00  0.00000000E+00
  0.00000000E+00  0.00000000E+00  0.00000000E+00
  0.00000000E+00  0.00000000E+00  0.00000000E+00
  0.00000000E+00  0.00000000E+00  0.00000000E+00
  0.00000000E+00  0.00000000E+00  0.00000000E+00
  0.00000000E+00  0.00000000E+00  0.00000000E+00
  0.00000000E+00  0.00000000E+00  0.00000000E+00
  0.00000000E+00  0.00000000E+00  0.00000000E+00
  0.00000000E+00  0.00000000E+00  0.00000000E+00
  0.00000000E+00  0.00000000E+00  0.00000000E+00
  0.00000000E+00  0.00000000E+00  0.00000000E+00
  0.00000000E+00  0.00000000E+00  0.00000000E+00
  0.00000000E+00  0.00000000E+00  0.00000000E+00
  0.00000000E+00  0.00000000E+00  0.00000000E+00
  0.00000000E+00  0.00000000E+00  0.00000000E+00
  0.00000000E+00  0.00000000E+00  0.00000000E+00
  0.00000000E+00  0.00000000E+00  0.00000000E+00
  0.00000000E+00  0.00000000E+00  0.00000000E+00
  0.00000000E+00  0.00000000E+00  0.00000000E+00
  0.00000000E+00  0.00000000E+00  0.00000000E+00
  0.00000000E+00  0.00000000E+00  0.00000000E+00
  0.00000000E+00  0.00000000E+00  0.00000000E+00
  0.00000000E+00  0.00000000E+00  0.00000000E+00
  0.00000000E+00  0.00000000E+00  0.00000000E+00
  0.00000000E+00  0.00000000E+00  0.00000000E+00
  0.00000000E+00  0.00000000E+00  0.00000000E+00
  0.00000000E+00  0.00000000E+00  0.00000000E+00
  0.00000000E+00  0.00000000E+00  0.00000000E+00
  0.00000000E+00  0.00000000E+00  0.00000000E+00
  0.00000000E+00  0.00000000E+00  0.00000000E+00
  0.00000000E+00  0.00000000E+00  0.00000000E+00
  0.00000000E+00  0.00000000E+00  0.00000000E+00
  0.00000000E+00  0.00000000E+00  0.00000000E+00
  0.00000000E+00  0.00000000E+00  0.00000000E+00
  0.00000000E+00  0.00000000E+00  0.00000000E+00
  0.00000000E+00  0.00000000E+00  0.00000000E+00
  0.00000000E+00  0.00000000E+00  0.00000000E+00
  0.00000000E+00  0.00000000E+00  0.00000000E+00
  0.00000000E+00  0.00000000E+00  0.00000000E+00
  0.00000000E+00  0.00000000E+00  0.00000000E+00
  0.00000000E+00  0.00000000E+00  0.00000000E+00
  0.00000000E+00  0.00000000E+00  0.00000000E+00
  0.00000000E+00  0.00000000E+00  0.00000000E+00
  0.00000000E+00  0.00000000E+00  0.00000000E+00
  0.00000000E+00  0.00000000E+00  0.00000000E+00
  0.00000000E+00  0.00000000E+00  0.00000000E+00
  0.00000000E+00  0.00000000E+00  0.00000000E+00
  0.00000000E+00  0.00000000E+00  0.00000000E+00
  0.00000000E+00  0.00000000E+00  0.00000000E+00
  0.00000000E+00  0.00000000E+00  0.00000000E+00
  0.00000000E+00  0.00000000E+00  0.00000000E+00
  0.00000000E+00  0.00000000E+00  0.00000000E+00
  0.00000000E+00  0.00000000E+00  0.00000000E+00
  0.00000000E+00  0.00000000E+00  0.00000000E+00
  0.00000000E+00  0.00000000E+00  0.00000000E+00
  0.00000000E+00  0.00000000E+00  0.00000000E+00
  0.00000000E+00  0.00000000E+00  0.00000000E+00
  0.00000000E+00  0.00000000E+00  0.00000000E+00
  0.00000000E+00  0.00000000E+00  0.00000000E+00
  0.00000000E+00  0.00000000E+00  0.00000000E+00
  0.00000000E+00  0.00000000E+00  0.00000000E+00
  0.00000000E+00  0.00000000E+00  0.00000000E+00
  0.00000000E+00  0.00000000E+00  0.00000000E+00
  0.00000000E+00  0.00000000E+00  0.00000000E+00
  0.00000000E+00  0.00000000E+00  0.00000000E+00
  0.00000000E+00  0.00000000E+00  0.00000000E+00
  0.00000000E+00  0.00000000E+00  0.00000000E+00
  0.00000000E+00  0.00000000E+00  0.00000000E+00
  0.00000000E+00  0.00000000E+00  0.00000000E+00
  0.00000000E+00  0.00000000E+00  0.00000000E+00
  0.00000000E+00  0.00000000E+00  0.00000000E+00
  0.00000000E+00  0.00000000E+00  0.00000000E+00
  0.00000000E+00  0.00000000E+00  0.00000000E+00
  0.00000000E+00  0.00000000E+00  0.00000000E+00
  0.00000000E+00  0.00000000E+00  0.00000000E+00
  0.00000000E+00  0.00000000E+00  0.00000000E+00
  0.00000000E+00  0.00000000E+00  0.00000000E+00
  0.00000000E+00  0.00000000E+00  0.00000000E+00
  0.00000000E+00  0.00000000E+00  0.00000000E+00
  0.00000000E+00  0.00000000E+00  0.00000000E+00
  0.00000000E+00  0.00000000E+00  0.00000000E+00
  0.00000000E+00  0.00000000E+00  0.00000000E+00
  0.00000000E+00  0.00000000E+00  0.00000000E+00
  0.00000000E+00  0.00000000E+00  0.00000000E+00
  0.00000000E+00  0.00000000E+00  0.00000000E+00
  0.00000000E+00  0.00000000E+00  0.00000000E+00
  0.00000000E+00  0.00000000E+00  0.00000000E+00
  0.00000000E+00  0.00000000E+00  0.00000000E+00
  0.00000000E+00  0.00000000E+00  0.00000000E+00
  0.00000000E+00  0.00000000E+00  0.00000000E+00
  0.00000000E+00  0.00000000E+00  0.00000000E+00
  0.00000000E+00  0.00000000E+00  0.00000000E+00
  0.00000000E+00  0.00000000E+00  0.00000000E+00
  0.00000000E+00  0.00000000E+00  0.00000000E+00
  0.00000000E+00  0.00000000E+00  0.00000000E+00
  0.00000000E+00  0.00000000E+00  0.00000000E+00
  0.00000000E+00  0.00000000E+00  0.00000000E+00
  0.00000000E+00  0.00000000E+00  0.00000000E+00
  0.00000000E+00  0.00000000E+00  0.00000000E+00
  0.00000000E+00  0.00000000E+00  0.00000000E+00
  0.00000000E+00  0.00000000E+00  0.00000000E+00
  0.00000000E+00  0.00000000E+00  0.00000000E+00
  0.00000000E+00  0.00000000E+00  0.00000000E+00
  0.00000000E+00  0.00000000E+00  0.00000000E+00
  0.00000000E+00  0.00000000E+00  0.00000000E+00
  0.00000000E+00  0.00000000E+00  0.00000000E+00
  0.00000000E+00  0.00000000E+00  0.00000000E+00
  0.00000000E+00  0.00000000E+00  0.00000000E+00
  0.00000000E+00  0.00000000E+00  0.00000000E+00
  0.00000000E+00  0.00000000E+00  0.00000000E+00
  0.00000000E+00  0.00000000E+00  0.00000000E+00
  0.00000000E+00  0.00000000E+00  0.00000000E+00
  0.00000000E+00  0.00000000E+00  0.00000000E+00
  0.00000000E+00  0.00000000E+00  0.00000000E+00
  0.00000000E+00  0.00000000E+00  0.00000000E+00
  0.00000000E+00  0.00000000E+00  0.00000000E+00
  0.00000000E+00  0.00000000E+00  0.00000000E+00
  0.00000000E+00  0.00000000E+00  0.00000000E+00
  0.00000000E+00  0.00000000E+00  0.00000000E+00
  0.00000000E+00  0.00000000E+00  0.00000000E+00
  0.00000000E+00  0.00000000E+00  0.00000000E+00
  0.00000000E+00  0.00000000E+00  0.00000000E+00
  0.00000000E+00  0.00000000E+00  0.00000000E+00
  0.00000000E+00  0.00000000E+00  0.00000000E+00
  0.00000000E+00  0.00000000E+00  0.00000000E+00
  0.00000000E+00  0.00000000E+00  0.00000000E+00
  0.00000000E+00  0.00000000E+00  0.00000000E+00
  0.00000000E+00  0.00000000E+00  0.00000000E+00
  0.00000000E+00  0.00000000E+00  0.00000000E+00
  0.00000000E+00  0.00000000E+00  0.00000000E+00
  0.00000000E+00  0.00000000E+00  0.00000000E+00
  0.00000000E+00  0.00000000E+00  0.00000000E+00
  0.00000000E+00  0.00000000E+00  0.00000000E+00
  0.00000000E+00  0.00000000E+00  0.00000000E+00
  0.00000000E+00  0.00000000E+00  0.00000000E+00
  0.00000000E+00  0.00000000E+00  0.00000000E+00
  0.00000000E+00  0.00000000E+00  0.00000000E+00
  0.00000000E+00  0.00000000E+00  0.00000000E+00
  0.00000000E+00  0.00000000E+00  0.00000000E+00
  0.00000000E+00  0.00000000E+00  0.00000000E+00
  0.00000000E+00  0.00000000E+00  0.00000000E+00
  0.00000000E+00  0.00000000E+00  0.00000000E+00
  0.00000000E+00  0.00000000E+00  0.00000000E+00
  0.00000000E+00  0.00000000E+00  0.00000000E+00
  0.00000000E+00  0.00000000E+00  0.00000000E+00
  0.00000000E+00  0.00000000E+00  0.00000000E+00
  0.00000000E+00  0.00000000E+00  0.00000000E+00
  0.00000000E+00  0.00000000E+00  0.00000000E+00
  0.00000000E+00  0.00000000E+00  0.00000000E+00
  0.00000000E+00  0.00000000E+00  0.00000000E+00
  0.00000000E+00  0.00000000E+00  0.00000000E+00
  0.00000000E+00  0.00000000E+00  0.00000000E+00
  0.00000000E+00  0.00000000E+00  0.00000000E+00
  0.00000000E+00  0.00000000E+00  0.00000000E+00
  0.00000000E+00  0.00000000E+00  0.00000000E+00
  0.00000000E+00  0.00000000E+00  0.00000000E+00
  0.00000000E+00  0.00000000E+00  0.00000000E+00
  0.00000000E+00  0.00000000E+00  0.00000000E+00
  0.00000000E+00  0.00000000E+00  0.00000000E+00
  0.00000000E+00  0.00000000E+00  0.00000000E+00
  0.00000000E+00  0.00000000E+00  0.00000000E+00
  0.00000000E+00  0.00000000E+00  0.00000000E+00
  0.00000000E+00  0.00000000E+00  0.00000000E+00
  0.00000000E+00  0.00000000E+00  0.00000000E+00
  0.00000000E+00  0.00000000E+00  0.00000000E+00
  0.00000000E+00  0.00000000E+00  0.00000000E+00
  0.00000000E+00  0.00000000E+00  0.00000000E+00
  0.00000000E+00  0.00000000E+00  0.00000000E+00
  0.00000000E+00  0.00000000E+00  0.00000000E+00
  0.00000000E+00  0.00000000E+00  0.00000000E+00
  0.00000000E+00  0.00000000E+00  0.00000000E+00
  0.00000000E+00  0.00000000E+00  0.00000000E+00
  0.00000000E+00  0.00000000E+00  0.00000000E+00
  0.00000000E+00  0.00000000E+00  0.00000000E+00
  0.00000000E+00  0.00000000E+00  0.00000000E+00
  0.00000000E+00  0.00000000E+00  0.00000000E+00
  0.00000000E+00  0.00000000E+00  0.00000000E+00
  0.00000000E+00  0.00000000E+00  0.00000000E+00
  0.00000000E+00  0.00000000E+00  0.00000000E+00
  0.00000000E+00  0.00000000E+00  0.00000000E+00
  0.00000000E+00  0.00000000E+00  0.00000000E+00
  0.00000000E+00  0.00000000E+00  0.00000000E+00
  0.00000000E+00  0.00000000E+00  0.00000000E+00
  0.00000000E+00  0.00000000E+00  0.00000000E+00
  0.00000000E+00  0.00000000E+00  0.00000000E+00
  0.00000000E+00  0.00000000E+00  0.00000000E+00
  0.00000000E+00  0.00000000E+00  0.00000000E+00
  0.00000000E+00  0.00000000E+00  0.00000000E+00
  0.00000000E+00  0.00000000E+00  0.00000000E+00
  0.00000000E+00  0.00000000E+00  0.00000000E+00
  0.00000000E+00  0.00000000E+00  0.00000000E+00
  0.00000000E+00  0.00000000E+00  0.00000000E+00
  0.00000000E+00  0.00000000E+00  0.00000000E+00
  0.00000000E+00  0.00000000E+00  0.00000000E+00
  0.00000000E+00  0.00000000E+00  0.00000000E+00
  0.00000000E+00  0.00000000E+00  0.00000000E+00
  0.00000000E+00  0.00000000E+00  0.00000000E+00
  0.00000000E+00  0.00000000E+00  0.00000000E+00
  0.00000000E+00  0.00000000E+00  0.00000000E+00
  0.00000000E+00  0.00000000E+00  0.00000000E+00
  0.00000000E+00  0.00000000E+00  0.00000000E+00
  0.00000000E+00  0.00000000E+00  0.00000000E+00
  0.00000000E+00  0.00000000E+00  0.00000000E+00
  0.00000000E+00  0.00000000E+00  0.00000000E+00
  0.00000000E+00  0.00000000E+00  0.00000000E+00
  0.00000000E+00  0.00000000E+00  0.00000000E+00
  0.00000000E+00  0.00000000E+00  0.00000000E+00
  0.00000000E+00  0.00000000E+00  0.00000000E+00
  0.00000000E+00  0.00000000E+00  0.00000000E+00
  0.00000000E+00  0.00000000E+00  0.00000000E+00
  0.00000000E+00  0.00000000E+00  0.00000000E+00
  0.00000000E+00  0.00000000E+00  0.00000000E+00
  0.00000000E+00  0.00000000E+00  0.00000000E+00
