POSCAR                                  
   1.00000000000000     
    10.3284776975580375   -0.0651375606659843    0.0356497350955181
    -0.0652856382880766   10.2837933229747929    0.0308600594747360
     0.0238422924791732    0.0207991002226541    6.8861949836653489
   Sc   Zr   Y    K    H 
     9     9     9     9   216
Direct
  0.1575475200932591  0.1608584645206961  0.2571800065803063
  0.1696582118195559  0.8287354774481160  0.2572129061115053
  0.3520446142109025  0.6748217065280243  0.4929846601889402
  0.3137308922478174  0.9975865591281257  0.4970303428309388
  0.8348812470407762  0.4996351106566972  0.2562974246856173
  0.9989548923410538  0.3290372633573470  0.4991818158600893
  0.8363855653895502  0.5028601673194908  0.7418429739066051
  0.6762309288914906  0.0089525546646065  0.4956246965465111
 -0.0001033122068971  0.6644481184790763  0.4987275554384089
  0.1589685213988233  0.1622867833908964  0.7525643685727533
  0.1694171880566892  0.5020863986448720  0.2571450804079403
  0.4910472499656970  0.1639033608644764  0.7431843301845075
  0.3307893457678254  0.3304162525699367  0.0055233721757775
  0.3337451231686049  0.6725969169193292  0.0045121672767709
  0.8252134651380758  0.1652276149764402  0.7533772750736564
  0.3198849557582919  0.0002875463126946  0.0075686536240184
  0.6845285739710900  0.6662162870674778  0.9937807531643854
  0.9942606842198400  0.3310496118146041  0.0046702528118827
  0.4945376747321091  0.1677419637639364  0.2541215457679296
  0.3267227735989215  0.3360453467379576  0.5011380323691940
  0.1639643891969349  0.4980827062823189  0.7529883206234510
  0.1726835007992434  0.8284699609128757  0.7499733433905307
  0.6668411590955954  0.3346614084449627  0.4963623237821043
  0.5016675344464129  0.5054806606220545  0.7490256515268923
  0.6653926602402781  0.3331610661280918  0.0016068398051618
  0.6652939807512571  0.6707939825479101  0.4950941441945348
  0.8456116165568368  0.8378615919544735  0.2369728775478268
  0.5043670037791063  0.5045531041268695  0.2491463736000090
  0.8369182967721984  0.1715309376316776  0.2400694625220411
  0.5103208626173384  0.8458420700174547  0.2400266118395294
  0.5140910904318132  0.8456653395905411  0.7513432498405339
  0.8508497623501451  0.8438750455902005  0.7362450230637565
  0.6380768722539236  0.9834484866120273  0.9982034587343500
  0.0113271476840409  0.6565669096876855  0.9949480002410248
  0.9904214111795018  0.9891186914081852  0.5203789897255170
  0.9830056870488723  0.9943022281663486  0.0172193381042853
  0.1532308861171134  0.0791660473356116  0.0185499471256200
  0.1533386099837466  0.0762418128471480  0.4889069177278978
  0.1669026904728321  0.4081297003198785  0.0086008884736501
  0.4869282333041084  0.0888284361597553  0.9963280742253861
  0.3187873511167959  0.2457236841385606  0.2531781698068000
  0.1573900896930805  0.4150595091422409  0.4995700626060215
  0.5164090747717663  0.0840457587280393  0.5010372833961966
  0.3304758935197847  0.2452702240822249  0.7494066744446705
  0.1696279031715253  0.7513657230077354  0.0151686917895653
  0.4969540136511280  0.4180354513102157 -0.0018942837431346
  0.3353069928727576  0.5879810930584815  0.2451246559322149
  0.1688952299833339  0.7436563459241984  0.4950225927313334
  0.8129450007478416  0.0849615107458776  0.9941671141739081
  0.6709790959714967  0.2518709840019935  0.2509787655797868
  0.4964600147721276  0.4171444416673731  0.4995619553574051
  0.3342485132434506  0.5855983313782098  0.7650552309232392
  0.8301254855802515  0.0841785086298691  0.4834974031641346
  0.6676690503285191  0.2529632118508492  0.7486955805165681
  0.5142305554781389  0.7531879790406820 -0.0024453401854286
  0.3308606336094692  0.9122555150028998  0.2580847151888525
  0.8320715289690721  0.4205402007229140  0.9837439473171697
  0.6770013493823090  0.5808675000699206  0.2413854347684831
  0.5019504058792866  0.7654236599956791  0.4966860826892449
  0.3384198047096841  0.9156114301815077  0.7484015337007708
  0.0071713568918559  0.2495525116522783  0.2619910710747887
  0.8420535788172736  0.4189086387727311  0.5057644684072177
  0.6782875635181573  0.5806992153703463  0.7471185183316312
  0.9921385541378946  0.2495089480306983  0.7489261340233268
  0.8482848186820539  0.7486887220705283  0.9877280819163042
  0.6841394225108026  0.9260476692474839  0.2740521112061366
  0.9967810529924001  0.5795394210808942  0.2590833314555182
  0.8367374453217585  0.7504189473769968  0.4924981730643182
  0.6836303530717955  0.9228519252211530  0.7254735941243349
  0.9942261590150311  0.5756162198174192  0.7396642505514053
  0.0207576480186249  0.9127873321965417  0.2732019790723978
  0.0189029615834442  0.9132484976275689  0.7794976249333170
  0.0771007668136670  0.1617006571209942  0.0008214555174125
  0.0768813067284390  0.1597686018540309  0.5072905923933462
  0.0832573812721140  0.4886882512141768  0.0117554892864308
  0.4099407728415347  0.1641328296803408  0.9996873486584253
  0.2408354407673217  0.3303871015183026  0.2505683717985461
  0.0751838144275295  0.4999940678313069  0.5008626465022601
  0.4082500944781154  0.1492439531556927  0.5014774270000516
  0.2471373881955150  0.3268302287734309  0.7580355012440134
  0.0912322521558324  0.8308640535060681  0.0188847842835437
  0.4182454295251043  0.5114270925575122  0.0049915914471303
  0.2510651852558695  0.6707659066648710  0.2819280102987965
  0.0899341010188728  0.8258851865226770  0.4979204732088871
  0.7392499471452090  0.1562274393181470  0.0003144743403227
  0.5783521757936222  0.3366885429416202  0.2481639589960740
  0.4162713224220119  0.5087749707476756  0.4949603548833209
  0.2549809888285359  0.6629784557415945  0.7133111054080697
  0.7576046147890605  0.1688076402188596  0.4942000343152237
  0.5810570085526905  0.3302380695694532  0.7511198851740165
  0.4200530009850289  0.8374405119114056 -0.0026047047111513
  0.2396582177242724  0.9932814537241113  0.2574354598964912
  0.7555878579291513  0.4959701403418149  0.9910820269542796
  0.5882979950657059  0.6744653333337762  0.2346174020207119
  0.4204000945029444  0.8420880617828539  0.4970094590814636
  0.2494771159406290  0.0038641596017472  0.7526317747110696
  0.9206522944846034  0.3413131715170435  0.2620455649828588
  0.7572949607988110  0.5004381671351812  0.5016149576300166
  0.5885054621584614  0.6734014273214204  0.7603297313624026
  0.9191650433883377  0.3289252662467048  0.7448538294562133
  0.7621437225173626  0.8488638520909118  0.9821314530940630
  0.5842515037380049  0.0117569039447976  0.2817517833661719
  0.9254731083500944  0.6633063728785137  0.2511111100437419
  0.7612234877070210  0.8433599444746390  0.4952273771792767
  0.5825085096789474  0.0158926369933137  0.7184647830149123
  0.9228928467497809  0.6688052157986492  0.7452659686615206
  0.9191623653049005  0.0106909564156961  0.2764238758867573
  0.9125791964295347  0.0200185148962581  0.7674272208252011
  0.1546901824997501 -0.0012498949562088  0.1355949144491924
  0.1631931903098962  0.0008714808189658  0.6291302292269106
  0.1614995504896410  0.3277542301181556  0.1329786127641603
  0.4759032543711203  0.0097576981791084  0.1247680799138972
  0.3207722392580383  0.1595102811486643  0.3782458433180348
  0.1548663554775494  0.3264753998925828  0.6271533872316717
  0.4723379360832533  0.9953382674209016  0.6060206427944405
  0.3244043103564527  0.1654063100991546  0.8763745143669749
  0.1744447844259780  0.6681971017829360  0.1302793867756274
  0.4966701721667492  0.3356596463203521  0.1259640468256104
  0.3356319275257969  0.5105679992961009  0.3747427751531958
  0.1927721134741172  0.6623965831394977  0.6195696518461441
  0.8048863585380719  0.0110524984330680  0.1195904753222217
  0.6683233150368970  0.1652811379317758  0.3727326903856826
  0.4954700463413765  0.3358985181332484  0.6287811604397432
  0.3321899503378918  0.4994869094343943  0.8810626622961422
  0.8214546720589970  0.0134719521563956  0.6245764379340329
  0.6609603016545321  0.1537970009708311  0.8710787717628551
  0.4970338016077528  0.6728014960335794  0.1194333314374881
  0.3391743601373567  0.8406709882349727  0.3740812948079175
  0.8315688883821668  0.3460494315931667  0.1297643331755825
  0.6751221893650535  0.5046531729072968  0.3678327395727887
  0.4966487879761534  0.6781006399943657  0.6334992087397844
  0.3432130921777315  0.8321631930844147  0.8606656010684220
  0.0006890459494598  0.1627565060742392  0.3806030255850604
  0.8392774818649548  0.3387602735200120  0.6241472819157202
  0.6775596435919788  0.5048993571602843  0.8723406175226338
  0.0048688103733856  0.1638002708981320  0.8882763069761977
  0.8447534183173587  0.6586028800904805  0.1215873349062430
  0.6754311363647481  0.8326076721235377  0.3603632523859936
  0.9992882115890620  0.4948626026031583  0.3804338482951215
  0.8327762022665154  0.6672478975839983  0.6201377129161003
  0.6878377979473593  0.8210218858885621  0.8676293832184190
  0.9895132534224389  0.4924059055199269  0.8726428212417958
  0.0073810962646098  0.8293022339425842  0.3743843712486581
  0.0030299957469831  0.8310245065629599  0.8845760161233056
  0.0801457093593525  0.9924978429632881  0.2565828023761615
  0.0737338988376654  0.9916993640140919  0.7682249497070935
  0.0818335913855587  0.3385433089468941  0.2547180755547975
  0.4149044157529928  0.9991595893386668  0.2889973304707370
  0.2450633604224491  0.1631737737185296  0.5071736580358702
  0.0777329842137149  0.3277272338613253  0.7537639037235584
  0.4177673028848737  0.9974061869927771  0.7023839733193044
  0.2433587440962132  0.1656766141968383  0.0025682442823440
  0.0843560134297451  0.6654801900755178  0.2647059623433338
  0.4139746977073516  0.3375365797511136  0.2515278014179263
  0.2509076774646554  0.5163702412974032  0.5031225856834957
  0.0838028907249652  0.6630603867397138  0.7279626124357219
  0.7502677779559703 -0.0010478573959989  0.2191400270841562
  0.5857903113059350  0.1554591084399363  0.5006477514491954
  0.4170550693899386  0.3322845239839010  0.7502333622884305
  0.2489813516212933  0.4938119240282625  0.0030410939060193
  0.7388756978717896  0.9875355755759808  0.7581545077033522
  0.5736790081585781  0.1616226682689668  0.9923825611091762
  0.4284160283515409  0.6762812480263567  0.2498200315200199
  0.2546906082563901  0.8218601263638466  0.4938578243646509
  0.7563472522340727  0.3381580732418095  0.2476980080540383
  0.5850981889319342  0.5016972850965320  0.4989048720384263
  0.4272613546345280  0.6791504974660256  0.7434538195039815
  0.2517177963083909  0.8339487298858627  0.0050585099557885
  0.9176067507255643  0.1663501178372748  0.5037489353908559
  0.7547060594057745  0.3394457949372138  0.7498893361266284
  0.5818222840561298  0.5097988463314714 -0.0017701417870039
  0.9121019235171242  0.1645146091518801  0.9847353061429973
  0.7602711425911300  0.6668633602690138  0.2525130928586089
  0.5831233691000356  0.8539093632644338  0.4935806285156187
  0.9169340231865157  0.4974794497375374  0.4952448595174421
  0.7615128619930388  0.6709049682996054  0.7373631385316390
  0.5845407666332895  0.8050607220107006 -0.0043381961829406
  0.9170129306681373  0.4983181078362662  0.0084159637892633
  0.9270019352452116  0.8144465885371511  0.4794116541417673
  0.9317288574553197  0.8151002570360106  0.9810223743841145
  0.0080375882542005  0.1660592529930561  0.1334775569036862
  0.9992731342953295  0.1664648100249512  0.6271494723757561
  0.9940005177485951  0.4934159951479298  0.1347478755477439
  0.3195399812504700  0.1646219330565316  0.1327515594221636
  0.1572097630670460  0.3207657470990312  0.3787693794712322
  0.9967186522740946  0.4915485644805705  0.6204026197985205
  0.3268114750869615  0.1568352673443635  0.6216798461072829
  0.1623391539023341  0.3272760391595245  0.8828411547764657
  0.0175549703324617  0.8191396760936643  0.1300539410211626
  0.3354583083070569  0.5006981283662262  0.1302526623846502
  0.1825630404781224  0.6670211830682800  0.3807438165864739
  0.0146265897448796  0.8145570653396709  0.6194072660164623
  0.6671646470157074  0.1522854433271988  0.1236431641704774
  0.4960862088298367  0.3386260100520537  0.3720193254912726
  0.3312359441060807  0.5126836784241779  0.6230041181107020
  0.1790597784386445  0.6638872772883585  0.8769727014341006
  0.6619508915624196  0.1655568324501634  0.6214490073505847
  0.4955625323124511  0.3302822093978466  0.8750523152637159
  0.3342373756454112  0.8329977400177370  0.1389891135045638
  0.1583198514920460  0.0040317710294081  0.3848528919182273
  0.6784461630650508  0.5064003927697385  0.1226170722895317
  0.5006263020005456  0.6751342774578040  0.3574974824456355
  0.3449370495318067  0.8401972331098899  0.6182563377687786
  0.1574227319288803  0.9979632906047350  0.8882326760307260
  0.8394412776050759  0.3375650432288003  0.3764934883529834
  0.6771132594971832  0.5054004882417141  0.6268784149684578
  0.4902245463456640  0.6758944757944139  0.8721810755963874
  0.8334177994923544  0.3458104165215197  0.8675203731501367
  0.6835851689973802  0.8214591641425910  0.1182532199182593
  0.4741997410873030  0.9987061291642826  0.3819643786621479
  0.8334276936954330  0.6643603586967916  0.3697180447971539
  0.6802283922818341  0.8313099280763476  0.6235076708769831
  0.4730793118988392  0.0080369658562526  0.8686531467836973
  0.8451774117576009  0.6647438615075680  0.8664111305034644
  0.8371326766647447  0.0119154507333877  0.3746225495900531
  0.8092338434612406  0.0065485694218750  0.8735418458676524
 -0.0004936600841411  0.0793730860536863  0.2690150442568611
  0.9895019000285068  0.0798379059731143  0.7650272108782756
  0.0017630290846398  0.4165854333275333  0.2624905780684856
  0.3206746647092036  0.0808163867405279  0.2536138849677278
  0.1592951857882478  0.2490082511773301  0.4895672454131509
  0.9927466858252856  0.4132025037650679  0.7403305372714002
  0.3289854703777513  0.0805874623624347  0.7538847180691957
  0.1613569407935876  0.2465691617594554  0.0220056402669142
  0.0119370107901631  0.7412218645070063  0.2499831479348241
  0.3321389251481894  0.4233429268327780  0.2486643830045727
  0.1503335419188603  0.5830899692951929  0.5011545129568021
  0.0016542687704740  0.7376871585264215  0.7338133327903972
  0.6636486510039379  0.0877960076517176  0.2388402540803831
  0.4963908992587021  0.2486777495877632  0.5056508200138059
  0.3335284863077988  0.4184238736136809  0.7574374937876953
  0.1765746666949827  0.5763454932590696  0.0100692339065516
  0.6584117920661560  0.0851557013872494  0.7583006096935483
  0.4946753538912216  0.2522461896209472  0.9929257269496933
  0.3362608507040422  0.7536387113666642  0.2487021172264052
  0.1589670259210553  0.9093825581152379  0.4897439169565245
  0.6721343548794230  0.4206012195653923  0.2477817424829876
  0.4980988657912853  0.5868098622485404  0.4956351403869558
  0.3442897089345691  0.7535099955173085  0.7515368608303850
  0.1551186995543190  0.9152324626545899  0.0086511856356870
  0.8353650623693963  0.2512107355587109  0.5003469388295938
  0.6702907090440472  0.4180749085913421  0.7499988855794473
  0.4971348608353662  0.5838238623206339  0.0015701162213287
  0.8307480647546954  0.2546644945274407  0.9899101234004679
  0.6738118311295455  0.7588156285236722  0.2519947196225921
  0.5264251199679292  0.9209202303351468  0.4954061765067264
  0.8428956898520867  0.5845454318718752  0.4937230101877915
  0.6816678953180705  0.7617853157529531  0.7393252469758715
  0.4680781124563752  0.9168096623724414  0.9930375500131360
  0.8435657622707967  0.5788305319071008  0.0059668236318701
  0.8163131411014020  0.9177556188203704  0.4829260112449255
  0.8109989624962252  0.9192635987188880  0.9831801447972606
 
  0.00000000E+00  0.00000000E+00  0.00000000E+00
  0.00000000E+00  0.00000000E+00  0.00000000E+00
  0.00000000E+00  0.00000000E+00  0.00000000E+00
  0.00000000E+00  0.00000000E+00  0.00000000E+00
  0.00000000E+00  0.00000000E+00  0.00000000E+00
  0.00000000E+00  0.00000000E+00  0.00000000E+00
  0.00000000E+00  0.00000000E+00  0.00000000E+00
  0.00000000E+00  0.00000000E+00  0.00000000E+00
  0.00000000E+00  0.00000000E+00  0.00000000E+00
  0.00000000E+00  0.00000000E+00  0.00000000E+00
  0.00000000E+00  0.00000000E+00  0.00000000E+00
  0.00000000E+00  0.00000000E+00  0.00000000E+00
  0.00000000E+00  0.00000000E+00  0.00000000E+00
  0.00000000E+00  0.00000000E+00  0.00000000E+00
  0.00000000E+00  0.00000000E+00  0.00000000E+00
  0.00000000E+00  0.00000000E+00  0.00000000E+00
  0.00000000E+00  0.00000000E+00  0.00000000E+00
  0.00000000E+00  0.00000000E+00  0.00000000E+00
  0.00000000E+00  0.00000000E+00  0.00000000E+00
  0.00000000E+00  0.00000000E+00  0.00000000E+00
  0.00000000E+00  0.00000000E+00  0.00000000E+00
  0.00000000E+00  0.00000000E+00  0.00000000E+00
  0.00000000E+00  0.00000000E+00  0.00000000E+00
  0.00000000E+00  0.00000000E+00  0.00000000E+00
  0.00000000E+00  0.00000000E+00  0.00000000E+00
  0.00000000E+00  0.00000000E+00  0.00000000E+00
  0.00000000E+00  0.00000000E+00  0.00000000E+00
  0.00000000E+00  0.00000000E+00  0.00000000E+00
  0.00000000E+00  0.00000000E+00  0.00000000E+00
  0.00000000E+00  0.00000000E+00  0.00000000E+00
  0.00000000E+00  0.00000000E+00  0.00000000E+00
  0.00000000E+00  0.00000000E+00  0.00000000E+00
  0.00000000E+00  0.00000000E+00  0.00000000E+00
  0.00000000E+00  0.00000000E+00  0.00000000E+00
  0.00000000E+00  0.00000000E+00  0.00000000E+00
  0.00000000E+00  0.00000000E+00  0.00000000E+00
  0.00000000E+00  0.00000000E+00  0.00000000E+00
  0.00000000E+00  0.00000000E+00  0.00000000E+00
  0.00000000E+00  0.00000000E+00  0.00000000E+00
  0.00000000E+00  0.00000000E+00  0.00000000E+00
  0.00000000E+00  0.00000000E+00  0.00000000E+00
  0.00000000E+00  0.00000000E+00  0.00000000E+00
  0.00000000E+00  0.00000000E+00  0.00000000E+00
  0.00000000E+00  0.00000000E+00  0.00000000E+00
  0.00000000E+00  0.00000000E+00  0.00000000E+00
  0.00000000E+00  0.00000000E+00  0.00000000E+00
  0.00000000E+00  0.00000000E+00  0.00000000E+00
  0.00000000E+00  0.00000000E+00  0.00000000E+00
  0.00000000E+00  0.00000000E+00  0.00000000E+00
  0.00000000E+00  0.00000000E+00  0.00000000E+00
  0.00000000E+00  0.00000000E+00  0.00000000E+00
  0.00000000E+00  0.00000000E+00  0.00000000E+00
  0.00000000E+00  0.00000000E+00  0.00000000E+00
  0.00000000E+00  0.00000000E+00  0.00000000E+00
  0.00000000E+00  0.00000000E+00  0.00000000E+00
  0.00000000E+00  0.00000000E+00  0.00000000E+00
  0.00000000E+00  0.00000000E+00  0.00000000E+00
  0.00000000E+00  0.00000000E+00  0.00000000E+00
  0.00000000E+00  0.00000000E+00  0.00000000E+00
  0.00000000E+00  0.00000000E+00  0.00000000E+00
  0.00000000E+00  0.00000000E+00  0.00000000E+00
  0.00000000E+00  0.00000000E+00  0.00000000E+00
  0.00000000E+00  0.00000000E+00  0.00000000E+00
  0.00000000E+00  0.00000000E+00  0.00000000E+00
  0.00000000E+00  0.00000000E+00  0.00000000E+00
  0.00000000E+00  0.00000000E+00  0.00000000E+00
  0.00000000E+00  0.00000000E+00  0.00000000E+00
  0.00000000E+00  0.00000000E+00  0.00000000E+00
  0.00000000E+00  0.00000000E+00  0.00000000E+00
  0.00000000E+00  0.00000000E+00  0.00000000E+00
  0.00000000E+00  0.00000000E+00  0.00000000E+00
  0.00000000E+00  0.00000000E+00  0.00000000E+00
  0.00000000E+00  0.00000000E+00  0.00000000E+00
  0.00000000E+00  0.00000000E+00  0.00000000E+00
  0.00000000E+00  0.00000000E+00  0.00000000E+00
  0.00000000E+00  0.00000000E+00  0.00000000E+00
  0.00000000E+00  0.00000000E+00  0.00000000E+00
  0.00000000E+00  0.00000000E+00  0.00000000E+00
  0.00000000E+00  0.00000000E+00  0.00000000E+00
  0.00000000E+00  0.00000000E+00  0.00000000E+00
  0.00000000E+00  0.00000000E+00  0.00000000E+00
  0.00000000E+00  0.00000000E+00  0.00000000E+00
  0.00000000E+00  0.00000000E+00  0.00000000E+00
  0.00000000E+00  0.00000000E+00  0.00000000E+00
  0.00000000E+00  0.00000000E+00  0.00000000E+00
  0.00000000E+00  0.00000000E+00  0.00000000E+00
  0.00000000E+00  0.00000000E+00  0.00000000E+00
  0.00000000E+00  0.00000000E+00  0.00000000E+00
  0.00000000E+00  0.00000000E+00  0.00000000E+00
  0.00000000E+00  0.00000000E+00  0.00000000E+00
  0.00000000E+00  0.00000000E+00  0.00000000E+00
  0.00000000E+00  0.00000000E+00  0.00000000E+00
  0.00000000E+00  0.00000000E+00  0.00000000E+00
  0.00000000E+00  0.00000000E+00  0.00000000E+00
  0.00000000E+00  0.00000000E+00  0.00000000E+00
  0.00000000E+00  0.00000000E+00  0.00000000E+00
  0.00000000E+00  0.00000000E+00  0.00000000E+00
  0.00000000E+00  0.00000000E+00  0.00000000E+00
  0.00000000E+00  0.00000000E+00  0.00000000E+00
  0.00000000E+00  0.00000000E+00  0.00000000E+00
  0.00000000E+00  0.00000000E+00  0.00000000E+00
  0.00000000E+00  0.00000000E+00  0.00000000E+00
  0.00000000E+00  0.00000000E+00  0.00000000E+00
  0.00000000E+00  0.00000000E+00  0.00000000E+00
  0.00000000E+00  0.00000000E+00  0.00000000E+00
  0.00000000E+00  0.00000000E+00  0.00000000E+00
  0.00000000E+00  0.00000000E+00  0.00000000E+00
  0.00000000E+00  0.00000000E+00  0.00000000E+00
  0.00000000E+00  0.00000000E+00  0.00000000E+00
  0.00000000E+00  0.00000000E+00  0.00000000E+00
  0.00000000E+00  0.00000000E+00  0.00000000E+00
  0.00000000E+00  0.00000000E+00  0.00000000E+00
  0.00000000E+00  0.00000000E+00  0.00000000E+00
  0.00000000E+00  0.00000000E+00  0.00000000E+00
  0.00000000E+00  0.00000000E+00  0.00000000E+00
  0.00000000E+00  0.00000000E+00  0.00000000E+00
  0.00000000E+00  0.00000000E+00  0.00000000E+00
  0.00000000E+00  0.00000000E+00  0.00000000E+00
  0.00000000E+00  0.00000000E+00  0.00000000E+00
  0.00000000E+00  0.00000000E+00  0.00000000E+00
  0.00000000E+00  0.00000000E+00  0.00000000E+00
  0.00000000E+00  0.00000000E+00  0.00000000E+00
  0.00000000E+00  0.00000000E+00  0.00000000E+00
  0.00000000E+00  0.00000000E+00  0.00000000E+00
  0.00000000E+00  0.00000000E+00  0.00000000E+00
  0.00000000E+00  0.00000000E+00  0.00000000E+00
  0.00000000E+00  0.00000000E+00  0.00000000E+00
  0.00000000E+00  0.00000000E+00  0.00000000E+00
  0.00000000E+00  0.00000000E+00  0.00000000E+00
  0.00000000E+00  0.00000000E+00  0.00000000E+00
  0.00000000E+00  0.00000000E+00  0.00000000E+00
  0.00000000E+00  0.00000000E+00  0.00000000E+00
  0.00000000E+00  0.00000000E+00  0.00000000E+00
  0.00000000E+00  0.00000000E+00  0.00000000E+00
  0.00000000E+00  0.00000000E+00  0.00000000E+00
  0.00000000E+00  0.00000000E+00  0.00000000E+00
  0.00000000E+00  0.00000000E+00  0.00000000E+00
  0.00000000E+00  0.00000000E+00  0.00000000E+00
  0.00000000E+00  0.00000000E+00  0.00000000E+00
  0.00000000E+00  0.00000000E+00  0.00000000E+00
  0.00000000E+00  0.00000000E+00  0.00000000E+00
  0.00000000E+00  0.00000000E+00  0.00000000E+00
  0.00000000E+00  0.00000000E+00  0.00000000E+00
  0.00000000E+00  0.00000000E+00  0.00000000E+00
  0.00000000E+00  0.00000000E+00  0.00000000E+00
  0.00000000E+00  0.00000000E+00  0.00000000E+00
  0.00000000E+00  0.00000000E+00  0.00000000E+00
  0.00000000E+00  0.00000000E+00  0.00000000E+00
  0.00000000E+00  0.00000000E+00  0.00000000E+00
  0.00000000E+00  0.00000000E+00  0.00000000E+00
  0.00000000E+00  0.00000000E+00  0.00000000E+00
  0.00000000E+00  0.00000000E+00  0.00000000E+00
  0.00000000E+00  0.00000000E+00  0.00000000E+00
  0.00000000E+00  0.00000000E+00  0.00000000E+00
  0.00000000E+00  0.00000000E+00  0.00000000E+00
  0.00000000E+00  0.00000000E+00  0.00000000E+00
  0.00000000E+00  0.00000000E+00  0.00000000E+00
  0.00000000E+00  0.00000000E+00  0.00000000E+00
  0.00000000E+00  0.00000000E+00  0.00000000E+00
  0.00000000E+00  0.00000000E+00  0.00000000E+00
  0.00000000E+00  0.00000000E+00  0.00000000E+00
  0.00000000E+00  0.00000000E+00  0.00000000E+00
  0.00000000E+00  0.00000000E+00  0.00000000E+00
  0.00000000E+00  0.00000000E+00  0.00000000E+00
  0.00000000E+00  0.00000000E+00  0.00000000E+00
  0.00000000E+00  0.00000000E+00  0.00000000E+00
  0.00000000E+00  0.00000000E+00  0.00000000E+00
  0.00000000E+00  0.00000000E+00  0.00000000E+00
  0.00000000E+00  0.00000000E+00  0.00000000E+00
  0.00000000E+00  0.00000000E+00  0.00000000E+00
  0.00000000E+00  0.00000000E+00  0.00000000E+00
  0.00000000E+00  0.00000000E+00  0.00000000E+00
  0.00000000E+00  0.00000000E+00  0.00000000E+00
  0.00000000E+00  0.00000000E+00  0.00000000E+00
  0.00000000E+00  0.00000000E+00  0.00000000E+00
  0.00000000E+00  0.00000000E+00  0.00000000E+00
  0.00000000E+00  0.00000000E+00  0.00000000E+00
  0.00000000E+00  0.00000000E+00  0.00000000E+00
  0.00000000E+00  0.00000000E+00  0.00000000E+00
  0.00000000E+00  0.00000000E+00  0.00000000E+00
  0.00000000E+00  0.00000000E+00  0.00000000E+00
  0.00000000E+00  0.00000000E+00  0.00000000E+00
  0.00000000E+00  0.00000000E+00  0.00000000E+00
  0.00000000E+00  0.00000000E+00  0.00000000E+00
  0.00000000E+00  0.00000000E+00  0.00000000E+00
  0.00000000E+00  0.00000000E+00  0.00000000E+00
  0.00000000E+00  0.00000000E+00  0.00000000E+00
  0.00000000E+00  0.00000000E+00  0.00000000E+00
  0.00000000E+00  0.00000000E+00  0.00000000E+00
  0.00000000E+00  0.00000000E+00  0.00000000E+00
  0.00000000E+00  0.00000000E+00  0.00000000E+00
  0.00000000E+00  0.00000000E+00  0.00000000E+00
  0.00000000E+00  0.00000000E+00  0.00000000E+00
  0.00000000E+00  0.00000000E+00  0.00000000E+00
  0.00000000E+00  0.00000000E+00  0.00000000E+00
  0.00000000E+00  0.00000000E+00  0.00000000E+00
  0.00000000E+00  0.00000000E+00  0.00000000E+00
  0.00000000E+00  0.00000000E+00  0.00000000E+00
  0.00000000E+00  0.00000000E+00  0.00000000E+00
  0.00000000E+00  0.00000000E+00  0.00000000E+00
  0.00000000E+00  0.00000000E+00  0.00000000E+00
  0.00000000E+00  0.00000000E+00  0.00000000E+00
  0.00000000E+00  0.00000000E+00  0.00000000E+00
  0.00000000E+00  0.00000000E+00  0.00000000E+00
  0.00000000E+00  0.00000000E+00  0.00000000E+00
  0.00000000E+00  0.00000000E+00  0.00000000E+00
  0.00000000E+00  0.00000000E+00  0.00000000E+00
  0.00000000E+00  0.00000000E+00  0.00000000E+00
  0.00000000E+00  0.00000000E+00  0.00000000E+00
  0.00000000E+00  0.00000000E+00  0.00000000E+00
  0.00000000E+00  0.00000000E+00  0.00000000E+00
  0.00000000E+00  0.00000000E+00  0.00000000E+00
  0.00000000E+00  0.00000000E+00  0.00000000E+00
  0.00000000E+00  0.00000000E+00  0.00000000E+00
  0.00000000E+00  0.00000000E+00  0.00000000E+00
  0.00000000E+00  0.00000000E+00  0.00000000E+00
  0.00000000E+00  0.00000000E+00  0.00000000E+00
  0.00000000E+00  0.00000000E+00  0.00000000E+00
  0.00000000E+00  0.00000000E+00  0.00000000E+00
  0.00000000E+00  0.00000000E+00  0.00000000E+00
  0.00000000E+00  0.00000000E+00  0.00000000E+00
  0.00000000E+00  0.00000000E+00  0.00000000E+00
  0.00000000E+00  0.00000000E+00  0.00000000E+00
  0.00000000E+00  0.00000000E+00  0.00000000E+00
  0.00000000E+00  0.00000000E+00  0.00000000E+00
  0.00000000E+00  0.00000000E+00  0.00000000E+00
  0.00000000E+00  0.00000000E+00  0.00000000E+00
  0.00000000E+00  0.00000000E+00  0.00000000E+00
  0.00000000E+00  0.00000000E+00  0.00000000E+00
  0.00000000E+00  0.00000000E+00  0.00000000E+00
  0.00000000E+00  0.00000000E+00  0.00000000E+00
  0.00000000E+00  0.00000000E+00  0.00000000E+00
  0.00000000E+00  0.00000000E+00  0.00000000E+00
  0.00000000E+00  0.00000000E+00  0.00000000E+00
  0.00000000E+00  0.00000000E+00  0.00000000E+00
  0.00000000E+00  0.00000000E+00  0.00000000E+00
  0.00000000E+00  0.00000000E+00  0.00000000E+00
  0.00000000E+00  0.00000000E+00  0.00000000E+00
  0.00000000E+00  0.00000000E+00  0.00000000E+00
  0.00000000E+00  0.00000000E+00  0.00000000E+00
  0.00000000E+00  0.00000000E+00  0.00000000E+00
  0.00000000E+00  0.00000000E+00  0.00000000E+00
  0.00000000E+00  0.00000000E+00  0.00000000E+00
  0.00000000E+00  0.00000000E+00  0.00000000E+00
  0.00000000E+00  0.00000000E+00  0.00000000E+00
  0.00000000E+00  0.00000000E+00  0.00000000E+00
  0.00000000E+00  0.00000000E+00  0.00000000E+00
  0.00000000E+00  0.00000000E+00  0.00000000E+00
  0.00000000E+00  0.00000000E+00  0.00000000E+00
  0.00000000E+00  0.00000000E+00  0.00000000E+00
  0.00000000E+00  0.00000000E+00  0.00000000E+00
  0.00000000E+00  0.00000000E+00  0.00000000E+00
