       N       E                     dE             d eps       ncg     rms          rms(c)
DAV:   1     0.106135139834E+05    0.10614E+05   -0.27120E+05 17640   0.170E+03
DAV:   2     0.123226809432E+04   -0.93812E+04   -0.87596E+04 24032   0.779E+02
DAV:   3    -0.496672555520E+03   -0.17289E+04   -0.15991E+04 29304   0.353E+02
DAV:   4    -0.748339902926E+03   -0.25167E+03   -0.23994E+03 32528   0.175E+02
DAV:   5    -0.776638945198E+03   -0.28299E+02   -0.27345E+02 32528   0.719E+01    0.289E+02
DAV:   6    -0.642141197786E+03    0.13450E+03   -0.24968E+02 30184   0.628E+01    0.167E+02
DAV:   7    -0.647642833593E+03   -0.55016E+01   -0.26356E+02 28968   0.535E+01    0.675E+01
DAV:   8    -0.643838292094E+03    0.38045E+01   -0.72703E+01 28424   0.405E+01    0.230E+01
DAV:   9    -0.641906531101E+03    0.19318E+01   -0.21259E+01 30400   0.216E+01    0.103E+01
DAV:  10    -0.641536905328E+03    0.36963E+00   -0.77686E+00 30168   0.106E+01    0.928E+00
DAV:  11    -0.641553180909E+03   -0.16276E-01   -0.13880E+00 30456   0.522E+00    0.705E+00
DAV:  12    -0.641538041353E+03    0.15140E-01   -0.36909E-01 29784   0.254E+00    0.314E+00
DAV:  13    -0.641514800617E+03    0.23241E-01   -0.18277E-01 28288   0.191E+00    0.168E+00
DAV:  14    -0.641506934381E+03    0.78662E-02   -0.60712E-02 28600   0.112E+00    0.945E-01
DAV:  15    -0.641507713613E+03   -0.77923E-03   -0.16068E-02 30696   0.406E-01    0.658E-01
DAV:  16    -0.641507766892E+03   -0.53280E-04   -0.28026E-03 31472   0.185E-01    0.283E-01
DAV:  17    -0.641507547695E+03    0.21920E-03   -0.13108E-03 27624   0.136E-01    0.135E-01
DAV:  18    -0.641507555402E+03   -0.77072E-05   -0.28229E-04 30032   0.654E-02    0.633E-02
DAV:  19    -0.641507550583E+03    0.48185E-05   -0.50625E-05 30352   0.294E-02    0.196E-02
DAV:  20    -0.641507549724E+03    0.85954E-06   -0.86743E-06 22904   0.120E-02
   1 F= 0.27147360E+03 E0= 0.27147470E+03  d E =0.271474E+03
