opt                                     
           1
    10.328478   -0.065138    0.035650
    -0.065286   10.283793    0.030860
     0.023842    0.020799    6.886195
   Sc   Zr   Y    K    H 
   9   9   9   9 216
Direct configuration=     1
   0.15754752  0.16085846  0.25718001
   0.16965821  0.82873548  0.25721291
   0.35204461  0.67482171  0.49298466
   0.31373089  0.99758656  0.49703034
   0.83488125  0.49963511  0.25629742
   0.99895489  0.32903726  0.49918182
   0.83638557  0.50286017  0.74184297
   0.67623093  0.00895255  0.49562470
   0.99989669  0.66444812  0.49872756
   0.15896852  0.16228678  0.75256437
   0.16941719  0.50208640  0.25714508
   0.49104725  0.16390336  0.74318433
   0.33078935  0.33041625  0.00552337
   0.33374512  0.67259692  0.00451217
   0.82521347  0.16522761  0.75337728
   0.31988496  0.00028755  0.00756865
   0.68452857  0.66621629  0.99378075
   0.99426068  0.33104961  0.00467025
   0.49453767  0.16774196  0.25412155
   0.32672277  0.33604535  0.50113803
   0.16396439  0.49808271  0.75298832
   0.17268350  0.82846996  0.74997334
   0.66684116  0.33466141  0.49636232
   0.50166753  0.50548066  0.74902565
   0.66539266  0.33316107  0.00160684
   0.66529398  0.67079398  0.49509414
   0.84561162  0.83786159  0.23697288
   0.50436700  0.50455310  0.24914637
   0.83691830  0.17153094  0.24006946
   0.51032086  0.84584207  0.24002661
   0.51409109  0.84566534  0.75134325
   0.85084976  0.84387505  0.73624502
   0.63807687  0.98344849  0.99820346
   0.01132715  0.65656691  0.99494800
   0.99042141  0.98911869  0.52037899
   0.98300569  0.99430223  0.01721934
   0.15323089  0.07916605  0.01854995
   0.15333861  0.07624181  0.48890692
   0.16690269  0.40812970  0.00860089
   0.48692823  0.08882844  0.99632807
   0.31878735  0.24572368  0.25317817
   0.15739009  0.41505951  0.49957006
   0.51640907  0.08404576  0.50103728
   0.33047589  0.24527022  0.74940667
   0.16962790  0.75136572  0.01516869
   0.49695401  0.41803545  0.99810572
   0.33530699  0.58798109  0.24512466
   0.16889523  0.74365635  0.49502259
   0.81294500  0.08496151  0.99416711
   0.67097910  0.25187098  0.25097877
   0.49646001  0.41714444  0.49956196
   0.33424851  0.58559833  0.76505523
   0.83012549  0.08417851  0.48349740
   0.66766905  0.25296321  0.74869558
   0.51423056  0.75318798  0.99755466
   0.33086063  0.91225552  0.25808472
   0.83207153  0.42054020  0.98374395
   0.67700135  0.58086750  0.24138543
   0.50195041  0.76542366  0.49668608
   0.33841980  0.91561143  0.74840153
   0.00717136  0.24955251  0.26199107
   0.84205358  0.41890864  0.50576447
   0.67828756  0.58069922  0.74711852
   0.99213855  0.24950895  0.74892613
   0.84828482  0.74868872  0.98772808
   0.68413942  0.92604767  0.27405211
   0.99678105  0.57953942  0.25908333
   0.83673745  0.75041895  0.49249817
   0.68363035  0.92285193  0.72547359
   0.99422616  0.57561622  0.73966425
   0.02075765  0.91278733  0.27320198
   0.01890296  0.91324850  0.77949762
   0.07710077  0.16170066  0.00082146
   0.07688131  0.15976860  0.50729059
   0.08325738  0.48868825  0.01175549
   0.40994077  0.16413283  0.99968735
   0.24083544  0.33038710  0.25056837
   0.07518381  0.49999407  0.50086265
   0.40825009  0.14924395  0.50147743
   0.24713739  0.32683023  0.75803550
   0.09123225  0.83086405  0.01888478
   0.41824543  0.51142709  0.00499159
   0.25106519  0.67076591  0.28192801
   0.08993410  0.82588519  0.49792047
   0.73924995  0.15622744  0.00031447
   0.57835218  0.33668854  0.24816396
   0.41627132  0.50877497  0.49496035
   0.25498099  0.66297846  0.71331111
   0.75760461  0.16880764  0.49420003
   0.58105701  0.33023807  0.75111989
   0.42005300  0.83744051  0.99739530
   0.23965822  0.99328145  0.25743546
   0.75558786  0.49597014  0.99108203
   0.58829800  0.67446533  0.23461740
   0.42040009  0.84208806  0.49700946
   0.24947712  0.00386416  0.75263177
   0.92065229  0.34131317  0.26204556
   0.75729496  0.50043817  0.50161496
   0.58850546  0.67340143  0.76032973
   0.91916504  0.32892527  0.74485383
   0.76214372  0.84886385  0.98213145
   0.58425150  0.01175690  0.28175178
   0.92547311  0.66330637  0.25111111
   0.76122349  0.84335994  0.49522738
   0.58250851  0.01589264  0.71846478
   0.92289285  0.66880522  0.74526597
   0.91916237  0.01069096  0.27642388
   0.91257920  0.02001851  0.76742722
   0.15469018  0.99875011  0.13559491
   0.16319319  0.00087148  0.62913023
   0.16149955  0.32775423  0.13297861
   0.47590325  0.00975770  0.12476808
   0.32077224  0.15951028  0.37824584
   0.15486636  0.32647540  0.62715339
   0.47233794  0.99533827  0.60602064
   0.32440431  0.16540631  0.87637451
   0.17444478  0.66819710  0.13027939
   0.49667017  0.33565965  0.12596405
   0.33563193  0.51056800  0.37474278
   0.19277211  0.66239658  0.61956965
   0.80488636  0.01105250  0.11959048
   0.66832332  0.16528114  0.37273269
   0.49547005  0.33589852  0.62878116
   0.33218995  0.49948691  0.88106266
   0.82145467  0.01347195  0.62457644
   0.66096030  0.15379700  0.87107877
   0.49703380  0.67280150  0.11943333
   0.33917436  0.84067099  0.37408129
   0.83156889  0.34604943  0.12976433
   0.67512219  0.50465317  0.36783274
   0.49664879  0.67810064  0.63349921
   0.34321309  0.83216319  0.86066560
   0.00068905  0.16275651  0.38060303
   0.83927748  0.33876027  0.62414728
   0.67755964  0.50489936  0.87234062
   0.00486881  0.16380027  0.88827631
   0.84475342  0.65860288  0.12158733
   0.67543114  0.83260767  0.36036325
   0.99928821  0.49486260  0.38043385
   0.83277620  0.66724790  0.62013771
   0.68783780  0.82102189  0.86762938
   0.98951325  0.49240591  0.87264282
   0.00738110  0.82930223  0.37438437
   0.00303000  0.83102451  0.88457602
   0.08014571  0.99249784  0.25658280
   0.07373390  0.99169936  0.76822495
   0.08183359  0.33854331  0.25471808
   0.41490442  0.99915959  0.28899733
   0.24506336  0.16317377  0.50717366
   0.07773298  0.32772723  0.75376390
   0.41776730  0.99740619  0.70238397
   0.24335874  0.16567661  0.00256824
   0.08435601  0.66548019  0.26470596
   0.41397470  0.33753658  0.25152780
   0.25090768  0.51637024  0.50312259
   0.08380289  0.66306039  0.72796261
   0.75026778  0.99895214  0.21914003
   0.58579031  0.15545911  0.50064775
   0.41705507  0.33228452  0.75023336
   0.24898135  0.49381192  0.00304109
   0.73887570  0.98753558  0.75815451
   0.57367901  0.16162267  0.99238256
   0.42841603  0.67628125  0.24982003
   0.25469061  0.82186013  0.49385782
   0.75634725  0.33815807  0.24769801
   0.58509819  0.50169729  0.49890487
   0.42726135  0.67915050  0.74345382
   0.25171780  0.83394873  0.00505851
   0.91760675  0.16635012  0.50374894
   0.75470606  0.33944579  0.74988934
   0.58182228  0.50979885  0.99822986
   0.91210192  0.16451461  0.98473531
   0.76027114  0.66686336  0.25251309
   0.58312337  0.85390936  0.49358063
   0.91693402  0.49747945  0.49524486
   0.76151286  0.67090497  0.73736314
   0.58454077  0.80506072  0.99566180
   0.91701293  0.49831811  0.00841596
   0.92700194  0.81444659  0.47941165
   0.93172886  0.81510026  0.98102237
   0.00803759  0.16605925  0.13347756
   0.99927313  0.16646481  0.62714947
   0.99400052  0.49341600  0.13474788
   0.31953998  0.16462193  0.13275156
   0.15720976  0.32076575  0.37876938
   0.99671865  0.49154856  0.62040262
   0.32681148  0.15683527  0.62167985
   0.16233915  0.32727604  0.88284115
   0.01755497  0.81913968  0.13005394
   0.33545831  0.50069813  0.13025266
   0.18256304  0.66702118  0.38074382
   0.01462659  0.81455707  0.61940727
   0.66716465  0.15228544  0.12364316
   0.49608621  0.33862601  0.37201933
   0.33123594  0.51268368  0.62300412
   0.17905978  0.66388728  0.87697270
   0.66195089  0.16555683  0.62144901
   0.49556253  0.33028221  0.87505232
   0.33423738  0.83299774  0.13898911
   0.15831985  0.00403177  0.38485289
   0.67844616  0.50640039  0.12261707
   0.50062630  0.67513428  0.35749748
   0.34493705  0.84019723  0.61825634
   0.15742273  0.99796329  0.88823268
   0.83944128  0.33756504  0.37649349
   0.67711326  0.50540049  0.62687841
   0.49022455  0.67589448  0.87218108
   0.83341780  0.34581042  0.86752037
   0.68358517  0.82145916  0.11825322
   0.47419974  0.99870613  0.38196438
   0.83342769  0.66436036  0.36971804
   0.68022839  0.83130993  0.62350767
   0.47307931  0.00803697  0.86865315
   0.84517741  0.66474386  0.86641113
   0.83713268  0.01191545  0.37462255
   0.80923384  0.00654857  0.87354185
   0.99950634  0.07937309  0.26901504
   0.98950190  0.07983791  0.76502721
   0.00176303  0.41658543  0.26249058
   0.32067466  0.08081639  0.25361388
   0.15929519  0.24900825  0.48956725
   0.99274669  0.41320250  0.74033054
   0.32898547  0.08058746  0.75388472
   0.16135694  0.24656916  0.02200564
   0.01193701  0.74122186  0.24998315
   0.33213893  0.42334293  0.24866438
   0.15033354  0.58308997  0.50115451
   0.00165427  0.73768716  0.73381333
   0.66364865  0.08779601  0.23884025
   0.49639090  0.24867775  0.50565082
   0.33352849  0.41842387  0.75743749
   0.17657467  0.57634549  0.01006923
   0.65841179  0.08515570  0.75830061
   0.49467535  0.25224619  0.99292573
   0.33626085  0.75363871  0.24870212
   0.15896703  0.90938256  0.48974392
   0.67213435  0.42060122  0.24778174
   0.49809887  0.58680986  0.49563514
   0.34428971  0.75351000  0.75153686
   0.15511870  0.91523246  0.00865119
   0.83536506  0.25121074  0.50034694
   0.67029071  0.41807491  0.74999889
   0.49713486  0.58382386  0.00157012
   0.83074806  0.25466449  0.98991012
   0.67381183  0.75881563  0.25199472
   0.52642512  0.92092023  0.49540618
   0.84289569  0.58454543  0.49372301
   0.68166790  0.76178532  0.73932525
   0.46807811  0.91680966  0.99303755
   0.84356576  0.57883053  0.00596682
   0.81631314  0.91775562  0.48292601
   0.81099896  0.91926360  0.98318014
