POSCAR                                  
   1.00000000000000     
    10.0473517767795251    0.0063335301219730   -0.0030149270705559
     0.0063338982000437   10.0137043380607231   -0.0101901001388249
    -0.0019959535116270   -0.0067532576946602    6.6459413689352820
   Zr   Na   Mg   Ca   H 
     9     9     9     9   216
Direct
  0.1690166331838299  0.1768094641877127  0.2447984987185379
  0.1718202884608715  0.8298347788752736  0.2444643207737869
  0.3399636390211640  0.6542377493616556  0.5017151376098710
  0.3317088436529261  0.0087468546401652  0.5068038434398616
  0.8282993447064584  0.4971868692576535  0.2441479547171355
  0.9942179065361287  0.3283637083217528  0.5033515315886916
  0.8265641458052286  0.4952390355724603  0.7591099155336991
  0.6695066118842803  0.0000226875382978  0.5011644066910819
  0.9988859084953674  0.6694210777419229  0.5000641793045091
  0.1733250789596852  0.1735954726286337  0.7515097397013832
  0.1693607380401190  0.5037636557801974  0.2593805145672832
  0.5005352970643457  0.1652521584558286  0.7534577785489347
  0.3313953327187633  0.3312551827882828  0.9954124301320206
  0.3351499094291768  0.6657289381131051  0.9942949433310062
  0.8283693733652058  0.1686659977355873  0.7509014972598962
  0.3352950792724911  0.0006514039643548  0.9989673805566852
  0.6646363347789617  0.6600415767048986  0.0003558033684641
  0.0112521587463448  0.3349570879245078  0.9972294130630246
  0.5023072643974089  0.1680921870151550  0.2506054306121683
  0.3445480413897215  0.3350173783017851  0.4967393854231474
  0.1705952641151001  0.4863038648211671  0.7583061615137439
  0.1677439825664919  0.8485298815702649  0.7579327556319768
  0.6544261057909750  0.3340009357397875  0.5002803585043196
  0.4982675522837354  0.4992454615639446  0.7548540260636898
  0.6507296304515293  0.3311911641690557  0.9935404193558597
  0.6637760819498340  0.6642168994261795  0.5006712145552470
  0.8308427954004287  0.8363664428941178  0.2466332377686626
  0.4971161500038903  0.4934022347299205  0.2477550507785224
  0.8305068930298916  0.1660414217572992  0.2449265427429737
  0.5043394047202909  0.8318538994387907  0.2459004452605171
  0.4970726069716349  0.8291420233311655  0.7529006173934008
  0.8388287186560675  0.8321450279510216  0.7504664946593991
  0.6631304567918050  0.0028570814437643  0.9980894920534311
  0.0037248263477991  0.6647568490056415  0.9981734358709105
  0.0000726039355925  0.0036075801210416  0.5015911813915821
  0.0004855478346997  0.0029880495387502  0.9969397894108809
  0.1716143242093580  0.0857116582508652  0.9912557009752661
  0.1649808081663764  0.0894439867788606  0.5117356508975845
  0.1801559536288195  0.4199825033643947  0.0206146857817089
  0.4955054183067844  0.0795953075319602  0.9826641009264918
  0.3382629284410470  0.2513193083147769  0.2484014821975222
  0.1648747837473081  0.4175375629045561  0.5007411213848343
  0.5032468100785863  0.0839068681558075  0.5184816898498710
  0.3450476615465519  0.2469353978522051  0.7457974064283874
  0.1758173908048590  0.7488800184152495  0.9715630102202013
  0.4820412540619543  0.4209499283492661  0.9913399500917706
  0.3295809021866845  0.5791525304665655  0.2270526371863681
  0.1739354442242913  0.7543554112191302  0.5311692681063249
  0.8309300955286218  0.0843731061034632  0.9873538813589136
  0.6655889109490829  0.2488360364093225  0.2687571691520887
  0.4995502350565175  0.4178298814218238  0.5159264415468812
  0.3150327021500345  0.5821627341983344  0.7638377896247377
  0.8347344081900516  0.0874381663420678  0.5088928839378681
  0.6585335867205586  0.2492725712830577  0.7299422128685933
  0.5076819429362232  0.7473737891637526  0.9991044986557824
  0.3366403446803048  0.9182655458043101  0.2462852797591495
  0.8557570473770753  0.4112174906100421  0.0001200880361694
  0.6635361585220210  0.5838671197598586  0.2476890195647172
  0.5051904636031352  0.7476689706502242  0.4991021605636305
  0.3298111785434656  0.9190129612268265  0.7554037520924055
  0.9941523470775167  0.2529750357539697  0.2273273825136428
  0.8212980607523974  0.4141595168114094  0.5001526122014610
  0.6565655183651344  0.5817029322544656  0.7508263547644631
  0.9895463681070851  0.2505979991398490  0.7611495115516149
  0.8231461488869058  0.7491339004483422  0.0074730187977607
  0.6702230499418746  0.9149564209477248  0.2479963350454923
  0.0044444776563708  0.5838364594150107  0.2507723347983202
  0.8214587318839577  0.7498969694744986  0.4881707176236603
  0.6683214396313772  0.9135071829925820  0.7534406237430460
  0.0283337367998726  0.5826745931062192  0.7485841542736011
  0.0007471016500205  0.9176969274115763  0.2497997215262018
  0.0078786156109487  0.9192802166896570  0.7470886936623273
  0.0820702393096013  0.1713988558977562  0.9754980566741480
  0.0851048115316502  0.1690517669431557  0.5235101259100219
  0.0843948136181965  0.4976954070836186  0.0014895210728625
  0.4181546911213374  0.1700102349558605  0.0205700900048811
  0.2510045566676524  0.3428969958013255  0.2663772470293679
  0.0847843730411171  0.4968332925418864  0.5080555014323522
  0.4185450480641038  0.1704117260302453  0.4879138031315193
  0.2512530515535616  0.3374226372513007  0.7307545429721429
  0.0829205871547174  0.8342911670206732  0.9978841478203009
  0.4161445013884801  0.4883315073534931  0.9878540205409010
  0.2514969916381489  0.6625446137109634  0.2430790103983185
  0.0857825715416283  0.8372477058803582  0.4993792175668759
  0.7454754160041688  0.1790994736353966  0.9909782207158315
  0.5839329275429392  0.3321778827653432  0.2362277165753426
  0.4240164047229058  0.4882663533509657  0.5146953091751527
  0.2471689119686857  0.6419451541338788  0.7510528640529941
  0.7472107592422788  0.1714865683539202  0.5024095930185126
  0.5761890995001622  0.3429456920387821  0.7579464071805191
  0.4162030761368598  0.8380418486656964  0.0011866645231962
  0.2519467916696172  0.0057660969362416  0.2330238328608019
  0.7435637761584388  0.4848239028323889  0.0004014416808431
  0.5854280533945584  0.6602182234670053  0.2563829573372516
  0.4148293091616395  0.8338517775600778  0.4972669329908044
  0.2510572002500382  0.0095677431660306  0.7587454565039593
  0.9181667885472820  0.3309226198962634  0.2326581246084558
  0.7458609257223827  0.5079428803458370  0.4994816790807093
  0.5851374227568442  0.6580977114534576  0.7488073279934042
  0.9189100052533803  0.3227032451833622  0.7656885961639475
  0.7501281395501636  0.8283529813828139  0.0010517416847122
  0.5780498212725362  0.0064992391674039  0.2499188734075801
  0.9161645857159257  0.6758517267467283  0.2470914786497289
  0.7514052733823533  0.8257702650035199  0.4956486828504723
  0.5820993557486389  0.9981010608121963  0.7462514202598456
  0.9182567684779173  0.6583549397309554  0.7525389713527062
  0.9183127025456130  0.9960940512739427  0.2496601711454929
  0.9168387698596874  0.0114805816936467  0.7487392491945926
  0.1767965214683400  0.0040107116153720  0.1234873342001492
  0.1645860499515805  0.0072601604663021  0.6304042873535280
  0.1709851907084428  0.3481734770372071  0.1246655517247461
  0.4962193262520458  0.0061613424054272  0.1297928092437814
  0.3435489311424433  0.1785235889063230  0.3701626570215240
  0.1937985846685137  0.3308677645458289  0.6281133934310006
  0.5016680194465835  0.0117157072316942  0.6285542820543100
  0.3324174272038789  0.1657197538808930  0.8735399397949095
  0.1762670419786687  0.6531911975114113  0.1142574051506386
  0.4959635808229734  0.3264387439457650  0.1279196392527098
  0.3312595088737282  0.4883086352728725  0.3757348731930605
  0.1638011126821581  0.6974016865424701  0.6379261699397034
  0.8285272449396075  0.9936699523568109  0.1227434849046034
  0.6608951366584535  0.1852506231019291  0.3706143748671451
  0.4978271068716964  0.3167013392194278  0.6265398739606738
  0.3291558192120689  0.4996191928857741  0.8801862621528471
  0.8349489215130674  0.0048060129634351  0.6302810574887303
  0.6659146164764422  0.1742485711736848  0.8749743619307893
  0.4951991778335483  0.6591601688642683  0.1190929191405843
  0.3382778834045581  0.8285427806305208  0.3762116006990013
  0.8105482463609377  0.3256113951843034  0.1076146912304594
  0.6624324450277612  0.4922684423259795  0.3766107562703382
  0.5062612029830902  0.6569345916280369  0.6276884774325922
  0.3257904192109962  0.8306358086797374  0.8715386961255120
  0.9996275776626717  0.1683784047457877  0.3724952614618928
  0.8103916885069395  0.3313184366778827  0.6262398088671262
  0.6552545789382052  0.4974279520337888  0.8744173781392846
  0.0136207173673739  0.1732938232590868  0.8780678186108517
  0.8278457120657308  0.6762377425003052  0.1244281636433868
  0.6710961504682160  0.8226425721265969  0.3730522776028877
  0.0033039063211788  0.4975337574019818  0.3737977067031082
  0.8226941467221565  0.6618529456857161  0.6234830716279944
  0.6681441915689703  0.8276267425083930  0.8752699395101118
  0.0092570420057783  0.4931917519247406  0.8776036382108785
  0.9990605555705088  0.8381333935682278  0.3697925573457113
  0.0124761369013200  0.8310191691463658  0.8772917639374782
  0.0821557695981383  0.9999889093463850  0.2500694210156311
  0.0830749215241156  0.0174478976523318  0.7488056560165077
  0.0834615530917375  0.3432954132304005  0.2545399333357139
  0.4165585298304606  0.0076411968416181  0.2420560679754900
  0.2540247947807401  0.1797733097200620  0.5065059538135230
  0.0833068440485505  0.3353507100537385  0.7430732582490620
  0.4152579062848787  0.0035717579270411  0.7571457367213270
  0.2537461599986059  0.1697847245467585  0.9940548874469428
  0.0847070863159587  0.6615270521943302  0.2475949317086048
  0.4162544202564078  0.3248843288549494  0.2312392643923928
  0.2484654859373663  0.4885862366322229  0.5170168769461441
  0.0925394630631757  0.6426909851990033  0.7532219938002882
  0.7515135199055507  0.9973396697546804  0.2449378514115708
  0.5800553451789270  0.1667405971442690  0.4916422782595191
  0.4090690420184515  0.3406215581680385  0.7511384816361684
  0.2485738575293510  0.4936643832132432  0.9957099390605180
  0.7530323621458308  0.9991830197583198  0.7537508611190233
  0.5790152010358369  0.1720689707481782  0.0117820944577218
  0.4183496561762254  0.6646810567319648  0.2376973835688858
  0.2514421856185507  0.8302048062331835  0.5078029540787909
  0.7477337976946927  0.3275209831802783  0.2027950931961868
  0.5859927343963847  0.5030255666154630  0.5025290996837768
  0.4163820095054263  0.6547341889502576  0.7596482572101024
  0.2529970463146469  0.8349651819519863  0.9944632084886109
  0.9089918150100900  0.1646370397683796  0.5102760810528366
  0.7501465552896178  0.3293172182467003  0.7830729419053384
  0.5835261018176254  0.4943275538652898  0.9934399514783010
  0.9158362824061612  0.1784091027373478  0.9919385964327674
  0.7501986993914684  0.6694522482480352  0.2516999498110124
  0.5837118553015728  0.8252743955838540  0.5015062366988232
  0.9125286886559607  0.5007029405919283  0.4995380602970059
  0.7463801617368873  0.6683537475743719  0.7498398510709237
  0.5827734027141318  0.8191786193984072  0.9959530431891395
  0.9226953151053152  0.4921300335852337  0.0011512756628420
  0.9156512004580932  0.8368134530713078  0.4834403581612747
  0.9175582495339754  0.8355952974736809  0.0122535466539944
  0.9994829230422155  0.1759311158028751  0.1242796585569224
  0.0055237021444441  0.1677211118935205  0.6318015310310159
  0.0117457769180547  0.4946222489355208  0.1241313378862969
  0.3505764516883403  0.1664179077013017  0.1157847070011968
  0.1890219806237781  0.3431832905582581  0.3768332456654093
  0.9950098062804713  0.5016966346618332  0.6256924038240186
  0.3351820561051255  0.1845940000164390  0.6299370748175690
  0.1712343638173550  0.3280853142893676  0.8771766499997540
  0.9915513346287028  0.8322150659128980  0.1214453877324928
  0.3268884297772843  0.5026553890931922  0.1288073505612815
  0.1694464169912280  0.6684429821279707  0.3804209235981801
  0.0097880604901803  0.8371793011061044  0.6282204246601637
  0.6532086002230599  0.1727712780545687  0.1208660731671287
  0.4985248721323714  0.3233589071742884  0.3717333107439842
  0.3368710437111133  0.4935747769413865  0.6293475112054239
  0.1731004039456039  0.6880662275984974  0.8687803913535674
  0.6631678639335519  0.1880339492923326  0.6338027681105558
  0.4958837078682805  0.3184270750657774  0.8786233204458043
  0.3384439263604975  0.8269498628312704  0.1186748629240526
  0.1670855353005933  0.0002745928270613  0.3724786677279752
  0.6605856075270324  0.4941082646678581  0.1177160375203385
  0.5099227083504374  0.6632753994420071  0.3686659085063653
  0.3253696216296476  0.8297203008487415  0.6268637715191900
  0.1731647062293078  0.0091892536066993  0.8830428660712144
  0.8076343036640452  0.3335551034106601  0.3739064986602614
  0.6622033024245297  0.4871064030862087  0.6278581903296256
  0.4973355909453332  0.6537173579142248  0.8766825506317275
  0.8178480881905585  0.3261515007215792  0.8830612274141671
  0.6736131476774148  0.8257035995828517  0.1237917921140053
  0.4979728461854336  0.0073197515865928  0.3735660786100254
  0.8230358287194690  0.6675959212694877  0.3719066024312099
  0.6685959948171458  0.8208068984948440  0.6261446746741228
  0.4924120583400295  0.0140463001718345  0.8828966799749338
  0.8265165269512025  0.6667911651973313  0.8780346677559976
  0.8329322785658775  0.9977478064030905  0.3707397770152951
  0.8306473153145291  0.0087080051839905  0.8775167505223962
  0.0021739353591954  0.0828152169923229  0.2495527477022819
  0.0022754370434086  0.0849722719412327  0.7499069633638200
  0.0093447364937802  0.4183851450050824  0.2494463917257050
  0.3344108440844025  0.0835555702575022  0.2413694856656505
  0.1661955279683980  0.2567822578365053  0.5113569710968662
  0.0047893626422137  0.4182807826629045  0.7542132598280702
  0.3342056228885824  0.0873871130769430  0.7692931259629887
  0.1730896263269130  0.2562536399221074  0.9834247816514861
  0.9908944748550184  0.7516871236778471  0.2454935812758237
  0.3318177244882676  0.4164951544495494  0.2389431868209684
  0.1672519533800667  0.5825064556123607  0.5226198050772055
  0.0105648283563653  0.7524018439246731  0.7531723611389083
  0.6640340253683377  0.0853146113905723  0.2507510764473722
  0.4994818673708750  0.2516387762581260  0.5292294120594718
  0.3500190645957417  0.4142904064066073  0.7535957298887723
  0.1749250812642273  0.5838139593861342  0.0025076025365607
  0.6653066285592431  0.0883190106448666  0.7483176024043132
  0.4910602855609199  0.2521427221102002  0.9751806421760350
  0.3386759797932655  0.7478243719620536  0.2402516883744283
  0.1659908201996103  0.9180381858674593  0.5159059135158444
  0.6596596325931401  0.4111863802790197  0.2685688563835882
  0.5097984579451520  0.5813295901179174  0.5061838095403743
  0.3250393639734952  0.7516471673506047  0.7543942221746036
  0.1728125425365192  0.9219323839396907  0.9940373262053228
  0.8137894378130781  0.2496013255634963  0.5044883933838165
  0.6490419174660929  0.4102832450662888  0.7355716475883014
  0.4988806091766946  0.5867578418387183  0.9979886434673801
  0.8513302497809931  0.2467860816883061  0.9922120876525398
  0.6745177106444302  0.7510620797755294  0.2464874310338558
  0.4970378139161440  0.9113225976290806  0.5011280898683736
  0.8291330755322193  0.5877736309534214  0.4979460169684202
  0.6691711553042126  0.7475433765375072  0.7483108077598430
  0.4924142976716723  0.9125917515303925  0.9994255393908631
  0.8313921161247038  0.5869257311466995  0.0025764119016145
  0.8341301998856849  0.9124533867338300  0.4922252029004426
  0.8302550500645651  0.9152552307447479  0.0050981829078722
 
  0.00000000E+00  0.00000000E+00  0.00000000E+00
  0.00000000E+00  0.00000000E+00  0.00000000E+00
  0.00000000E+00  0.00000000E+00  0.00000000E+00
  0.00000000E+00  0.00000000E+00  0.00000000E+00
  0.00000000E+00  0.00000000E+00  0.00000000E+00
  0.00000000E+00  0.00000000E+00  0.00000000E+00
  0.00000000E+00  0.00000000E+00  0.00000000E+00
  0.00000000E+00  0.00000000E+00  0.00000000E+00
  0.00000000E+00  0.00000000E+00  0.00000000E+00
  0.00000000E+00  0.00000000E+00  0.00000000E+00
  0.00000000E+00  0.00000000E+00  0.00000000E+00
  0.00000000E+00  0.00000000E+00  0.00000000E+00
  0.00000000E+00  0.00000000E+00  0.00000000E+00
  0.00000000E+00  0.00000000E+00  0.00000000E+00
  0.00000000E+00  0.00000000E+00  0.00000000E+00
  0.00000000E+00  0.00000000E+00  0.00000000E+00
  0.00000000E+00  0.00000000E+00  0.00000000E+00
  0.00000000E+00  0.00000000E+00  0.00000000E+00
  0.00000000E+00  0.00000000E+00  0.00000000E+00
  0.00000000E+00  0.00000000E+00  0.00000000E+00
  0.00000000E+00  0.00000000E+00  0.00000000E+00
  0.00000000E+00  0.00000000E+00  0.00000000E+00
  0.00000000E+00  0.00000000E+00  0.00000000E+00
  0.00000000E+00  0.00000000E+00  0.00000000E+00
  0.00000000E+00  0.00000000E+00  0.00000000E+00
  0.00000000E+00  0.00000000E+00  0.00000000E+00
  0.00000000E+00  0.00000000E+00  0.00000000E+00
  0.00000000E+00  0.00000000E+00  0.00000000E+00
  0.00000000E+00  0.00000000E+00  0.00000000E+00
  0.00000000E+00  0.00000000E+00  0.00000000E+00
  0.00000000E+00  0.00000000E+00  0.00000000E+00
  0.00000000E+00  0.00000000E+00  0.00000000E+00
  0.00000000E+00  0.00000000E+00  0.00000000E+00
  0.00000000E+00  0.00000000E+00  0.00000000E+00
  0.00000000E+00  0.00000000E+00  0.00000000E+00
  0.00000000E+00  0.00000000E+00  0.00000000E+00
  0.00000000E+00  0.00000000E+00  0.00000000E+00
  0.00000000E+00  0.00000000E+00  0.00000000E+00
  0.00000000E+00  0.00000000E+00  0.00000000E+00
  0.00000000E+00  0.00000000E+00  0.00000000E+00
  0.00000000E+00  0.00000000E+00  0.00000000E+00
  0.00000000E+00  0.00000000E+00  0.00000000E+00
  0.00000000E+00  0.00000000E+00  0.00000000E+00
  0.00000000E+00  0.00000000E+00  0.00000000E+00
  0.00000000E+00  0.00000000E+00  0.00000000E+00
  0.00000000E+00  0.00000000E+00  0.00000000E+00
  0.00000000E+00  0.00000000E+00  0.00000000E+00
  0.00000000E+00  0.00000000E+00  0.00000000E+00
  0.00000000E+00  0.00000000E+00  0.00000000E+00
  0.00000000E+00  0.00000000E+00  0.00000000E+00
  0.00000000E+00  0.00000000E+00  0.00000000E+00
  0.00000000E+00  0.00000000E+00  0.00000000E+00
  0.00000000E+00  0.00000000E+00  0.00000000E+00
  0.00000000E+00  0.00000000E+00  0.00000000E+00
  0.00000000E+00  0.00000000E+00  0.00000000E+00
  0.00000000E+00  0.00000000E+00  0.00000000E+00
  0.00000000E+00  0.00000000E+00  0.00000000E+00
  0.00000000E+00  0.00000000E+00  0.00000000E+00
  0.00000000E+00  0.00000000E+00  0.00000000E+00
  0.00000000E+00  0.00000000E+00  0.00000000E+00
  0.00000000E+00  0.00000000E+00  0.00000000E+00
  0.00000000E+00  0.00000000E+00  0.00000000E+00
  0.00000000E+00  0.00000000E+00  0.00000000E+00
  0.00000000E+00  0.00000000E+00  0.00000000E+00
  0.00000000E+00  0.00000000E+00  0.00000000E+00
  0.00000000E+00  0.00000000E+00  0.00000000E+00
  0.00000000E+00  0.00000000E+00  0.00000000E+00
  0.00000000E+00  0.00000000E+00  0.00000000E+00
  0.00000000E+00  0.00000000E+00  0.00000000E+00
  0.00000000E+00  0.00000000E+00  0.00000000E+00
  0.00000000E+00  0.00000000E+00  0.00000000E+00
  0.00000000E+00  0.00000000E+00  0.00000000E+00
  0.00000000E+00  0.00000000E+00  0.00000000E+00
  0.00000000E+00  0.00000000E+00  0.00000000E+00
  0.00000000E+00  0.00000000E+00  0.00000000E+00
  0.00000000E+00  0.00000000E+00  0.00000000E+00
  0.00000000E+00  0.00000000E+00  0.00000000E+00
  0.00000000E+00  0.00000000E+00  0.00000000E+00
  0.00000000E+00  0.00000000E+00  0.00000000E+00
  0.00000000E+00  0.00000000E+00  0.00000000E+00
  0.00000000E+00  0.00000000E+00  0.00000000E+00
  0.00000000E+00  0.00000000E+00  0.00000000E+00
  0.00000000E+00  0.00000000E+00  0.00000000E+00
  0.00000000E+00  0.00000000E+00  0.00000000E+00
  0.00000000E+00  0.00000000E+00  0.00000000E+00
  0.00000000E+00  0.00000000E+00  0.00000000E+00
  0.00000000E+00  0.00000000E+00  0.00000000E+00
  0.00000000E+00  0.00000000E+00  0.00000000E+00
  0.00000000E+00  0.00000000E+00  0.00000000E+00
  0.00000000E+00  0.00000000E+00  0.00000000E+00
  0.00000000E+00  0.00000000E+00  0.00000000E+00
  0.00000000E+00  0.00000000E+00  0.00000000E+00
  0.00000000E+00  0.00000000E+00  0.00000000E+00
  0.00000000E+00  0.00000000E+00  0.00000000E+00
  0.00000000E+00  0.00000000E+00  0.00000000E+00
  0.00000000E+00  0.00000000E+00  0.00000000E+00
  0.00000000E+00  0.00000000E+00  0.00000000E+00
  0.00000000E+00  0.00000000E+00  0.00000000E+00
  0.00000000E+00  0.00000000E+00  0.00000000E+00
  0.00000000E+00  0.00000000E+00  0.00000000E+00
  0.00000000E+00  0.00000000E+00  0.00000000E+00
  0.00000000E+00  0.00000000E+00  0.00000000E+00
  0.00000000E+00  0.00000000E+00  0.00000000E+00
  0.00000000E+00  0.00000000E+00  0.00000000E+00
  0.00000000E+00  0.00000000E+00  0.00000000E+00
  0.00000000E+00  0.00000000E+00  0.00000000E+00
  0.00000000E+00  0.00000000E+00  0.00000000E+00
  0.00000000E+00  0.00000000E+00  0.00000000E+00
  0.00000000E+00  0.00000000E+00  0.00000000E+00
  0.00000000E+00  0.00000000E+00  0.00000000E+00
  0.00000000E+00  0.00000000E+00  0.00000000E+00
  0.00000000E+00  0.00000000E+00  0.00000000E+00
  0.00000000E+00  0.00000000E+00  0.00000000E+00
  0.00000000E+00  0.00000000E+00  0.00000000E+00
  0.00000000E+00  0.00000000E+00  0.00000000E+00
  0.00000000E+00  0.00000000E+00  0.00000000E+00
  0.00000000E+00  0.00000000E+00  0.00000000E+00
  0.00000000E+00  0.00000000E+00  0.00000000E+00
  0.00000000E+00  0.00000000E+00  0.00000000E+00
  0.00000000E+00  0.00000000E+00  0.00000000E+00
  0.00000000E+00  0.00000000E+00  0.00000000E+00
  0.00000000E+00  0.00000000E+00  0.00000000E+00
  0.00000000E+00  0.00000000E+00  0.00000000E+00
  0.00000000E+00  0.00000000E+00  0.00000000E+00
  0.00000000E+00  0.00000000E+00  0.00000000E+00
  0.00000000E+00  0.00000000E+00  0.00000000E+00
  0.00000000E+00  0.00000000E+00  0.00000000E+00
  0.00000000E+00  0.00000000E+00  0.00000000E+00
  0.00000000E+00  0.00000000E+00  0.00000000E+00
  0.00000000E+00  0.00000000E+00  0.00000000E+00
  0.00000000E+00  0.00000000E+00  0.00000000E+00
  0.00000000E+00  0.00000000E+00  0.00000000E+00
  0.00000000E+00  0.00000000E+00  0.00000000E+00
  0.00000000E+00  0.00000000E+00  0.00000000E+00
  0.00000000E+00  0.00000000E+00  0.00000000E+00
  0.00000000E+00  0.00000000E+00  0.00000000E+00
  0.00000000E+00  0.00000000E+00  0.00000000E+00
  0.00000000E+00  0.00000000E+00  0.00000000E+00
  0.00000000E+00  0.00000000E+00  0.00000000E+00
  0.00000000E+00  0.00000000E+00  0.00000000E+00
  0.00000000E+00  0.00000000E+00  0.00000000E+00
  0.00000000E+00  0.00000000E+00  0.00000000E+00
  0.00000000E+00  0.00000000E+00  0.00000000E+00
  0.00000000E+00  0.00000000E+00  0.00000000E+00
  0.00000000E+00  0.00000000E+00  0.00000000E+00
  0.00000000E+00  0.00000000E+00  0.00000000E+00
  0.00000000E+00  0.00000000E+00  0.00000000E+00
  0.00000000E+00  0.00000000E+00  0.00000000E+00
  0.00000000E+00  0.00000000E+00  0.00000000E+00
  0.00000000E+00  0.00000000E+00  0.00000000E+00
  0.00000000E+00  0.00000000E+00  0.00000000E+00
  0.00000000E+00  0.00000000E+00  0.00000000E+00
  0.00000000E+00  0.00000000E+00  0.00000000E+00
  0.00000000E+00  0.00000000E+00  0.00000000E+00
  0.00000000E+00  0.00000000E+00  0.00000000E+00
  0.00000000E+00  0.00000000E+00  0.00000000E+00
  0.00000000E+00  0.00000000E+00  0.00000000E+00
  0.00000000E+00  0.00000000E+00  0.00000000E+00
  0.00000000E+00  0.00000000E+00  0.00000000E+00
  0.00000000E+00  0.00000000E+00  0.00000000E+00
  0.00000000E+00  0.00000000E+00  0.00000000E+00
  0.00000000E+00  0.00000000E+00  0.00000000E+00
  0.00000000E+00  0.00000000E+00  0.00000000E+00
  0.00000000E+00  0.00000000E+00  0.00000000E+00
  0.00000000E+00  0.00000000E+00  0.00000000E+00
  0.00000000E+00  0.00000000E+00  0.00000000E+00
  0.00000000E+00  0.00000000E+00  0.00000000E+00
  0.00000000E+00  0.00000000E+00  0.00000000E+00
  0.00000000E+00  0.00000000E+00  0.00000000E+00
  0.00000000E+00  0.00000000E+00  0.00000000E+00
  0.00000000E+00  0.00000000E+00  0.00000000E+00
  0.00000000E+00  0.00000000E+00  0.00000000E+00
  0.00000000E+00  0.00000000E+00  0.00000000E+00
  0.00000000E+00  0.00000000E+00  0.00000000E+00
  0.00000000E+00  0.00000000E+00  0.00000000E+00
  0.00000000E+00  0.00000000E+00  0.00000000E+00
  0.00000000E+00  0.00000000E+00  0.00000000E+00
  0.00000000E+00  0.00000000E+00  0.00000000E+00
  0.00000000E+00  0.00000000E+00  0.00000000E+00
  0.00000000E+00  0.00000000E+00  0.00000000E+00
  0.00000000E+00  0.00000000E+00  0.00000000E+00
  0.00000000E+00  0.00000000E+00  0.00000000E+00
  0.00000000E+00  0.00000000E+00  0.00000000E+00
  0.00000000E+00  0.00000000E+00  0.00000000E+00
  0.00000000E+00  0.00000000E+00  0.00000000E+00
  0.00000000E+00  0.00000000E+00  0.00000000E+00
  0.00000000E+00  0.00000000E+00  0.00000000E+00
  0.00000000E+00  0.00000000E+00  0.00000000E+00
  0.00000000E+00  0.00000000E+00  0.00000000E+00
  0.00000000E+00  0.00000000E+00  0.00000000E+00
  0.00000000E+00  0.00000000E+00  0.00000000E+00
  0.00000000E+00  0.00000000E+00  0.00000000E+00
  0.00000000E+00  0.00000000E+00  0.00000000E+00
  0.00000000E+00  0.00000000E+00  0.00000000E+00
  0.00000000E+00  0.00000000E+00  0.00000000E+00
  0.00000000E+00  0.00000000E+00  0.00000000E+00
  0.00000000E+00  0.00000000E+00  0.00000000E+00
  0.00000000E+00  0.00000000E+00  0.00000000E+00
  0.00000000E+00  0.00000000E+00  0.00000000E+00
  0.00000000E+00  0.00000000E+00  0.00000000E+00
  0.00000000E+00  0.00000000E+00  0.00000000E+00
  0.00000000E+00  0.00000000E+00  0.00000000E+00
  0.00000000E+00  0.00000000E+00  0.00000000E+00
  0.00000000E+00  0.00000000E+00  0.00000000E+00
  0.00000000E+00  0.00000000E+00  0.00000000E+00
  0.00000000E+00  0.00000000E+00  0.00000000E+00
  0.00000000E+00  0.00000000E+00  0.00000000E+00
  0.00000000E+00  0.00000000E+00  0.00000000E+00
  0.00000000E+00  0.00000000E+00  0.00000000E+00
  0.00000000E+00  0.00000000E+00  0.00000000E+00
  0.00000000E+00  0.00000000E+00  0.00000000E+00
  0.00000000E+00  0.00000000E+00  0.00000000E+00
  0.00000000E+00  0.00000000E+00  0.00000000E+00
  0.00000000E+00  0.00000000E+00  0.00000000E+00
  0.00000000E+00  0.00000000E+00  0.00000000E+00
  0.00000000E+00  0.00000000E+00  0.00000000E+00
  0.00000000E+00  0.00000000E+00  0.00000000E+00
  0.00000000E+00  0.00000000E+00  0.00000000E+00
  0.00000000E+00  0.00000000E+00  0.00000000E+00
  0.00000000E+00  0.00000000E+00  0.00000000E+00
  0.00000000E+00  0.00000000E+00  0.00000000E+00
  0.00000000E+00  0.00000000E+00  0.00000000E+00
  0.00000000E+00  0.00000000E+00  0.00000000E+00
  0.00000000E+00  0.00000000E+00  0.00000000E+00
  0.00000000E+00  0.00000000E+00  0.00000000E+00
  0.00000000E+00  0.00000000E+00  0.00000000E+00
  0.00000000E+00  0.00000000E+00  0.00000000E+00
  0.00000000E+00  0.00000000E+00  0.00000000E+00
  0.00000000E+00  0.00000000E+00  0.00000000E+00
  0.00000000E+00  0.00000000E+00  0.00000000E+00
  0.00000000E+00  0.00000000E+00  0.00000000E+00
  0.00000000E+00  0.00000000E+00  0.00000000E+00
  0.00000000E+00  0.00000000E+00  0.00000000E+00
  0.00000000E+00  0.00000000E+00  0.00000000E+00
  0.00000000E+00  0.00000000E+00  0.00000000E+00
  0.00000000E+00  0.00000000E+00  0.00000000E+00
  0.00000000E+00  0.00000000E+00  0.00000000E+00
  0.00000000E+00  0.00000000E+00  0.00000000E+00
  0.00000000E+00  0.00000000E+00  0.00000000E+00
  0.00000000E+00  0.00000000E+00  0.00000000E+00
  0.00000000E+00  0.00000000E+00  0.00000000E+00
  0.00000000E+00  0.00000000E+00  0.00000000E+00
  0.00000000E+00  0.00000000E+00  0.00000000E+00
  0.00000000E+00  0.00000000E+00  0.00000000E+00
  0.00000000E+00  0.00000000E+00  0.00000000E+00
  0.00000000E+00  0.00000000E+00  0.00000000E+00
  0.00000000E+00  0.00000000E+00  0.00000000E+00
  0.00000000E+00  0.00000000E+00  0.00000000E+00
  0.00000000E+00  0.00000000E+00  0.00000000E+00
  0.00000000E+00  0.00000000E+00  0.00000000E+00
  0.00000000E+00  0.00000000E+00  0.00000000E+00
  0.00000000E+00  0.00000000E+00  0.00000000E+00
