       N       E                     dE             d eps       ncg     rms          rms(c)
DAV:   1     0.144894892479E+05    0.14489E+05   -0.27020E+05138360   0.255E+03
DAV:   2     0.272465716947E+04   -0.11765E+05   -0.10991E+05137760   0.825E+02
DAV:   3    -0.199191592476E+03   -0.29238E+04   -0.26674E+04168352   0.427E+02
DAV:   4    -0.657598944830E+03   -0.45841E+03   -0.43583E+03233208   0.236E+02
DAV:   5    -0.689856442624E+03   -0.32257E+02   -0.31083E+02231664   0.743E+01
DAV:   6    -0.692199706817E+03   -0.23433E+01   -0.22842E+01237824   0.170E+01
DAV:   7    -0.692376217494E+03   -0.17651E+00   -0.17410E+00234384   0.466E+00
DAV:   8    -0.692394458871E+03   -0.18241E-01   -0.18104E-01252544   0.137E+00
DAV:   9    -0.692396067606E+03   -0.16087E-02   -0.16028E-02243488   0.408E-01
DAV:  10    -0.692396242304E+03   -0.17470E-03   -0.17444E-03255296   0.115E-01
DAV:  11    -0.692396256137E+03   -0.13833E-04   -0.13836E-04236480   0.288E-02
DAV:  12    -0.692396257601E+03   -0.14641E-05   -0.14651E-05191848   0.779E-03
DAV:  13    -0.692396257759E+03   -0.15755E-06   -0.15820E-06148360   0.273E-03
DAV:  14    -0.692396257776E+03   -0.17426E-07   -0.18344E-07139168   0.126E-03
   1 F= -.69239626E+03 E0= -.69239626E+03  d E =0.000000E+00
