generated by phonopy                    
   1.00000000000000     
     0.0000000000000000    3.3690299010817224    3.3690299010817797
     3.3690299010817464    0.0000000000000000    3.3690299010817797
     3.3690299010817464    3.3690299010817224    0.0000000000000000
   Sc   Zr   Y    Hf   H 
     1     1     1     1    24
Direct
  0.2500000000000000  0.2500000000000000  0.2500000000000000
  0.7500000000000000  0.7500000000000000  0.7500000000000000
  0.0000000000000000  0.0000000000000000  0.0000000000000000
  0.5000000000000000  0.5000000000000000  0.5000000000000000
  0.1275831098118658  0.8819432328954022  0.6185785944961921
  0.8819432328954022  0.1275831098118658  0.3718950627965398
  0.6185785944961921  0.3718950627965398  0.1275831098118658
  0.3718950627965398  0.6185785944961921  0.8819432328954022
  0.6185785944961921  0.1275831098118658  0.8819432328954022
  0.3718950627965398  0.8819432328954022  0.1275831098118658
  0.1275831098118658  0.6185785944961921  0.3718950627965398
  0.8819432328954022  0.3718950627965398  0.6185785944961921
  0.8819432328954022  0.6185785944961921  0.1275831098118658
  0.1275831098118658  0.3718950627965398  0.8819432328954022
  0.3718950627965398  0.1275831098118658  0.6185785944961921
  0.6185785944961921  0.8819432328954022  0.3718950627965398
  0.1275831098118658  0.3718950627965398  0.6185785944961921
  0.3718950627965398  0.1275831098118658  0.8819432328954022
  0.6185785944961921  0.8819432328954022  0.1275831098118658
  0.8819432328954022  0.6185785944961921  0.3718950627965398
  0.6185785944961921  0.1275831098118658  0.3718950627965398
  0.8819432328954022  0.3718950627965398  0.1275831098118658
  0.1275831098118658  0.6185785944961921  0.8819432328954022
  0.3718950627965398  0.8819432328954022  0.6185785944961921
  0.3718950627965398  0.6185785944961921  0.1275831098118658
  0.1275831098118658  0.8819432328954022  0.3718950627965398
  0.8819432328954022  0.1275831098118658  0.6185785944961921
  0.6185785944961921  0.3718950627965398  0.8819432328954022
 
  0.00000000E+00  0.00000000E+00  0.00000000E+00
  0.00000000E+00  0.00000000E+00  0.00000000E+00
  0.00000000E+00  0.00000000E+00  0.00000000E+00
  0.00000000E+00  0.00000000E+00  0.00000000E+00
  0.00000000E+00  0.00000000E+00  0.00000000E+00
  0.00000000E+00  0.00000000E+00  0.00000000E+00
  0.00000000E+00  0.00000000E+00  0.00000000E+00
  0.00000000E+00  0.00000000E+00  0.00000000E+00
  0.00000000E+00  0.00000000E+00  0.00000000E+00
  0.00000000E+00  0.00000000E+00  0.00000000E+00
  0.00000000E+00  0.00000000E+00  0.00000000E+00
  0.00000000E+00  0.00000000E+00  0.00000000E+00
  0.00000000E+00  0.00000000E+00  0.00000000E+00
  0.00000000E+00  0.00000000E+00  0.00000000E+00
  0.00000000E+00  0.00000000E+00  0.00000000E+00
  0.00000000E+00  0.00000000E+00  0.00000000E+00
  0.00000000E+00  0.00000000E+00  0.00000000E+00
  0.00000000E+00  0.00000000E+00  0.00000000E+00
  0.00000000E+00  0.00000000E+00  0.00000000E+00
  0.00000000E+00  0.00000000E+00  0.00000000E+00
  0.00000000E+00  0.00000000E+00  0.00000000E+00
  0.00000000E+00  0.00000000E+00  0.00000000E+00
  0.00000000E+00  0.00000000E+00  0.00000000E+00
  0.00000000E+00  0.00000000E+00  0.00000000E+00
  0.00000000E+00  0.00000000E+00  0.00000000E+00
  0.00000000E+00  0.00000000E+00  0.00000000E+00
  0.00000000E+00  0.00000000E+00  0.00000000E+00
  0.00000000E+00  0.00000000E+00  0.00000000E+00
