POSCAR                                  
   1.00000000000000     
     9.7211910543193518    0.0023987090769398   -0.0541020890050387
     0.0024451493694908    9.6092220109935838   -0.0101837446251722
    -0.0362618892298740   -0.0068365538500363    6.4266511914353686
   Mg   Hf   Zr   Na   H 
     9     9     9     9   216
Direct
  0.1539896660464493  0.1499037290250627  0.2504730742384496
  0.1463326205267279  0.5196122810992136  0.2473576931737398
  0.3036720818456828  0.3201442244255190  0.0293967298210802
  0.8455178348203631  0.1684563417266531  0.2472525421085905
  0.4979359510450223  0.4981631384689038  0.7507583825024398
  0.6974778849809695  0.3188044559039440  0.0083877422373391
  0.4977984204460881  0.8316604904241771  0.7521845726094867
  0.0006800171648820  0.9961450743866678  0.5020927873164567
  0.0000279941135588  0.9993746710830322  0.0072028045117065
  0.1610742595460835  0.1691107598439672  0.7561135290331151
  0.4984973656538330  0.1693570343130091  0.2299186727253328
  0.1758867811130571  0.4980243347842190  0.7744859425864021
  0.5069510406407787  0.4919519749216690  0.2191264994617725
  0.6766924389979749  0.3282447042405110  0.4832302862699080
  0.3272590221955411  0.0024309241523497  0.5018486100491089
  0.0043763629496993  0.3387952878545164  0.4939532285062000
  0.8288736770095397  0.4938577245070377  0.7541872362117346
  0.6713770928067433  0.0058286897984416  0.5000200573086673
  0.3301053681914539  0.3370882153604455  0.4823871193429312
  0.5056559722721872  0.1783767586864471  0.7605654910614916
  0.3258057154503717  0.6559448190272761  0.4883537881329403
  0.1683627797625462  0.8319757976282176  0.7553389656013394
  0.4911028507457758  0.8312311408292530  0.2468314508500882
  0.6671955995444492  0.6631298576495510  0.4962836123033796
  0.6692980686358609  0.6742451021344138  0.9956555201435151
  0.8416808093961379  0.8348781803111294  0.2475069153209972
  0.8344375906176538  0.8397356010786510  0.7528359801232369
  0.1652386123499667  0.8347263032324292  0.2502387673199635
  0.3231969919654034  0.6777184010055066  0.0023860457459506
  0.8351867203405519  0.1676956006256489  0.7480367038963180
  0.8377633031869536  0.4986461383033856  0.2438800402965597
  0.3319125148489377  0.9980538785370783  0.0021997985589977
  0.0017477909525638  0.3334438302963534  0.0015633075299846
  0.0008956681692212  0.6723945091098571  0.5031500135648770
  0.6647569122227281  0.0038535169629625  0.9968358480078905
  0.0025151412022097  0.6665966506317247  0.0029266994265384
  0.1586055927187502  0.0785042336070418  0.0106587701486731
  0.1561942638230320  0.0813474952107072  0.4917027857799994
  0.1592515552130038  0.4171949494815834  0.0292091559420058
  0.4963646207150347  0.0743697822280538  0.9922682654168540
  0.2735387843224970  0.2562081679589596  0.2522301608852473
  0.1669203097651959  0.4236650931110688  0.4681748130818519
  0.4976571910676029  0.0877820113995753  0.5026465263255986
  0.3328562994214863  0.2574518220589965  0.7776317316185057
  0.1611873304046298  0.7502422899463355  0.0131210308064809
  0.4332501220772471  0.4172491172666426  0.9833736245483493
  0.3102808371375616  0.5815319554195142  0.2319257321162027
  0.1603517243133084  0.7510983628413967  0.4927069947387182
  0.8447979101212084  0.0819933243834399  0.9992147782095344
  0.6825687028294354  0.2402005747264297  0.2319951177558508
  0.4973999267922906  0.4103911095682591  0.5237005153423837
  0.3393533003042890  0.5911694492481558  0.7537179364019835
  0.8467581406539963  0.0855577735533544  0.4980201504286939
  0.6752818670135525  0.2545638441742781  0.7667872485451994
  0.4891145784091577  0.7438359642650170  0.9860538161892194
  0.3231161992911353  0.9171626087683720  0.2411598068993612
  0.8420237325930131  0.4163031102220742  0.0121156408815963
  0.6789882766887558  0.5794034497682219  0.2369593859989507
  0.4951917199110909  0.7477147703742304  0.5103753633189427
  0.3380106150970121  0.9170548294678298  0.7620894515190315
  0.0021469137816013  0.2468039279317651  0.2412457968807615
  0.8373016110521405  0.4229359549629876  0.4809020878352186
  0.6546536860522778  0.5789320307429122  0.7512730781421979
  0.9922692391886869  0.2507756123606200  0.7561957196089040
  0.8461663920286711  0.7493469707099720  0.9969740062965045
  0.6675230632689093  0.9208142270061899  0.2371053332357249
  0.9920220814925784  0.5883961970349247  0.2602173905164307
  0.8421992082456740  0.7472804274414244  0.5023241455632004
  0.6580569183985148  0.9185873993668423  0.7569011285583329
  0.0008355675180312  0.5835160931113279  0.7489071058445447
  0.0067673888489779  0.9182333484668774  0.2529394738252009
  0.0053489714478374  0.9232116953224363  0.7633955437438829
  0.0750455171142832  0.1591834291848571  0.0112464561821710
  0.0804192858692971  0.1580930458952992  0.4914743565341055
  0.0777257023205848  0.5003338804163562  0.0136910679937756
  0.4022210164919287  0.1637828567141000  0.0018664155374424
  0.2361707769189678  0.3875170781277717  0.2376119224081705
  0.0813587979173747  0.5106461239041806  0.5071418222980313
  0.4182303620516024  0.1715208870807814  0.4955366805802868
  0.2727832957578187  0.3388806586206670  0.7724519435523547
  0.0812054136792781  0.8361318200380339  0.0141948684895041
  0.4333068694477902  0.5549616932467600  0.9715979155594638
  0.2485304620895761  0.6644037299381651  0.2334471761120085
  0.0825176957227356  0.8337710488794983  0.4935570547945858
  0.7583739742395323  0.1555953006883897  0.0013611272544480
  0.5947152632283874  0.3247593817229060  0.2267674537636069
  0.4271108194866713  0.4929853183310300  0.5192423476057115
  0.2556465953883276  0.6671155962797854  0.7628644784413936
  0.7621608191293419  0.1651837351054368  0.4939804741514777
  0.5634028727211344  0.3398065626048492  0.8699058933501860
  0.4155277235955666  0.8294804694458051  0.9856726471415200
  0.2469974333520284  0.9977532401795699  0.2413318259082615
  0.7457277226986960  0.4910939935186462  0.0001462602246320
  0.5803067484600533  0.6649577800438706  0.2386288105280130
  0.4178889153870742  0.8305830997387531  0.5147247054753521
  0.2514497155800157  0.0015004228767452  0.7678914283422102
  0.9218178236936581  0.3321507416853677  0.2350858982526773
  0.7556342401231646  0.4980004040340447  0.4837064942098621
  0.5757674299060582  0.6607864666937573  0.7496495557669505
  0.9185343125955541  0.3265615295908901  0.7586171504081065
  0.7468808704406129  0.8502387142363830  0.0018790414438143
  0.5865315348167073  0.0018413613876902  0.2364261822585192
  0.9168065080162577  0.6616185932600587  0.2465458792477406
  0.7487134549380769  0.8350810765320844  0.4976501163744587
  0.5802793377036366  0.9945921469832086  0.7552900424086957
  0.9183046918329509  0.6666133870188062  0.7539552161440710
  0.9186813715358895  0.0081081559841820  0.2529834494726089
  0.9181678939419911  0.0090452225018680  0.7605231417532039
  0.1615427691083298  0.9968624791764924  0.1245089773960331
  0.1526122498596649  0.0005431118887671  0.6306265052644875
  0.1491504778245556  0.3068501078268824  0.1361390482868217
  0.4982745625667135  0.9978772311644448  0.1143403258502644
  0.3272801430319632  0.1678576633398094  0.3689867365413377
  0.1761564770737678  0.3395096064385470  0.6256205413564828
  0.4988917151510961  0.9987474737474926  0.6297666851694217
  0.3325458742452483  0.1630199686492233  0.8826161678016504
  0.1598203534574480  0.6756433982504646  0.1238006428155245
  0.5291431754673894  0.3270529357529028  0.0932818620397455
  0.3579287055767892  0.4955277792041741  0.3595667868313441
  0.1606799470335858  0.6633421454366584  0.6254333284659026
  0.8358454931932684  0.0097453271103163  0.1234971101008711
  0.6718951990271620  0.1633530627395672  0.3627306354939321
  0.5702278714653843  0.3481140076201683  0.6884958090664242
  0.3602966325590344  0.5297043780388364  0.8889184518347264
  0.8462953977943783  0.0089623315629197  0.6260010773600655
  0.6805200218868563  0.1645558200343018  0.8804109677489365
  0.4866875073294565  0.6586312609224763  0.1043640494614664
  0.3231853014396364  0.8333266853188661  0.3755943956871093
  0.8506462695763375  0.3361853517173969  0.1226300900286006
  0.6743848194208795  0.4998228104470002  0.3595124174072311
  0.4996914281660452  0.6625353724579313  0.6241402781889747
  0.3409153205181923  0.8344172689470639  0.8760596516779202
  0.0038585717985029  0.1564343673912774  0.3749205371944342
  0.8362739558348338  0.3252753848997898  0.6252418476715036
  0.6608948871426961  0.4812358562929830  0.8705033386107033
  0.9916120571167184  0.1655768393224335  0.8809521038872674
  0.8447250449093460  0.6567095646540437  0.1235132227826341
  0.6630157127524470  0.8338208748533091  0.3697593614372039
  0.9954336702702165  0.5180903687776137  0.3705505610723918
  0.8403692123884667  0.6670597576185173  0.6197376624298485
  0.6597453163134830  0.8448738728600134  0.8739169721017248
  0.9972956197726077  0.5013604145459496  0.8818653419124303
  0.0073148984152809  0.8348353324067190  0.3762533373389161
  0.9990082845009525  0.8335661517384807  0.8814219157582954
  0.0802957211509892  0.9908426238066497  0.2546082536676053
  0.0755624869315312  0.9972042634617893  0.7619028326753536
  0.0883824224861414  0.3502616217666059  0.2428130988353630
  0.4136605800079423  0.0015991900047396  0.2425743215061544
  0.2455223000367965  0.1700900640894361  0.4922406717916132
  0.0788136089165974  0.3389338471836609  0.7615603036748269
  0.4172455754532933  0.9974612403933989  0.7557891548949627
  0.2447121466842361  0.1556369070027230  0.0126358776702560
  0.0779503208834242  0.6796418896500427  0.2532038323446670
  0.4084495199079470  0.3305905043806021  0.2240032310703626
  0.2430683965379927  0.4975326879762392  0.4552713359268523
  0.0753831263031159  0.6661336921360075  0.7523111189077767
  0.7541791593850817  0.0105288777786043  0.2315695656023919
  0.5784194814838912  0.1690663267328034  0.4955498647775229
  0.4310015346383551  0.3444249148154483  0.7022594531272190
  0.2590963366104830  0.5022408592040506  0.0200713765821448
  0.7520043463340258  0.0106635873456895  0.7664391103710670
  0.5941837832154064  0.1741690985825954  0.0052509490112982
  0.4133848043880448  0.6538320116655285  0.2247299974959915
  0.2471971268929423  0.8306072422745956  0.4895180930441470
  0.7643769363607191  0.3267632562019713  0.2393399055342726
  0.5818654941042283  0.4912461843707874  0.4991009111218929
  0.4187810317411618  0.6659119863494354  0.7502700501564945
  0.2482453740165624  0.8403887911710299  0.0119662450435314
  0.9195444117815796  0.1598951699590714  0.4996574818040358
  0.7462265352754400  0.3259219065908212  0.7608813135583858
  0.5604246386812051  0.4085212288275173  0.9728598192039897
  0.9162019954127132  0.1629466984315329  0.9958705303877338
  0.7539374296732859  0.6622631671342205  0.2468463711167104
  0.5790917050923099  0.8364778245146454  0.5073986223591049
  0.9185844262556841  0.5100728237161150  0.4918562212908029
  0.7515661420099988  0.6680892139587513  0.7472288549358694
  0.5814856450134727  0.8393359756349454  0.9921795009633030
  0.9207131073309043  0.4993177629353127  0.0065972327097228
  0.9209906477190941  0.8345935609169643  0.5011969660126923
  0.9235007114923590  0.8359854279228784  0.9973701809842552
  0.0030234681184211  0.1661130273435987  0.1247410779536011
  0.9946889352445325  0.1512960852367016  0.6283865208829411
  0.9948170495042490  0.5021557270963228  0.1183148104452769
  0.3162508849189862  0.1592918989964218  0.1290527965792165
  0.1596236110339717  0.3113760899670197  0.3596743910475766
  0.0006788934838653  0.5112101302693048  0.6286368458586153
  0.3366724000788111  0.1754660329425235  0.6336793724784542
  0.1601979002659348  0.3299655155575891  0.8894526449108895
  0.0106640821526369  0.8351987777540018  0.1220297254081757
  0.3440446860399078  0.4941003638805839  0.0972400030689684
  0.1555756076207615  0.6735163077696242  0.3752063143706152
  0.9992271187939110  0.8396190942886079  0.6257842693940603
  0.6933039611313987  0.1602779606736178  0.1194160577447434
  0.5050931275047859  0.3355696959162344  0.3726566415976933
  0.3344082948185161  0.4904686334903587  0.6342142918190419
  0.1659383353335357  0.6701945288205451  0.8857079075598691
  0.6732634239007851  0.1722765612811230  0.6341875455095618
  0.4345080151226242  0.3448587729585100  0.8796926128916098
  0.3221255947188482  0.8388972735346201  0.1212173134876622
  0.1551381733767272  0.9933690898526493  0.3757729563386079
  0.6776723485051477  0.4899033497832121  0.1087597874505164
  0.4987691962266823  0.6575874566133351  0.3690168223101296
  0.3398464659328368  0.8306090356211797  0.6273210349110911
  0.1672556096190192  0.0004193723194348  0.8866569248099267
  0.8434005502877326  0.3366401239761316  0.3619863669468231
  0.6578694812281611  0.4978548329984562  0.6208277533683102
  0.4928897203621077  0.6654063457807879  0.8758436311876139
  0.8439129195146222  0.3212977130888603  0.8776986762048367
  0.6670073897250077  0.8475513333859510  0.1238629952392571
  0.5024677633445620  0.0006198748545856  0.3733490353349893
  0.8415220581512273  0.6606133810086163  0.3718158178959357
  0.6598696099256784  0.8326485206558942  0.6274370597579448
  0.5005816393081375  0.9947124576016932  0.8776257625255042
  0.8442467990229403  0.6664848991866634  0.8752372770375061
  0.8434394774696798  0.0067432545180708  0.3731599453038612
  0.8311910460415248  0.0116693716033609  0.8783974379178474
  0.9944000457355813  0.0799186281760029  0.2578967191095458
  0.9915390624036959  0.0835268003881424  0.7591530654397687
  0.0054699048468336  0.4189819126818293  0.2392749109829069
  0.3241942599298326  0.0857667169706460  0.2421930842155007
  0.1649645676264413  0.2433699348691292  0.4852674473386713
  0.0034263371764354  0.4167157247725726  0.7624439018461757
  0.3350768848991947  0.0837464136274093  0.7673145859923167
  0.1512778612783023  0.2470274405568276  0.0264051054185970
  0.0090942982160698  0.7488428444453632  0.2499688033387955
  0.3107030695167907  0.4331173654553595  0.2280925782699441
  0.1546857235990302  0.5838925192424966  0.5041520153578389
  0.0011379670356959  0.7438022643578108  0.7558468675400860
  0.6793949878992365  0.0812764123928460  0.2360044309720308
  0.5000818369765057  0.2610363101808346  0.5127310221798993
  0.3366155819782293  0.4246277744325866  0.8187736349931214
  0.1673507630817284  0.5891240323496092  0.0184260134317213
  0.6746398330774426  0.0860483836279187  0.7630203965814104
  0.4690176945834637  0.2670537336427614  0.9946873225969384
  0.3197297811773083  0.7484041489515363  0.2434274418681852
  0.1599800343408475  0.9147104998302140  0.4920542052171655
  0.6815712362237676  0.4137273612573509  0.2253230288763461
  0.4965705571115677  0.5767265868690004  0.5066008783325628
  0.3380134871717573  0.7490513639005059  0.7504276380313897
  0.1652137276780010  0.9180520849011629  0.0080606273456212
  0.8445669293376739  0.2423969641318138  0.4984814752845566
  0.6569056187317415  0.4134637850041258  0.7526946124392637
  0.5687257750250083  0.5325965918823030  0.9710931842066941
  0.8517842499575323  0.2453778203600550  0.9940707064202883
  0.6654710139013673  0.7544516499065210  0.2480061477473967
  0.4991948397120325  0.9166274236674568  0.5123512876368679
  0.8447842079818244  0.5860412587956176  0.4896914184472863
  0.6537706662014955  0.7533288212897915  0.7432410829664491
  0.4984197218055257  0.9167908308015171  0.9890094760864869
  0.8378829025369114  0.5862033824945101  0.0095715115688009
  0.8405907436084092  0.9197869646432792  0.4978055279739237
  0.8337774036519718  0.9230764981082658  0.0019426513450469
 
  0.00000000E+00  0.00000000E+00  0.00000000E+00
  0.00000000E+00  0.00000000E+00  0.00000000E+00
  0.00000000E+00  0.00000000E+00  0.00000000E+00
  0.00000000E+00  0.00000000E+00  0.00000000E+00
  0.00000000E+00  0.00000000E+00  0.00000000E+00
  0.00000000E+00  0.00000000E+00  0.00000000E+00
  0.00000000E+00  0.00000000E+00  0.00000000E+00
  0.00000000E+00  0.00000000E+00  0.00000000E+00
  0.00000000E+00  0.00000000E+00  0.00000000E+00
  0.00000000E+00  0.00000000E+00  0.00000000E+00
  0.00000000E+00  0.00000000E+00  0.00000000E+00
  0.00000000E+00  0.00000000E+00  0.00000000E+00
  0.00000000E+00  0.00000000E+00  0.00000000E+00
  0.00000000E+00  0.00000000E+00  0.00000000E+00
  0.00000000E+00  0.00000000E+00  0.00000000E+00
  0.00000000E+00  0.00000000E+00  0.00000000E+00
  0.00000000E+00  0.00000000E+00  0.00000000E+00
  0.00000000E+00  0.00000000E+00  0.00000000E+00
  0.00000000E+00  0.00000000E+00  0.00000000E+00
  0.00000000E+00  0.00000000E+00  0.00000000E+00
  0.00000000E+00  0.00000000E+00  0.00000000E+00
  0.00000000E+00  0.00000000E+00  0.00000000E+00
  0.00000000E+00  0.00000000E+00  0.00000000E+00
  0.00000000E+00  0.00000000E+00  0.00000000E+00
  0.00000000E+00  0.00000000E+00  0.00000000E+00
  0.00000000E+00  0.00000000E+00  0.00000000E+00
  0.00000000E+00  0.00000000E+00  0.00000000E+00
  0.00000000E+00  0.00000000E+00  0.00000000E+00
  0.00000000E+00  0.00000000E+00  0.00000000E+00
  0.00000000E+00  0.00000000E+00  0.00000000E+00
  0.00000000E+00  0.00000000E+00  0.00000000E+00
  0.00000000E+00  0.00000000E+00  0.00000000E+00
  0.00000000E+00  0.00000000E+00  0.00000000E+00
  0.00000000E+00  0.00000000E+00  0.00000000E+00
  0.00000000E+00  0.00000000E+00  0.00000000E+00
  0.00000000E+00  0.00000000E+00  0.00000000E+00
  0.00000000E+00  0.00000000E+00  0.00000000E+00
  0.00000000E+00  0.00000000E+00  0.00000000E+00
  0.00000000E+00  0.00000000E+00  0.00000000E+00
  0.00000000E+00  0.00000000E+00  0.00000000E+00
  0.00000000E+00  0.00000000E+00  0.00000000E+00
  0.00000000E+00  0.00000000E+00  0.00000000E+00
  0.00000000E+00  0.00000000E+00  0.00000000E+00
  0.00000000E+00  0.00000000E+00  0.00000000E+00
  0.00000000E+00  0.00000000E+00  0.00000000E+00
  0.00000000E+00  0.00000000E+00  0.00000000E+00
  0.00000000E+00  0.00000000E+00  0.00000000E+00
  0.00000000E+00  0.00000000E+00  0.00000000E+00
  0.00000000E+00  0.00000000E+00  0.00000000E+00
  0.00000000E+00  0.00000000E+00  0.00000000E+00
  0.00000000E+00  0.00000000E+00  0.00000000E+00
  0.00000000E+00  0.00000000E+00  0.00000000E+00
  0.00000000E+00  0.00000000E+00  0.00000000E+00
  0.00000000E+00  0.00000000E+00  0.00000000E+00
  0.00000000E+00  0.00000000E+00  0.00000000E+00
  0.00000000E+00  0.00000000E+00  0.00000000E+00
  0.00000000E+00  0.00000000E+00  0.00000000E+00
  0.00000000E+00  0.00000000E+00  0.00000000E+00
  0.00000000E+00  0.00000000E+00  0.00000000E+00
  0.00000000E+00  0.00000000E+00  0.00000000E+00
  0.00000000E+00  0.00000000E+00  0.00000000E+00
  0.00000000E+00  0.00000000E+00  0.00000000E+00
  0.00000000E+00  0.00000000E+00  0.00000000E+00
  0.00000000E+00  0.00000000E+00  0.00000000E+00
  0.00000000E+00  0.00000000E+00  0.00000000E+00
  0.00000000E+00  0.00000000E+00  0.00000000E+00
  0.00000000E+00  0.00000000E+00  0.00000000E+00
  0.00000000E+00  0.00000000E+00  0.00000000E+00
  0.00000000E+00  0.00000000E+00  0.00000000E+00
  0.00000000E+00  0.00000000E+00  0.00000000E+00
  0.00000000E+00  0.00000000E+00  0.00000000E+00
  0.00000000E+00  0.00000000E+00  0.00000000E+00
  0.00000000E+00  0.00000000E+00  0.00000000E+00
  0.00000000E+00  0.00000000E+00  0.00000000E+00
  0.00000000E+00  0.00000000E+00  0.00000000E+00
  0.00000000E+00  0.00000000E+00  0.00000000E+00
  0.00000000E+00  0.00000000E+00  0.00000000E+00
  0.00000000E+00  0.00000000E+00  0.00000000E+00
  0.00000000E+00  0.00000000E+00  0.00000000E+00
  0.00000000E+00  0.00000000E+00  0.00000000E+00
  0.00000000E+00  0.00000000E+00  0.00000000E+00
  0.00000000E+00  0.00000000E+00  0.00000000E+00
  0.00000000E+00  0.00000000E+00  0.00000000E+00
  0.00000000E+00  0.00000000E+00  0.00000000E+00
  0.00000000E+00  0.00000000E+00  0.00000000E+00
  0.00000000E+00  0.00000000E+00  0.00000000E+00
  0.00000000E+00  0.00000000E+00  0.00000000E+00
  0.00000000E+00  0.00000000E+00  0.00000000E+00
  0.00000000E+00  0.00000000E+00  0.00000000E+00
  0.00000000E+00  0.00000000E+00  0.00000000E+00
  0.00000000E+00  0.00000000E+00  0.00000000E+00
  0.00000000E+00  0.00000000E+00  0.00000000E+00
  0.00000000E+00  0.00000000E+00  0.00000000E+00
  0.00000000E+00  0.00000000E+00  0.00000000E+00
  0.00000000E+00  0.00000000E+00  0.00000000E+00
  0.00000000E+00  0.00000000E+00  0.00000000E+00
  0.00000000E+00  0.00000000E+00  0.00000000E+00
  0.00000000E+00  0.00000000E+00  0.00000000E+00
  0.00000000E+00  0.00000000E+00  0.00000000E+00
  0.00000000E+00  0.00000000E+00  0.00000000E+00
  0.00000000E+00  0.00000000E+00  0.00000000E+00
  0.00000000E+00  0.00000000E+00  0.00000000E+00
  0.00000000E+00  0.00000000E+00  0.00000000E+00
  0.00000000E+00  0.00000000E+00  0.00000000E+00
  0.00000000E+00  0.00000000E+00  0.00000000E+00
  0.00000000E+00  0.00000000E+00  0.00000000E+00
  0.00000000E+00  0.00000000E+00  0.00000000E+00
  0.00000000E+00  0.00000000E+00  0.00000000E+00
  0.00000000E+00  0.00000000E+00  0.00000000E+00
  0.00000000E+00  0.00000000E+00  0.00000000E+00
  0.00000000E+00  0.00000000E+00  0.00000000E+00
  0.00000000E+00  0.00000000E+00  0.00000000E+00
  0.00000000E+00  0.00000000E+00  0.00000000E+00
  0.00000000E+00  0.00000000E+00  0.00000000E+00
  0.00000000E+00  0.00000000E+00  0.00000000E+00
  0.00000000E+00  0.00000000E+00  0.00000000E+00
  0.00000000E+00  0.00000000E+00  0.00000000E+00
  0.00000000E+00  0.00000000E+00  0.00000000E+00
  0.00000000E+00  0.00000000E+00  0.00000000E+00
  0.00000000E+00  0.00000000E+00  0.00000000E+00
  0.00000000E+00  0.00000000E+00  0.00000000E+00
  0.00000000E+00  0.00000000E+00  0.00000000E+00
  0.00000000E+00  0.00000000E+00  0.00000000E+00
  0.00000000E+00  0.00000000E+00  0.00000000E+00
  0.00000000E+00  0.00000000E+00  0.00000000E+00
  0.00000000E+00  0.00000000E+00  0.00000000E+00
  0.00000000E+00  0.00000000E+00  0.00000000E+00
  0.00000000E+00  0.00000000E+00  0.00000000E+00
  0.00000000E+00  0.00000000E+00  0.00000000E+00
  0.00000000E+00  0.00000000E+00  0.00000000E+00
  0.00000000E+00  0.00000000E+00  0.00000000E+00
  0.00000000E+00  0.00000000E+00  0.00000000E+00
  0.00000000E+00  0.00000000E+00  0.00000000E+00
  0.00000000E+00  0.00000000E+00  0.00000000E+00
  0.00000000E+00  0.00000000E+00  0.00000000E+00
  0.00000000E+00  0.00000000E+00  0.00000000E+00
  0.00000000E+00  0.00000000E+00  0.00000000E+00
  0.00000000E+00  0.00000000E+00  0.00000000E+00
  0.00000000E+00  0.00000000E+00  0.00000000E+00
  0.00000000E+00  0.00000000E+00  0.00000000E+00
  0.00000000E+00  0.00000000E+00  0.00000000E+00
  0.00000000E+00  0.00000000E+00  0.00000000E+00
  0.00000000E+00  0.00000000E+00  0.00000000E+00
  0.00000000E+00  0.00000000E+00  0.00000000E+00
  0.00000000E+00  0.00000000E+00  0.00000000E+00
  0.00000000E+00  0.00000000E+00  0.00000000E+00
  0.00000000E+00  0.00000000E+00  0.00000000E+00
  0.00000000E+00  0.00000000E+00  0.00000000E+00
  0.00000000E+00  0.00000000E+00  0.00000000E+00
  0.00000000E+00  0.00000000E+00  0.00000000E+00
  0.00000000E+00  0.00000000E+00  0.00000000E+00
  0.00000000E+00  0.00000000E+00  0.00000000E+00
  0.00000000E+00  0.00000000E+00  0.00000000E+00
  0.00000000E+00  0.00000000E+00  0.00000000E+00
  0.00000000E+00  0.00000000E+00  0.00000000E+00
  0.00000000E+00  0.00000000E+00  0.00000000E+00
  0.00000000E+00  0.00000000E+00  0.00000000E+00
  0.00000000E+00  0.00000000E+00  0.00000000E+00
  0.00000000E+00  0.00000000E+00  0.00000000E+00
  0.00000000E+00  0.00000000E+00  0.00000000E+00
  0.00000000E+00  0.00000000E+00  0.00000000E+00
  0.00000000E+00  0.00000000E+00  0.00000000E+00
  0.00000000E+00  0.00000000E+00  0.00000000E+00
  0.00000000E+00  0.00000000E+00  0.00000000E+00
  0.00000000E+00  0.00000000E+00  0.00000000E+00
  0.00000000E+00  0.00000000E+00  0.00000000E+00
  0.00000000E+00  0.00000000E+00  0.00000000E+00
  0.00000000E+00  0.00000000E+00  0.00000000E+00
  0.00000000E+00  0.00000000E+00  0.00000000E+00
  0.00000000E+00  0.00000000E+00  0.00000000E+00
  0.00000000E+00  0.00000000E+00  0.00000000E+00
  0.00000000E+00  0.00000000E+00  0.00000000E+00
  0.00000000E+00  0.00000000E+00  0.00000000E+00
  0.00000000E+00  0.00000000E+00  0.00000000E+00
  0.00000000E+00  0.00000000E+00  0.00000000E+00
  0.00000000E+00  0.00000000E+00  0.00000000E+00
  0.00000000E+00  0.00000000E+00  0.00000000E+00
  0.00000000E+00  0.00000000E+00  0.00000000E+00
  0.00000000E+00  0.00000000E+00  0.00000000E+00
  0.00000000E+00  0.00000000E+00  0.00000000E+00
  0.00000000E+00  0.00000000E+00  0.00000000E+00
  0.00000000E+00  0.00000000E+00  0.00000000E+00
  0.00000000E+00  0.00000000E+00  0.00000000E+00
  0.00000000E+00  0.00000000E+00  0.00000000E+00
  0.00000000E+00  0.00000000E+00  0.00000000E+00
  0.00000000E+00  0.00000000E+00  0.00000000E+00
  0.00000000E+00  0.00000000E+00  0.00000000E+00
  0.00000000E+00  0.00000000E+00  0.00000000E+00
  0.00000000E+00  0.00000000E+00  0.00000000E+00
  0.00000000E+00  0.00000000E+00  0.00000000E+00
  0.00000000E+00  0.00000000E+00  0.00000000E+00
  0.00000000E+00  0.00000000E+00  0.00000000E+00
  0.00000000E+00  0.00000000E+00  0.00000000E+00
  0.00000000E+00  0.00000000E+00  0.00000000E+00
  0.00000000E+00  0.00000000E+00  0.00000000E+00
  0.00000000E+00  0.00000000E+00  0.00000000E+00
  0.00000000E+00  0.00000000E+00  0.00000000E+00
  0.00000000E+00  0.00000000E+00  0.00000000E+00
  0.00000000E+00  0.00000000E+00  0.00000000E+00
  0.00000000E+00  0.00000000E+00  0.00000000E+00
  0.00000000E+00  0.00000000E+00  0.00000000E+00
  0.00000000E+00  0.00000000E+00  0.00000000E+00
  0.00000000E+00  0.00000000E+00  0.00000000E+00
  0.00000000E+00  0.00000000E+00  0.00000000E+00
  0.00000000E+00  0.00000000E+00  0.00000000E+00
  0.00000000E+00  0.00000000E+00  0.00000000E+00
  0.00000000E+00  0.00000000E+00  0.00000000E+00
  0.00000000E+00  0.00000000E+00  0.00000000E+00
  0.00000000E+00  0.00000000E+00  0.00000000E+00
  0.00000000E+00  0.00000000E+00  0.00000000E+00
  0.00000000E+00  0.00000000E+00  0.00000000E+00
  0.00000000E+00  0.00000000E+00  0.00000000E+00
  0.00000000E+00  0.00000000E+00  0.00000000E+00
  0.00000000E+00  0.00000000E+00  0.00000000E+00
  0.00000000E+00  0.00000000E+00  0.00000000E+00
  0.00000000E+00  0.00000000E+00  0.00000000E+00
  0.00000000E+00  0.00000000E+00  0.00000000E+00
  0.00000000E+00  0.00000000E+00  0.00000000E+00
  0.00000000E+00  0.00000000E+00  0.00000000E+00
  0.00000000E+00  0.00000000E+00  0.00000000E+00
  0.00000000E+00  0.00000000E+00  0.00000000E+00
  0.00000000E+00  0.00000000E+00  0.00000000E+00
  0.00000000E+00  0.00000000E+00  0.00000000E+00
  0.00000000E+00  0.00000000E+00  0.00000000E+00
  0.00000000E+00  0.00000000E+00  0.00000000E+00
  0.00000000E+00  0.00000000E+00  0.00000000E+00
  0.00000000E+00  0.00000000E+00  0.00000000E+00
  0.00000000E+00  0.00000000E+00  0.00000000E+00
  0.00000000E+00  0.00000000E+00  0.00000000E+00
  0.00000000E+00  0.00000000E+00  0.00000000E+00
  0.00000000E+00  0.00000000E+00  0.00000000E+00
  0.00000000E+00  0.00000000E+00  0.00000000E+00
  0.00000000E+00  0.00000000E+00  0.00000000E+00
  0.00000000E+00  0.00000000E+00  0.00000000E+00
  0.00000000E+00  0.00000000E+00  0.00000000E+00
  0.00000000E+00  0.00000000E+00  0.00000000E+00
  0.00000000E+00  0.00000000E+00  0.00000000E+00
  0.00000000E+00  0.00000000E+00  0.00000000E+00
  0.00000000E+00  0.00000000E+00  0.00000000E+00
  0.00000000E+00  0.00000000E+00  0.00000000E+00
  0.00000000E+00  0.00000000E+00  0.00000000E+00
  0.00000000E+00  0.00000000E+00  0.00000000E+00
  0.00000000E+00  0.00000000E+00  0.00000000E+00
  0.00000000E+00  0.00000000E+00  0.00000000E+00
  0.00000000E+00  0.00000000E+00  0.00000000E+00
  0.00000000E+00  0.00000000E+00  0.00000000E+00
  0.00000000E+00  0.00000000E+00  0.00000000E+00
  0.00000000E+00  0.00000000E+00  0.00000000E+00
  0.00000000E+00  0.00000000E+00  0.00000000E+00
  0.00000000E+00  0.00000000E+00  0.00000000E+00
  0.00000000E+00  0.00000000E+00  0.00000000E+00
  0.00000000E+00  0.00000000E+00  0.00000000E+00
