generated by phonopy                    
   1.00000000000000     
     0.0000000000000000    3.3241299223664087    3.3241299223665148
     3.3241299223664531    0.0000000000000000    3.3241299223665148
     3.3241299223664531    3.3241299223664087    0.0000000000000000
   Na   Zr   Ca   Y    H 
     1     1     1     1    24
Direct
  0.2500000000000000  0.2500000000000000  0.2500000000000000
  0.7500000000000000  0.7500000000000000  0.7500000000000000
  0.0000000000000000  0.0000000000000000  0.0000000000000000
  0.5000000000000000  0.5000000000000000  0.5000000000000000
  0.1323579967768467  0.8919641988794424  0.6170708581112194
  0.8919641988794424  0.1323579967768467  0.3586069462324772
  0.6170708581112194  0.3586069462324772  0.1323579967768467
  0.3586069462324772  0.6170708581112194  0.8919641988794424
  0.6170708581112194  0.1323579967768467  0.8919641988794424
  0.3586069462324772  0.8919641988794424  0.1323579967768467
  0.1323579967768467  0.6170708581112194  0.3586069462324772
  0.8919641988794424  0.3586069462324772  0.6170708581112194
  0.8919641988794424  0.6170708581112194  0.1323579967768467
  0.1323579967768467  0.3586069462324772  0.8919641988794424
  0.3586069462324772  0.1323579967768467  0.6170708581112194
  0.6170708581112194  0.8919641988794424  0.3586069462324772
  0.1323579967768467  0.3586069462324772  0.6170708581112194
  0.3586069462324772  0.1323579967768467  0.8919641988794424
  0.6170708581112194  0.8919641988794424  0.1323579967768467
  0.8919641988794424  0.6170708581112194  0.3586069462324772
  0.6170708581112194  0.1323579967768467  0.3586069462324772
  0.8919641988794424  0.3586069462324772  0.1323579967768467
  0.1323579967768467  0.6170708581112194  0.8919641988794424
  0.3586069462324772  0.8919641988794424  0.6170708581112194
  0.3586069462324772  0.6170708581112194  0.1323579967768467
  0.1323579967768467  0.8919641988794424  0.3586069462324772
  0.8919641988794424  0.1323579967768467  0.6170708581112194
  0.6170708581112194  0.3586069462324772  0.8919641988794424
 
  0.00000000E+00  0.00000000E+00  0.00000000E+00
  0.00000000E+00  0.00000000E+00  0.00000000E+00
  0.00000000E+00  0.00000000E+00  0.00000000E+00
  0.00000000E+00  0.00000000E+00  0.00000000E+00
  0.00000000E+00  0.00000000E+00  0.00000000E+00
  0.00000000E+00  0.00000000E+00  0.00000000E+00
  0.00000000E+00  0.00000000E+00  0.00000000E+00
  0.00000000E+00  0.00000000E+00  0.00000000E+00
  0.00000000E+00  0.00000000E+00  0.00000000E+00
  0.00000000E+00  0.00000000E+00  0.00000000E+00
  0.00000000E+00  0.00000000E+00  0.00000000E+00
  0.00000000E+00  0.00000000E+00  0.00000000E+00
  0.00000000E+00  0.00000000E+00  0.00000000E+00
  0.00000000E+00  0.00000000E+00  0.00000000E+00
  0.00000000E+00  0.00000000E+00  0.00000000E+00
  0.00000000E+00  0.00000000E+00  0.00000000E+00
  0.00000000E+00  0.00000000E+00  0.00000000E+00
  0.00000000E+00  0.00000000E+00  0.00000000E+00
  0.00000000E+00  0.00000000E+00  0.00000000E+00
  0.00000000E+00  0.00000000E+00  0.00000000E+00
  0.00000000E+00  0.00000000E+00  0.00000000E+00
  0.00000000E+00  0.00000000E+00  0.00000000E+00
  0.00000000E+00  0.00000000E+00  0.00000000E+00
  0.00000000E+00  0.00000000E+00  0.00000000E+00
  0.00000000E+00  0.00000000E+00  0.00000000E+00
  0.00000000E+00  0.00000000E+00  0.00000000E+00
  0.00000000E+00  0.00000000E+00  0.00000000E+00
  0.00000000E+00  0.00000000E+00  0.00000000E+00
