generated by phonopy                    
   1.00000000000000     
     0.0000000000000000    3.3438029576366737    3.3438029576367998
     3.3438029576367261    0.0000000000000000    3.3438029576367998
     3.3438029576367261    3.3438029576366737    0.0000000000000000
   Na   Sr   Ca   Y    H 
     1     1     1     1    24
Direct
  0.2500000000000000  0.2500000000000000  0.2500000000000000
  0.7500000000000000  0.7500000000000000  0.7500000000000000
  0.0000000000000000  0.0000000000000000  0.0000000000000000
  0.5000000000000000  0.5000000000000000  0.5000000000000000
  0.1324338624007595  0.8981565692661349  0.6120523768268384
  0.8981565692661349  0.1324338624007595  0.3573571915062743
  0.6120523768268384  0.3573571915062743  0.1324338624007595
  0.3573571915062743  0.6120523768268384  0.8981565692661349
  0.6120523768268384  0.1324338624007595  0.8981565692661349
  0.3573571915062743  0.8981565692661349  0.1324338624007595
  0.1324338624007595  0.6120523768268384  0.3573571915062743
  0.8981565692661349  0.3573571915062743  0.6120523768268384
  0.8981565692661349  0.6120523768268384  0.1324338624007595
  0.1324338624007595  0.3573571915062743  0.8981565692661349
  0.3573571915062743  0.1324338624007595  0.6120523768268384
  0.6120523768268384  0.8981565692661349  0.3573571915062743
  0.1324338624007595  0.3573571915062743  0.6120523768268384
  0.3573571915062743  0.1324338624007595  0.8981565692661349
  0.6120523768268384  0.8981565692661349  0.1324338624007595
  0.8981565692661349  0.6120523768268384  0.3573571915062743
  0.6120523768268384  0.1324338624007595  0.3573571915062743
  0.8981565692661349  0.3573571915062743  0.1324338624007595
  0.1324338624007595  0.6120523768268384  0.8981565692661349
  0.3573571915062743  0.8981565692661349  0.6120523768268384
  0.3573571915062743  0.6120523768268384  0.1324338624007595
  0.1324338624007595  0.8981565692661349  0.3573571915062743
  0.8981565692661349  0.1324338624007595  0.6120523768268384
  0.6120523768268384  0.3573571915062743  0.8981565692661349
 
  0.00000000E+00  0.00000000E+00  0.00000000E+00
  0.00000000E+00  0.00000000E+00  0.00000000E+00
  0.00000000E+00  0.00000000E+00  0.00000000E+00
  0.00000000E+00  0.00000000E+00  0.00000000E+00
  0.00000000E+00  0.00000000E+00  0.00000000E+00
  0.00000000E+00  0.00000000E+00  0.00000000E+00
  0.00000000E+00  0.00000000E+00  0.00000000E+00
  0.00000000E+00  0.00000000E+00  0.00000000E+00
  0.00000000E+00  0.00000000E+00  0.00000000E+00
  0.00000000E+00  0.00000000E+00  0.00000000E+00
  0.00000000E+00  0.00000000E+00  0.00000000E+00
  0.00000000E+00  0.00000000E+00  0.00000000E+00
  0.00000000E+00  0.00000000E+00  0.00000000E+00
  0.00000000E+00  0.00000000E+00  0.00000000E+00
  0.00000000E+00  0.00000000E+00  0.00000000E+00
  0.00000000E+00  0.00000000E+00  0.00000000E+00
  0.00000000E+00  0.00000000E+00  0.00000000E+00
  0.00000000E+00  0.00000000E+00  0.00000000E+00
  0.00000000E+00  0.00000000E+00  0.00000000E+00
  0.00000000E+00  0.00000000E+00  0.00000000E+00
  0.00000000E+00  0.00000000E+00  0.00000000E+00
  0.00000000E+00  0.00000000E+00  0.00000000E+00
  0.00000000E+00  0.00000000E+00  0.00000000E+00
  0.00000000E+00  0.00000000E+00  0.00000000E+00
  0.00000000E+00  0.00000000E+00  0.00000000E+00
  0.00000000E+00  0.00000000E+00  0.00000000E+00
  0.00000000E+00  0.00000000E+00  0.00000000E+00
  0.00000000E+00  0.00000000E+00  0.00000000E+00
