generated by phonopy                    
   1.00000000000000     
     0.0000000000000000    3.2765479118766478    3.2765479118768437
     3.2765479118767318    0.0000000000000000    3.2765479118768437
     3.2765479118767318    3.2765479118766478    0.0000000000000000
   Na   Sr   Ca   Y    H 
     1     1     1     1    24
Direct
  0.2500000000000000  0.2500000000000000  0.2500000000000000
  0.7500000000000000  0.7500000000000000  0.7500000000000000
  0.0000000000000000  0.0000000000000000  0.0000000000000000
  0.5000000000000000  0.5000000000000000  0.5000000000000000
  0.1324493150153572  0.8984951042464857  0.6118700882726245
  0.8984951042464857  0.1324493150153572  0.3571854924655327
  0.6118700882726245  0.3571854924655327  0.1324493150153572
  0.3571854924655327  0.6118700882726245  0.8984951042464857
  0.6118700882726245  0.1324493150153572  0.8984951042464857
  0.3571854924655327  0.8984951042464857  0.1324493150153572
  0.1324493150153572  0.6118700882726245  0.3571854924655327
  0.8984951042464857  0.3571854924655327  0.6118700882726245
  0.8984951042464857  0.6118700882726245  0.1324493150153572
  0.1324493150153572  0.3571854924655327  0.8984951042464857
  0.3571854924655327  0.1324493150153572  0.6118700882726245
  0.6118700882726245  0.8984951042464857  0.3571854924655327
  0.1324493150153572  0.3571854924655327  0.6118700882726245
  0.3571854924655327  0.1324493150153572  0.8984951042464857
  0.6118700882726245  0.8984951042464857  0.1324493150153572
  0.8984951042464857  0.6118700882726245  0.3571854924655327
  0.6118700882726245  0.1324493150153572  0.3571854924655327
  0.8984951042464857  0.3571854924655327  0.1324493150153572
  0.1324493150153572  0.6118700882726245  0.8984951042464857
  0.3571854924655327  0.8984951042464857  0.6118700882726245
  0.3571854924655327  0.6118700882726245  0.1324493150153572
  0.1324493150153572  0.8984951042464857  0.3571854924655327
  0.8984951042464857  0.1324493150153572  0.6118700882726245
  0.6118700882726245  0.3571854924655327  0.8984951042464857
 
  0.00000000E+00  0.00000000E+00  0.00000000E+00
  0.00000000E+00  0.00000000E+00  0.00000000E+00
  0.00000000E+00  0.00000000E+00  0.00000000E+00
  0.00000000E+00  0.00000000E+00  0.00000000E+00
  0.00000000E+00  0.00000000E+00  0.00000000E+00
  0.00000000E+00  0.00000000E+00  0.00000000E+00
  0.00000000E+00  0.00000000E+00  0.00000000E+00
  0.00000000E+00  0.00000000E+00  0.00000000E+00
  0.00000000E+00  0.00000000E+00  0.00000000E+00
  0.00000000E+00  0.00000000E+00  0.00000000E+00
  0.00000000E+00  0.00000000E+00  0.00000000E+00
  0.00000000E+00  0.00000000E+00  0.00000000E+00
  0.00000000E+00  0.00000000E+00  0.00000000E+00
  0.00000000E+00  0.00000000E+00  0.00000000E+00
  0.00000000E+00  0.00000000E+00  0.00000000E+00
  0.00000000E+00  0.00000000E+00  0.00000000E+00
  0.00000000E+00  0.00000000E+00  0.00000000E+00
  0.00000000E+00  0.00000000E+00  0.00000000E+00
  0.00000000E+00  0.00000000E+00  0.00000000E+00
  0.00000000E+00  0.00000000E+00  0.00000000E+00
  0.00000000E+00  0.00000000E+00  0.00000000E+00
  0.00000000E+00  0.00000000E+00  0.00000000E+00
  0.00000000E+00  0.00000000E+00  0.00000000E+00
  0.00000000E+00  0.00000000E+00  0.00000000E+00
  0.00000000E+00  0.00000000E+00  0.00000000E+00
  0.00000000E+00  0.00000000E+00  0.00000000E+00
  0.00000000E+00  0.00000000E+00  0.00000000E+00
  0.00000000E+00  0.00000000E+00  0.00000000E+00
