generated by phonopy                    
   1.00000000000000     
     0.0000000000000000    3.2231678091982690    3.2231678091983373
     3.2231678091982974    0.0000000000000000    3.2231678091983373
     3.2231678091982974    3.2231678091982690    0.0000000000000000
   Na   Y    Mg   Zr   H 
     1     1     1     1    24
Direct
  0.2500000000000000  0.2500000000000000  0.2500000000000000
  0.7500000000000000  0.7500000000000000  0.7500000000000000
  0.0000000000000000  0.0000000000000000  0.0000000000000000
  0.5000000000000000  0.5000000000000000  0.5000000000000000
  0.1234764891541218  0.8976332984331563  0.6222462661286414
  0.8976332984331563  0.1234764891541218  0.3566439462840805
  0.6222462661286414  0.3566439462840805  0.1234764891541218
  0.3566439462840805  0.6222462661286414  0.8976332984331563
  0.6222462661286414  0.1234764891541218  0.8976332984331563
  0.3566439462840805  0.8976332984331563  0.1234764891541218
  0.1234764891541218  0.6222462661286414  0.3566439462840805
  0.8976332984331563  0.3566439462840805  0.6222462661286414
  0.8976332984331563  0.6222462661286414  0.1234764891541218
  0.1234764891541218  0.3566439462840805  0.8976332984331563
  0.3566439462840805  0.1234764891541218  0.6222462661286414
  0.6222462661286414  0.8976332984331563  0.3566439462840805
  0.1234764891541218  0.3566439462840805  0.6222462661286414
  0.3566439462840805  0.1234764891541218  0.8976332984331563
  0.6222462661286414  0.8976332984331563  0.1234764891541218
  0.8976332984331563  0.6222462661286414  0.3566439462840805
  0.6222462661286414  0.1234764891541218  0.3566439462840805
  0.8976332984331563  0.3566439462840805  0.1234764891541218
  0.1234764891541218  0.6222462661286414  0.8976332984331563
  0.3566439462840805  0.8976332984331563  0.6222462661286414
  0.3566439462840805  0.6222462661286414  0.1234764891541218
  0.1234764891541218  0.8976332984331563  0.3566439462840805
  0.8976332984331563  0.1234764891541218  0.6222462661286414
  0.6222462661286414  0.3566439462840805  0.8976332984331563
 
  0.00000000E+00  0.00000000E+00  0.00000000E+00
  0.00000000E+00  0.00000000E+00  0.00000000E+00
  0.00000000E+00  0.00000000E+00  0.00000000E+00
  0.00000000E+00  0.00000000E+00  0.00000000E+00
  0.00000000E+00  0.00000000E+00  0.00000000E+00
  0.00000000E+00  0.00000000E+00  0.00000000E+00
  0.00000000E+00  0.00000000E+00  0.00000000E+00
  0.00000000E+00  0.00000000E+00  0.00000000E+00
  0.00000000E+00  0.00000000E+00  0.00000000E+00
  0.00000000E+00  0.00000000E+00  0.00000000E+00
  0.00000000E+00  0.00000000E+00  0.00000000E+00
  0.00000000E+00  0.00000000E+00  0.00000000E+00
  0.00000000E+00  0.00000000E+00  0.00000000E+00
  0.00000000E+00  0.00000000E+00  0.00000000E+00
  0.00000000E+00  0.00000000E+00  0.00000000E+00
  0.00000000E+00  0.00000000E+00  0.00000000E+00
  0.00000000E+00  0.00000000E+00  0.00000000E+00
  0.00000000E+00  0.00000000E+00  0.00000000E+00
  0.00000000E+00  0.00000000E+00  0.00000000E+00
  0.00000000E+00  0.00000000E+00  0.00000000E+00
  0.00000000E+00  0.00000000E+00  0.00000000E+00
  0.00000000E+00  0.00000000E+00  0.00000000E+00
  0.00000000E+00  0.00000000E+00  0.00000000E+00
  0.00000000E+00  0.00000000E+00  0.00000000E+00
  0.00000000E+00  0.00000000E+00  0.00000000E+00
  0.00000000E+00  0.00000000E+00  0.00000000E+00
  0.00000000E+00  0.00000000E+00  0.00000000E+00
  0.00000000E+00  0.00000000E+00  0.00000000E+00
