generated by phonopy                    
   1.00000000000000     
     0.0000000000000000    3.2675271219809905    3.2675271219811055
     3.2675271219810367    0.0000000000000000    3.2675271219811055
     3.2675271219810367    3.2675271219809905    0.0000000000000000
   Na   Y    Ti   Ce   H 
     1     1     1     1    24
Direct
  0.2500000000000000  0.2500000000000000  0.2500000000000000
  0.7500000000000000  0.7500000000000000  0.7500000000000000
  0.0000000000000000  0.0000000000000000  0.0000000000000000
  0.5000000000000000  0.5000000000000000  0.5000000000000000
  0.1275004211667010  0.8945473172935792  0.6215022858503829
  0.8945473172935792  0.1275004211667010  0.3564499756893298
  0.6215022858503829  0.3564499756893298  0.1275004211667010
  0.3564499756893298  0.6215022858503829  0.8945473172935792
  0.6215022858503829  0.1275004211667010  0.8945473172935792
  0.3564499756893298  0.8945473172935792  0.1275004211667010
  0.1275004211667010  0.6215022858503829  0.3564499756893298
  0.8945473172935792  0.3564499756893298  0.6215022858503829
  0.8945473172935792  0.6215022858503829  0.1275004211667010
  0.1275004211667010  0.3564499756893298  0.8945473172935792
  0.3564499756893298  0.1275004211667010  0.6215022858503829
  0.6215022858503829  0.8945473172935792  0.3564499756893298
  0.1275004211667010  0.3564499756893298  0.6215022858503829
  0.3564499756893298  0.1275004211667010  0.8945473172935792
  0.6215022858503829  0.8945473172935792  0.1275004211667010
  0.8945473172935792  0.6215022858503829  0.3564499756893298
  0.6215022858503829  0.1275004211667010  0.3564499756893298
  0.8945473172935792  0.3564499756893298  0.1275004211667010
  0.1275004211667010  0.6215022858503829  0.8945473172935792
  0.3564499756893298  0.8945473172935792  0.6215022858503829
  0.3564499756893298  0.6215022858503829  0.1275004211667010
  0.1275004211667010  0.8945473172935792  0.3564499756893298
  0.8945473172935792  0.1275004211667010  0.6215022858503829
  0.6215022858503829  0.3564499756893298  0.8945473172935792
 
  0.00000000E+00  0.00000000E+00  0.00000000E+00
  0.00000000E+00  0.00000000E+00  0.00000000E+00
  0.00000000E+00  0.00000000E+00  0.00000000E+00
  0.00000000E+00  0.00000000E+00  0.00000000E+00
  0.00000000E+00  0.00000000E+00  0.00000000E+00
  0.00000000E+00  0.00000000E+00  0.00000000E+00
  0.00000000E+00  0.00000000E+00  0.00000000E+00
  0.00000000E+00  0.00000000E+00  0.00000000E+00
  0.00000000E+00  0.00000000E+00  0.00000000E+00
  0.00000000E+00  0.00000000E+00  0.00000000E+00
  0.00000000E+00  0.00000000E+00  0.00000000E+00
  0.00000000E+00  0.00000000E+00  0.00000000E+00
  0.00000000E+00  0.00000000E+00  0.00000000E+00
  0.00000000E+00  0.00000000E+00  0.00000000E+00
  0.00000000E+00  0.00000000E+00  0.00000000E+00
  0.00000000E+00  0.00000000E+00  0.00000000E+00
  0.00000000E+00  0.00000000E+00  0.00000000E+00
  0.00000000E+00  0.00000000E+00  0.00000000E+00
  0.00000000E+00  0.00000000E+00  0.00000000E+00
  0.00000000E+00  0.00000000E+00  0.00000000E+00
  0.00000000E+00  0.00000000E+00  0.00000000E+00
  0.00000000E+00  0.00000000E+00  0.00000000E+00
  0.00000000E+00  0.00000000E+00  0.00000000E+00
  0.00000000E+00  0.00000000E+00  0.00000000E+00
  0.00000000E+00  0.00000000E+00  0.00000000E+00
  0.00000000E+00  0.00000000E+00  0.00000000E+00
  0.00000000E+00  0.00000000E+00  0.00000000E+00
  0.00000000E+00  0.00000000E+00  0.00000000E+00
