generated by phonopy                    
   1.00000000000000     
     0.0000000000000000    3.3556216121993097    3.3556216121993656
     3.3556216121993319    0.0000000000000000    3.3556216121993656
     3.3556216121993319    3.3556216121993097    0.0000000000000000
   K    Hf   Sc   Y    H 
     1     1     1     1    24
Direct
  0.2500000000000000  0.2500000000000000  0.2500000000000000
  0.7500000000000000  0.7500000000000000  0.7500000000000000
  0.0000000000000000  0.0000000000000000  0.0000000000000000
  0.5000000000000000  0.5000000000000000  0.5000000000000000
  0.1240615389191433  0.8845706162356350  0.6267634368937038
  0.8845706162356350  0.1240615389191433  0.3646044079515320
  0.6267634368937038  0.3646044079515320  0.1240615389191433
  0.3646044079515320  0.6267634368937038  0.8845706162356350
  0.6267634368937038  0.1240615389191433  0.8845706162356350
  0.3646044079515320  0.8845706162356350  0.1240615389191433
  0.1240615389191433  0.6267634368937038  0.3646044079515320
  0.8845706162356350  0.3646044079515320  0.6267634368937038
  0.8845706162356350  0.6267634368937038  0.1240615389191433
  0.1240615389191433  0.3646044079515320  0.8845706162356350
  0.3646044079515320  0.1240615389191433  0.6267634368937038
  0.6267634368937038  0.8845706162356350  0.3646044079515320
  0.1240615389191433  0.3646044079515320  0.6267634368937038
  0.3646044079515320  0.1240615389191433  0.8845706162356350
  0.6267634368937038  0.8845706162356350  0.1240615389191433
  0.8845706162356350  0.6267634368937038  0.3646044079515320
  0.6267634368937038  0.1240615389191433  0.3646044079515320
  0.8845706162356350  0.3646044079515320  0.1240615389191433
  0.1240615389191433  0.6267634368937038  0.8845706162356350
  0.3646044079515320  0.8845706162356350  0.6267634368937038
  0.3646044079515320  0.6267634368937038  0.1240615389191433
  0.1240615389191433  0.8845706162356350  0.3646044079515320
  0.8845706162356350  0.1240615389191433  0.6267634368937038
  0.6267634368937038  0.3646044079515320  0.8845706162356350
 
  0.00000000E+00  0.00000000E+00  0.00000000E+00
  0.00000000E+00  0.00000000E+00  0.00000000E+00
  0.00000000E+00  0.00000000E+00  0.00000000E+00
  0.00000000E+00  0.00000000E+00  0.00000000E+00
  0.00000000E+00  0.00000000E+00  0.00000000E+00
  0.00000000E+00  0.00000000E+00  0.00000000E+00
  0.00000000E+00  0.00000000E+00  0.00000000E+00
  0.00000000E+00  0.00000000E+00  0.00000000E+00
  0.00000000E+00  0.00000000E+00  0.00000000E+00
  0.00000000E+00  0.00000000E+00  0.00000000E+00
  0.00000000E+00  0.00000000E+00  0.00000000E+00
  0.00000000E+00  0.00000000E+00  0.00000000E+00
  0.00000000E+00  0.00000000E+00  0.00000000E+00
  0.00000000E+00  0.00000000E+00  0.00000000E+00
  0.00000000E+00  0.00000000E+00  0.00000000E+00
  0.00000000E+00  0.00000000E+00  0.00000000E+00
  0.00000000E+00  0.00000000E+00  0.00000000E+00
  0.00000000E+00  0.00000000E+00  0.00000000E+00
  0.00000000E+00  0.00000000E+00  0.00000000E+00
  0.00000000E+00  0.00000000E+00  0.00000000E+00
  0.00000000E+00  0.00000000E+00  0.00000000E+00
  0.00000000E+00  0.00000000E+00  0.00000000E+00
  0.00000000E+00  0.00000000E+00  0.00000000E+00
  0.00000000E+00  0.00000000E+00  0.00000000E+00
  0.00000000E+00  0.00000000E+00  0.00000000E+00
  0.00000000E+00  0.00000000E+00  0.00000000E+00
  0.00000000E+00  0.00000000E+00  0.00000000E+00
  0.00000000E+00  0.00000000E+00  0.00000000E+00
