POSCAR                                  
   1.00000000000000     
    10.0299286823731482   -0.0080409963468346   -0.0001286381340209
    -0.0080445239588527   10.0254316737707256   -0.0124450257483051
    -0.0001012669195208   -0.0082560178747282    6.6407826739109641
   Na   Zr   Mg   Ca   H 
     9     9     9     9   216
Direct
  0.1686785158024406  0.1718461679167689  0.2516583486635611
  0.1702404574479885  0.4981570110770477  0.2503243080200264
  0.4952829093669280  0.1664716491315446  0.2522764602832623
  0.4993496844036187  0.1723787929936549  0.7542353159534372
  0.6643602006051736  0.3358950809605759  0.0072546813209655
  0.3312194146269789  0.9982647163928320  0.4955294038943947
  0.9988992018207625  0.3284794762305623  0.0010215839043966
  0.8327138997424797  0.8351898298875824  0.2508283507609974
  0.0044268603253173  0.0040457696770773  0.0003585973896989
  0.1738911827277931  0.1597915308494890  0.7490786336547117
  0.1714424065123836  0.4993615351067859  0.7513988001991834
  0.8270349788337157  0.1750865450210028  0.7506357260450898
  0.8333912938968169  0.4970170194288599  0.2489661503070195
  0.4927570302367030  0.8336429370296372  0.7481012315244726
  0.0033471503818561  0.6678632862328158  0.4945080364411325
  0.8369727700394449  0.8317190158679395  0.7482577127488028
  0.6673747578703413  0.0044288482292245  0.0083939234862456
  0.0027658172136711  0.6710536529948712  0.0078270044754092
  0.3331382606709710  0.3303049119994057  0.4978732438967981
  0.1671806508013489  0.8365893453162769  0.2487980546305835
  0.4910240970370126  0.4969890571527600  0.2467978684648244
  0.3375705170038970  0.6657842832623615  0.4982539089578140
  0.6648397690229046  0.3303468322628689  0.4946715584809880
  0.6626122657833093  0.6657402097388143  0.4966093115754262
  0.3253356382478074  0.0012169695179338  0.0026606344130258
  0.8287102103845498  0.4976536042757900  0.7515194024234759
  0.0049345202155564  0.0036638275696816  0.4962157120351165
  0.3390938298674442  0.3276349698783676  0.9995726966300182
  0.1681100236183042  0.8389912812788225  0.7479945355753941
  0.8361377783006247  0.1654623591291795  0.2502806132960060
  0.5069423184029631  0.4929806650396387  0.7404020815936860
  0.3356139197475088  0.6661531663499858  0.0061954762350709
  0.4996323881313742  0.8356518639971782  0.2517296467821382
  0.0010918419845467  0.3315113980923385  0.4995033437805887
  0.6638257283037206  0.6590605919096220  0.0003517206031702
  0.6597901684293745  0.0023895930203039  0.4993671266469235
  0.1657893730973825  0.0836297917001758  0.0142882564891025
  0.1727303084433700  0.0798316492748583  0.4733757641715073
  0.1582328589696047  0.4171342592337908  0.0011792026317323
  0.4970168893593083  0.0831336021550086  0.9980938396955139
  0.3381979500123222  0.2538760843028172  0.2616796099910772
  0.1742013891811496  0.4155887736251174  0.4901134457406826
  0.4894263523415461  0.0814371560219840  0.5137999259211412
  0.3375049879255343  0.2517626128604320  0.7377343084905590
  0.1714010204429712  0.7544474102432517  0.0059435069747877
  0.5055123419664724  0.4123534200001586  0.0037261038656879
  0.3348317481211325  0.5819299896117656  0.2675002081063766
  0.1832900481577155  0.7533233232979555  0.4940837196470582
  0.8407276643472912  0.0822915170374401  0.9986560705171641
  0.6560221139106091  0.2500229130801586  0.2428662386301426
  0.5046416916902459  0.4155599416664444  0.4820475984267887
  0.3407171137123868  0.5812874270293946  0.7374307603198744
  0.8360468171391986  0.0804326323086926  0.5021970350609948
  0.6604951114312669  0.2521205227017731  0.7642581903587953
  0.5011600295488563  0.7503465777942466  0.0035370224265847
  0.3211587255459918  0.9166025959050899  0.2639878614170073
  0.8371215244690546  0.4164506824626955  0.9928568928186436
  0.6501259025843069  0.5816600259174507  0.2642546080549266
  0.4979546519655074  0.7488357652438182  0.4928640124322712
  0.3282492341877159  0.9226398073277764  0.7377508695916859
  0.0098972149839511  0.2530394617896548  0.2442210747376450
  0.8236109710350092  0.4179756936398249  0.5147615060913751
  0.6705022125959985  0.5817633242411588  0.7310059457674711
  0.0060179047528308  0.2499797702123203  0.7594060126170206
  0.8296178011971023  0.7495769287090255  0.0112481457898426
  0.6739167826226051  0.9153968857151327  0.2539372323099371
  0.0111048680202899  0.5814788946226699  0.2501885652146285
  0.8262887554036453  0.7482901622320597  0.4889195447917629
  0.6683538310013617  0.9173324533760905  0.7488241943315543
  0.9950494655057227  0.5826144526085173  0.7513253758704650
  0.0082480313448912  0.9165644052253512  0.2580400893600512
  0.0012420770352080  0.9195332464883421  0.7392306624031875
  0.0820477432072479  0.1645734290008249  0.0168249589618128
  0.0825212723502631  0.1652230304491056  0.4890617037368088
  0.0843691084379898  0.4893299862619713  0.0082494182279973
  0.4172930497684391  0.1565029111716356  0.9985041046248995
  0.2398865949849593  0.3337934453244173  0.2396497028156546
  0.0856389099832739  0.4986704884719870  0.4927714121299829
  0.4190126055374890  0.1812159495454253  0.5021555089155427
  0.2501585981286354  0.3310173825997822  0.7479510003504330
  0.0848847764312026  0.8486295638711709  0.0060153376758407
  0.4157954712046035  0.4950493450263522  0.9926466574551753
  0.2509732051477940  0.6726942818162129  0.2589008095888801
  0.0850986434673473  0.8349337100363954  0.4891111613646970
  0.7477332611505290  0.1751260179740015  0.0062512858695314
  0.5853760060226776  0.3372726935917854  0.2603626422836527
  0.4147075843497987  0.4958442428859300  0.4951995660803163
  0.2530213091229925  0.6728316397026504  0.7428253722818212
  0.7469544063205475  0.1674769638124118  0.4950921632906855
  0.5831806521954093  0.3282382012993210  0.7416298639947385
  0.4119873008433714  0.8457593476427121  0.0098427622470822
  0.2489621523636032  0.9975421782937772  0.2445194660423411
  0.7467142819123680  0.4942229485397718  0.9951096155817822
  0.5837645664056765  0.6536066339636903  0.2598772913404090
  0.4106798079775729  0.8303650886856744  0.4935025585817172
  0.2582698129482139  0.9964354065616661  0.7486816895103772
  0.9167060835668721  0.3307833809741751  0.2431924249924435
  0.7475872239523653  0.5052273572180255  0.4986687847363669
  0.5843116053699973  0.6667240801779499  0.7345652005117245
  0.9185169438181262  0.3382185835466629  0.7556192152105723
  0.7526155572673616  0.8296315392141480  0.0048502495180642
  0.5784868575164310  0.0102987691814818  0.2496869216381086
  0.9116724228415336  0.6746038390503912  0.2534786394061541
  0.7507122569411848  0.8311163885379571  0.4949886073471816
  0.5808285720468902  0.0043669465266802  0.7576568380376258
  0.9157546300052672  0.6540684510435284  0.7464059089779767
  0.9160677058567828  0.9985148469878808  0.2389359219348890
  0.9177656086827923  0.0070308403523356  0.7594709236543764
  0.1658949564200327  0.0076333098122419  0.1337208201047346
  0.1661464748127202  0.9994618180268731  0.6162126036478810
  0.1763261239817453  0.3326250962074440  0.1314810541013145
  0.4776471460623597  0.0056436708398024  0.1282542298600120
  0.3289040653665722  0.1529923527448602  0.3668652488101145
  0.1736714602389640  0.3304221364894246  0.6230971776051177
  0.4888957095312776  0.0217104937707546  0.6196348416394812
  0.3403910296814345  0.1564717579359609  0.8775539111528445
  0.1714502778829399  0.6631960586149575  0.1313215401572805
  0.4976744526937438  0.3352456244624449  0.1277540919650804
  0.3311109104706489  0.4850675379498171  0.3688950355820211
  0.1714834121171407  0.6692586966676117  0.6219235293924754
  0.8545012707578650  0.9968901981176401  0.1330750778188232
  0.6620960895271821  0.1684186785466721  0.3742491890394604
  0.5104843456050574  0.3275198366103567  0.6226790216159941
  0.3442675870157927  0.4971041259395506  0.8766577953383319
  0.8354462306128454  0.0033819974240075  0.6234434300068372
  0.6576240532408022  0.1799628351548890  0.8790658137977516
  0.4989555929830232  0.6571559978488182  0.1284704144079711
  0.3322756254709205  0.8442035307492333  0.3659825425481884
  0.8344506561707448  0.3306437973528347  0.1221475496657973
  0.6690759001036781  0.4984429122570262  0.3751857007621524
  0.5002741597689280  0.6599254466956808  0.6201977835220944
  0.3296585956681213  0.8399891811016929  0.8800695406477388
  0.0080643471320272  0.1613077929437168  0.3753160616427920
  0.8198821384209012  0.3439357769429066  0.6238943654608136
  0.6737298476992706  0.4904766935195255  0.8762534078590960
  0.0025771898983606  0.1674507270846917  0.8762239940930456
  0.8304877937962232  0.6728303569513301  0.1278797949970141
  0.6699493416053670  0.8294906389936045  0.3745519245158917
  0.0081564731724768  0.4965909246208184  0.3730943328690159
  0.8292301588554665  0.6565526764673066  0.6238727828412465
  0.6637609228578754  0.8283863679303067  0.8749302505478198
  0.9907238599723911  0.4955737788985672  0.8780900819849222
  0.9978595098312795  0.8497238880624707  0.3656460956319521
  0.0048361108071475  0.8412006693323519  0.8793846705378741
  0.0818014356340413  0.0117561665835382  0.2404274173525494
  0.0807474466827500  0.0022889695495039  0.7545012124805410
  0.0767825827813056  0.3322683115933103  0.2437659702748007
  0.4144395178525642  0.0060225454427467  0.2296595028147834
  0.2519164070214686  0.1656707808510305  0.4881365009375713
  0.0803412026014598  0.3330542404952581  0.7595432033627745
  0.4197994459595975  0.0072242096626312  0.7681501089680438
  0.2549981910936481  0.1611222765058642  0.0290978946209535
  0.0899169805439399  0.6663504128513296  0.2539466367665639
  0.4171597170927512  0.3212927058771768  0.2644902574211443
  0.2501242150995964  0.5088646694322776  0.4877429688706272
  0.0855591636031079  0.6684811089161400  0.7497024675865447
  0.7503853425535496  0.9952894604951297  0.2555580536195592
  0.5817953772785174  0.1796463154573118  0.5028673301278346
  0.4175742436966274  0.3273017891344310  0.7281110801496595
  0.2534887096514424  0.4973770286506891  0.0190731057451146
  0.7489916578531748  0.9978357171583170  0.7466856608368317
  0.5778733193851977  0.1755459444575322  0.0023548343951560
  0.4171191433427381  0.6649381204622671  0.2651470302071885
  0.2469096161078497  0.8272515154824305  0.4898049695056557
  0.7494218964952211  0.3350746116141536  0.2477703135279299
  0.5806887221271992  0.4879622466117084  0.4825087041780307
  0.4168575780442296  0.6597049723342536  0.7358952258212739
  0.2484150134694474  0.8364270845015938  0.0104625962865157
  0.9178674107164468  0.1618588715053235  0.5031788423765065
  0.7481800854171112  0.3412132961687959  0.7642421287761465
  0.5814609649930205  0.4912182175892639  0.0096679029050577
  0.9204261559438720  0.1632579966374621  0.9951192861204632
  0.7483957288658942  0.6665323399493559  0.2565896917986663
  0.5862468902159179  0.8241145674088202  0.5026552848545194
  0.9174017657864013  0.4988208041751321  0.5153995649263123
  0.7489213319071482  0.6659868090768626  0.7428597247486479
  0.5857459733904875  0.8322302681959997  0.9977385090917963
  0.9196926538464112  0.4908583921124148  0.9836950381667080
  0.9169283055215729  0.8396166260805558  0.4850797721534263
  0.9177518705912107  0.8471638657529610  0.0173318497676647
  0.0115703136584173  0.1667842617604407  0.1204584300730147
  0.0000540560429059  0.1630344412176612  0.6248486928122574
  0.0075001323077188  0.4926448752838297  0.1226338878174857
  0.3252722668028483  0.1610713132293640  0.1244504270622926
  0.1773057010524042  0.3353703318900472  0.3781097844038470
  0.9900510930463753  0.4971589027048609  0.6300491975394067
  0.3436877146781114  0.1531602544889594  0.6216261523273019
  0.1649819913006354  0.3274671880975362  0.8854752962021806
  0.9999609179381750  0.8448179429466265  0.1268668641550121
  0.3284416379829977  0.4953455152143817  0.1233269581562695
  0.1726026700561150  0.6642227211013676  0.3728165703478297
  0.0043099001420828  0.8405353157916835  0.6174286527709114
  0.6615046652972367  0.1783839653527650  0.1315231768313012
  0.4898179050200469  0.3321168096870792  0.3741624153690566
  0.3403024094822200  0.4934643797574836  0.6171042416727488
  0.1684739369865724  0.6718592470157816  0.8767864139098052
  0.6550052061774636  0.1761352529385150  0.6223854899467156
  0.5104049119960550  0.3334724114246015  0.8771643152297841
  0.3319334943091619  0.8385704168881247  0.1233780229388799
  0.1692063545816680  0.0105366586015592  0.3728949105096291
  0.6604054188633555  0.4929926862282770  0.1287979629953568
  0.4972920341427667  0.6684870843155082  0.3752843841715645
  0.3318986746323205  0.8401853209055332  0.6212715396072426
  0.1655454338635280  0.0004888520019719  0.8816872944723144
  0.8258070167892484  0.3290406627893105  0.3784721003720790
  0.6707630196983203  0.4914973217128775  0.6203966353533303
  0.4995975118421754  0.6533711837781695  0.8777743688890993
  0.8218840275409960  0.3443636422802143  0.8781387637684333
  0.6696189140046513  0.8286122790316952  0.1260040500780519
  0.4923319171818221  0.0059918420656189  0.3754757308077004
  0.8260680737895996  0.6726313723114856  0.3764591082519360
  0.6652426418160999  0.8297721016668262  0.6239669988760213
  0.4838501295681965  0.0129677430582475  0.8764243211615081
  0.8312136878853806  0.6538288531119036  0.8750480577212016
  0.8387633331324764  0.9973192842213052  0.3804229931698089
  0.8481964120038583  0.0013137926920948  0.8730913254810631
  0.0116814406339856  0.0796931197712993  0.2515295207300383
  0.9990994279240013  0.0805088411149768  0.7487200330830461
  0.0150168075707597  0.4149486775519975  0.2399960052845884
  0.3305147792123648  0.0876414499501479  0.2706375848046747
  0.1744371846131756  0.2496933762479969  0.4956425594963676
  0.9973256566615163  0.4157332300122150  0.7586004887941087
  0.3435986519459746  0.0889795633416099  0.7221837610999771
  0.1653709270095760  0.2520723835009449  0.0005367277094450
  0.0010058075422705  0.7566531586689536  0.2560903659832476
  0.3316822523337564  0.4172592320383615  0.2645703409208480
  0.1844329093066790  0.5824944709631623  0.4864613668187800
  0.0037009497330800  0.7513539875864979  0.7458079575067558
  0.6574109732089397  0.0885261697215256  0.2563334508576673
  0.4901045253500769  0.2430946570408707  0.4953008435533803
  0.3368772526789030  0.4154223891977651  0.7365266396521832
  0.1689540137190946  0.5837055619078697  0.0163771682804210
  0.6589044028203617  0.0861445661673486  0.7524219131724266
  0.5075251885418908  0.2462994470667041  0.0120262967079583
  0.3299252614845827  0.7479970753848093  0.2610562599312232
  0.1651310460518118  0.9166987852975765  0.4846042907833237
  0.6450767125127825  0.4118976620162940  0.2587404089812964
  0.5004710741050644  0.5829343564949738  0.4906193804146000
  0.3276140251927373  0.7466473623720731  0.7430507718344046
  0.1619697678395440  0.9167319674229120  0.0088812865049306
  0.8277179850732566  0.2540985455385965  0.4924443182078093
  0.6710395297894323  0.4142985049000956  0.7380682884488721
  0.4988738025206771  0.5838365348730861  0.9980386727284838
  0.8280569645404157  0.2537580318388777  0.0061868794330664
  0.6679372999413431  0.7496713349489568  0.2516054680511814
  0.4908063015028787  0.9185075258411217  0.5007643588580279
  0.8175867154856178  0.5810870449919321  0.5136613691655825
  0.6708495899987241  0.7470831996941953  0.7485220282561258
  0.4968346365984715  0.9185361319898462  0.0012253678284253
  0.8329192558938701  0.5814367258596533  0.9907672157936460
  0.8392498793951546  0.9165591494699328  0.4914514553775007
  0.8431467822682137  0.9144670459874149  0.0052669769020142
 
  0.00000000E+00  0.00000000E+00  0.00000000E+00
  0.00000000E+00  0.00000000E+00  0.00000000E+00
  0.00000000E+00  0.00000000E+00  0.00000000E+00
  0.00000000E+00  0.00000000E+00  0.00000000E+00
  0.00000000E+00  0.00000000E+00  0.00000000E+00
  0.00000000E+00  0.00000000E+00  0.00000000E+00
  0.00000000E+00  0.00000000E+00  0.00000000E+00
  0.00000000E+00  0.00000000E+00  0.00000000E+00
  0.00000000E+00  0.00000000E+00  0.00000000E+00
  0.00000000E+00  0.00000000E+00  0.00000000E+00
  0.00000000E+00  0.00000000E+00  0.00000000E+00
  0.00000000E+00  0.00000000E+00  0.00000000E+00
  0.00000000E+00  0.00000000E+00  0.00000000E+00
  0.00000000E+00  0.00000000E+00  0.00000000E+00
  0.00000000E+00  0.00000000E+00  0.00000000E+00
  0.00000000E+00  0.00000000E+00  0.00000000E+00
  0.00000000E+00  0.00000000E+00  0.00000000E+00
  0.00000000E+00  0.00000000E+00  0.00000000E+00
  0.00000000E+00  0.00000000E+00  0.00000000E+00
  0.00000000E+00  0.00000000E+00  0.00000000E+00
  0.00000000E+00  0.00000000E+00  0.00000000E+00
  0.00000000E+00  0.00000000E+00  0.00000000E+00
  0.00000000E+00  0.00000000E+00  0.00000000E+00
  0.00000000E+00  0.00000000E+00  0.00000000E+00
  0.00000000E+00  0.00000000E+00  0.00000000E+00
  0.00000000E+00  0.00000000E+00  0.00000000E+00
  0.00000000E+00  0.00000000E+00  0.00000000E+00
  0.00000000E+00  0.00000000E+00  0.00000000E+00
  0.00000000E+00  0.00000000E+00  0.00000000E+00
  0.00000000E+00  0.00000000E+00  0.00000000E+00
  0.00000000E+00  0.00000000E+00  0.00000000E+00
  0.00000000E+00  0.00000000E+00  0.00000000E+00
  0.00000000E+00  0.00000000E+00  0.00000000E+00
  0.00000000E+00  0.00000000E+00  0.00000000E+00
  0.00000000E+00  0.00000000E+00  0.00000000E+00
  0.00000000E+00  0.00000000E+00  0.00000000E+00
  0.00000000E+00  0.00000000E+00  0.00000000E+00
  0.00000000E+00  0.00000000E+00  0.00000000E+00
  0.00000000E+00  0.00000000E+00  0.00000000E+00
  0.00000000E+00  0.00000000E+00  0.00000000E+00
  0.00000000E+00  0.00000000E+00  0.00000000E+00
  0.00000000E+00  0.00000000E+00  0.00000000E+00
  0.00000000E+00  0.00000000E+00  0.00000000E+00
  0.00000000E+00  0.00000000E+00  0.00000000E+00
  0.00000000E+00  0.00000000E+00  0.00000000E+00
  0.00000000E+00  0.00000000E+00  0.00000000E+00
  0.00000000E+00  0.00000000E+00  0.00000000E+00
  0.00000000E+00  0.00000000E+00  0.00000000E+00
  0.00000000E+00  0.00000000E+00  0.00000000E+00
  0.00000000E+00  0.00000000E+00  0.00000000E+00
  0.00000000E+00  0.00000000E+00  0.00000000E+00
  0.00000000E+00  0.00000000E+00  0.00000000E+00
  0.00000000E+00  0.00000000E+00  0.00000000E+00
  0.00000000E+00  0.00000000E+00  0.00000000E+00
  0.00000000E+00  0.00000000E+00  0.00000000E+00
  0.00000000E+00  0.00000000E+00  0.00000000E+00
  0.00000000E+00  0.00000000E+00  0.00000000E+00
  0.00000000E+00  0.00000000E+00  0.00000000E+00
  0.00000000E+00  0.00000000E+00  0.00000000E+00
  0.00000000E+00  0.00000000E+00  0.00000000E+00
  0.00000000E+00  0.00000000E+00  0.00000000E+00
  0.00000000E+00  0.00000000E+00  0.00000000E+00
  0.00000000E+00  0.00000000E+00  0.00000000E+00
  0.00000000E+00  0.00000000E+00  0.00000000E+00
  0.00000000E+00  0.00000000E+00  0.00000000E+00
  0.00000000E+00  0.00000000E+00  0.00000000E+00
  0.00000000E+00  0.00000000E+00  0.00000000E+00
  0.00000000E+00  0.00000000E+00  0.00000000E+00
  0.00000000E+00  0.00000000E+00  0.00000000E+00
  0.00000000E+00  0.00000000E+00  0.00000000E+00
  0.00000000E+00  0.00000000E+00  0.00000000E+00
  0.00000000E+00  0.00000000E+00  0.00000000E+00
  0.00000000E+00  0.00000000E+00  0.00000000E+00
  0.00000000E+00  0.00000000E+00  0.00000000E+00
  0.00000000E+00  0.00000000E+00  0.00000000E+00
  0.00000000E+00  0.00000000E+00  0.00000000E+00
  0.00000000E+00  0.00000000E+00  0.00000000E+00
  0.00000000E+00  0.00000000E+00  0.00000000E+00
  0.00000000E+00  0.00000000E+00  0.00000000E+00
  0.00000000E+00  0.00000000E+00  0.00000000E+00
  0.00000000E+00  0.00000000E+00  0.00000000E+00
  0.00000000E+00  0.00000000E+00  0.00000000E+00
  0.00000000E+00  0.00000000E+00  0.00000000E+00
  0.00000000E+00  0.00000000E+00  0.00000000E+00
  0.00000000E+00  0.00000000E+00  0.00000000E+00
  0.00000000E+00  0.00000000E+00  0.00000000E+00
  0.00000000E+00  0.00000000E+00  0.00000000E+00
  0.00000000E+00  0.00000000E+00  0.00000000E+00
  0.00000000E+00  0.00000000E+00  0.00000000E+00
  0.00000000E+00  0.00000000E+00  0.00000000E+00
  0.00000000E+00  0.00000000E+00  0.00000000E+00
  0.00000000E+00  0.00000000E+00  0.00000000E+00
  0.00000000E+00  0.00000000E+00  0.00000000E+00
  0.00000000E+00  0.00000000E+00  0.00000000E+00
  0.00000000E+00  0.00000000E+00  0.00000000E+00
  0.00000000E+00  0.00000000E+00  0.00000000E+00
  0.00000000E+00  0.00000000E+00  0.00000000E+00
  0.00000000E+00  0.00000000E+00  0.00000000E+00
  0.00000000E+00  0.00000000E+00  0.00000000E+00
  0.00000000E+00  0.00000000E+00  0.00000000E+00
  0.00000000E+00  0.00000000E+00  0.00000000E+00
  0.00000000E+00  0.00000000E+00  0.00000000E+00
  0.00000000E+00  0.00000000E+00  0.00000000E+00
  0.00000000E+00  0.00000000E+00  0.00000000E+00
  0.00000000E+00  0.00000000E+00  0.00000000E+00
  0.00000000E+00  0.00000000E+00  0.00000000E+00
  0.00000000E+00  0.00000000E+00  0.00000000E+00
  0.00000000E+00  0.00000000E+00  0.00000000E+00
  0.00000000E+00  0.00000000E+00  0.00000000E+00
  0.00000000E+00  0.00000000E+00  0.00000000E+00
  0.00000000E+00  0.00000000E+00  0.00000000E+00
  0.00000000E+00  0.00000000E+00  0.00000000E+00
  0.00000000E+00  0.00000000E+00  0.00000000E+00
  0.00000000E+00  0.00000000E+00  0.00000000E+00
  0.00000000E+00  0.00000000E+00  0.00000000E+00
  0.00000000E+00  0.00000000E+00  0.00000000E+00
  0.00000000E+00  0.00000000E+00  0.00000000E+00
  0.00000000E+00  0.00000000E+00  0.00000000E+00
  0.00000000E+00  0.00000000E+00  0.00000000E+00
  0.00000000E+00  0.00000000E+00  0.00000000E+00
  0.00000000E+00  0.00000000E+00  0.00000000E+00
  0.00000000E+00  0.00000000E+00  0.00000000E+00
  0.00000000E+00  0.00000000E+00  0.00000000E+00
  0.00000000E+00  0.00000000E+00  0.00000000E+00
  0.00000000E+00  0.00000000E+00  0.00000000E+00
  0.00000000E+00  0.00000000E+00  0.00000000E+00
  0.00000000E+00  0.00000000E+00  0.00000000E+00
  0.00000000E+00  0.00000000E+00  0.00000000E+00
  0.00000000E+00  0.00000000E+00  0.00000000E+00
  0.00000000E+00  0.00000000E+00  0.00000000E+00
  0.00000000E+00  0.00000000E+00  0.00000000E+00
  0.00000000E+00  0.00000000E+00  0.00000000E+00
  0.00000000E+00  0.00000000E+00  0.00000000E+00
  0.00000000E+00  0.00000000E+00  0.00000000E+00
  0.00000000E+00  0.00000000E+00  0.00000000E+00
  0.00000000E+00  0.00000000E+00  0.00000000E+00
  0.00000000E+00  0.00000000E+00  0.00000000E+00
  0.00000000E+00  0.00000000E+00  0.00000000E+00
  0.00000000E+00  0.00000000E+00  0.00000000E+00
  0.00000000E+00  0.00000000E+00  0.00000000E+00
  0.00000000E+00  0.00000000E+00  0.00000000E+00
  0.00000000E+00  0.00000000E+00  0.00000000E+00
  0.00000000E+00  0.00000000E+00  0.00000000E+00
  0.00000000E+00  0.00000000E+00  0.00000000E+00
  0.00000000E+00  0.00000000E+00  0.00000000E+00
  0.00000000E+00  0.00000000E+00  0.00000000E+00
  0.00000000E+00  0.00000000E+00  0.00000000E+00
  0.00000000E+00  0.00000000E+00  0.00000000E+00
  0.00000000E+00  0.00000000E+00  0.00000000E+00
  0.00000000E+00  0.00000000E+00  0.00000000E+00
  0.00000000E+00  0.00000000E+00  0.00000000E+00
  0.00000000E+00  0.00000000E+00  0.00000000E+00
  0.00000000E+00  0.00000000E+00  0.00000000E+00
  0.00000000E+00  0.00000000E+00  0.00000000E+00
  0.00000000E+00  0.00000000E+00  0.00000000E+00
  0.00000000E+00  0.00000000E+00  0.00000000E+00
  0.00000000E+00  0.00000000E+00  0.00000000E+00
  0.00000000E+00  0.00000000E+00  0.00000000E+00
  0.00000000E+00  0.00000000E+00  0.00000000E+00
  0.00000000E+00  0.00000000E+00  0.00000000E+00
  0.00000000E+00  0.00000000E+00  0.00000000E+00
  0.00000000E+00  0.00000000E+00  0.00000000E+00
  0.00000000E+00  0.00000000E+00  0.00000000E+00
  0.00000000E+00  0.00000000E+00  0.00000000E+00
  0.00000000E+00  0.00000000E+00  0.00000000E+00
  0.00000000E+00  0.00000000E+00  0.00000000E+00
  0.00000000E+00  0.00000000E+00  0.00000000E+00
  0.00000000E+00  0.00000000E+00  0.00000000E+00
  0.00000000E+00  0.00000000E+00  0.00000000E+00
  0.00000000E+00  0.00000000E+00  0.00000000E+00
  0.00000000E+00  0.00000000E+00  0.00000000E+00
  0.00000000E+00  0.00000000E+00  0.00000000E+00
  0.00000000E+00  0.00000000E+00  0.00000000E+00
  0.00000000E+00  0.00000000E+00  0.00000000E+00
  0.00000000E+00  0.00000000E+00  0.00000000E+00
  0.00000000E+00  0.00000000E+00  0.00000000E+00
  0.00000000E+00  0.00000000E+00  0.00000000E+00
  0.00000000E+00  0.00000000E+00  0.00000000E+00
  0.00000000E+00  0.00000000E+00  0.00000000E+00
  0.00000000E+00  0.00000000E+00  0.00000000E+00
  0.00000000E+00  0.00000000E+00  0.00000000E+00
  0.00000000E+00  0.00000000E+00  0.00000000E+00
  0.00000000E+00  0.00000000E+00  0.00000000E+00
  0.00000000E+00  0.00000000E+00  0.00000000E+00
  0.00000000E+00  0.00000000E+00  0.00000000E+00
  0.00000000E+00  0.00000000E+00  0.00000000E+00
  0.00000000E+00  0.00000000E+00  0.00000000E+00
  0.00000000E+00  0.00000000E+00  0.00000000E+00
  0.00000000E+00  0.00000000E+00  0.00000000E+00
  0.00000000E+00  0.00000000E+00  0.00000000E+00
  0.00000000E+00  0.00000000E+00  0.00000000E+00
  0.00000000E+00  0.00000000E+00  0.00000000E+00
  0.00000000E+00  0.00000000E+00  0.00000000E+00
  0.00000000E+00  0.00000000E+00  0.00000000E+00
  0.00000000E+00  0.00000000E+00  0.00000000E+00
  0.00000000E+00  0.00000000E+00  0.00000000E+00
  0.00000000E+00  0.00000000E+00  0.00000000E+00
  0.00000000E+00  0.00000000E+00  0.00000000E+00
  0.00000000E+00  0.00000000E+00  0.00000000E+00
  0.00000000E+00  0.00000000E+00  0.00000000E+00
  0.00000000E+00  0.00000000E+00  0.00000000E+00
  0.00000000E+00  0.00000000E+00  0.00000000E+00
  0.00000000E+00  0.00000000E+00  0.00000000E+00
  0.00000000E+00  0.00000000E+00  0.00000000E+00
  0.00000000E+00  0.00000000E+00  0.00000000E+00
  0.00000000E+00  0.00000000E+00  0.00000000E+00
  0.00000000E+00  0.00000000E+00  0.00000000E+00
  0.00000000E+00  0.00000000E+00  0.00000000E+00
  0.00000000E+00  0.00000000E+00  0.00000000E+00
  0.00000000E+00  0.00000000E+00  0.00000000E+00
  0.00000000E+00  0.00000000E+00  0.00000000E+00
  0.00000000E+00  0.00000000E+00  0.00000000E+00
  0.00000000E+00  0.00000000E+00  0.00000000E+00
  0.00000000E+00  0.00000000E+00  0.00000000E+00
  0.00000000E+00  0.00000000E+00  0.00000000E+00
  0.00000000E+00  0.00000000E+00  0.00000000E+00
  0.00000000E+00  0.00000000E+00  0.00000000E+00
  0.00000000E+00  0.00000000E+00  0.00000000E+00
  0.00000000E+00  0.00000000E+00  0.00000000E+00
  0.00000000E+00  0.00000000E+00  0.00000000E+00
  0.00000000E+00  0.00000000E+00  0.00000000E+00
  0.00000000E+00  0.00000000E+00  0.00000000E+00
  0.00000000E+00  0.00000000E+00  0.00000000E+00
  0.00000000E+00  0.00000000E+00  0.00000000E+00
  0.00000000E+00  0.00000000E+00  0.00000000E+00
  0.00000000E+00  0.00000000E+00  0.00000000E+00
  0.00000000E+00  0.00000000E+00  0.00000000E+00
  0.00000000E+00  0.00000000E+00  0.00000000E+00
  0.00000000E+00  0.00000000E+00  0.00000000E+00
  0.00000000E+00  0.00000000E+00  0.00000000E+00
  0.00000000E+00  0.00000000E+00  0.00000000E+00
  0.00000000E+00  0.00000000E+00  0.00000000E+00
  0.00000000E+00  0.00000000E+00  0.00000000E+00
  0.00000000E+00  0.00000000E+00  0.00000000E+00
  0.00000000E+00  0.00000000E+00  0.00000000E+00
  0.00000000E+00  0.00000000E+00  0.00000000E+00
  0.00000000E+00  0.00000000E+00  0.00000000E+00
  0.00000000E+00  0.00000000E+00  0.00000000E+00
  0.00000000E+00  0.00000000E+00  0.00000000E+00
  0.00000000E+00  0.00000000E+00  0.00000000E+00
  0.00000000E+00  0.00000000E+00  0.00000000E+00
  0.00000000E+00  0.00000000E+00  0.00000000E+00
  0.00000000E+00  0.00000000E+00  0.00000000E+00
  0.00000000E+00  0.00000000E+00  0.00000000E+00
  0.00000000E+00  0.00000000E+00  0.00000000E+00
  0.00000000E+00  0.00000000E+00  0.00000000E+00
  0.00000000E+00  0.00000000E+00  0.00000000E+00
  0.00000000E+00  0.00000000E+00  0.00000000E+00
  0.00000000E+00  0.00000000E+00  0.00000000E+00
  0.00000000E+00  0.00000000E+00  0.00000000E+00
  0.00000000E+00  0.00000000E+00  0.00000000E+00
  0.00000000E+00  0.00000000E+00  0.00000000E+00
