       N       E                     dE             d eps       ncg     rms          rms(c)
DAV:   1     0.144804446562E+05    0.14480E+05   -0.26925E+05138352   0.255E+03
DAV:   2     0.273067167780E+04   -0.11750E+05   -0.10975E+05137760   0.824E+02
DAV:   3    -0.195858414687E+03   -0.29265E+04   -0.26701E+04168288   0.426E+02
DAV:   4    -0.656555516528E+03   -0.46070E+03   -0.43814E+03233136   0.236E+02
DAV:   5    -0.688989620579E+03   -0.32434E+02   -0.31246E+02231584   0.745E+01
DAV:   6    -0.691357668756E+03   -0.23680E+01   -0.23078E+01238072   0.170E+01
DAV:   7    -0.691535993415E+03   -0.17832E+00   -0.17583E+00234400   0.466E+00
DAV:   8    -0.691554578273E+03   -0.18585E-01   -0.18438E-01252704   0.137E+00
DAV:   9    -0.691556226173E+03   -0.16479E-02   -0.16411E-02243776   0.407E-01
DAV:  10    -0.691556405396E+03   -0.17922E-03   -0.17885E-03255152   0.114E-01
DAV:  11    -0.691556419796E+03   -0.14399E-04   -0.14387E-04236016   0.285E-02
DAV:  12    -0.691556421335E+03   -0.15394E-05   -0.15402E-05192480   0.772E-03
DAV:  13    -0.691556421501E+03   -0.16567E-06   -0.16610E-06147704   0.269E-03
DAV:  14    -0.691556421521E+03   -0.19900E-07   -0.19702E-07139152   0.125E-03
   1 F= -.69155642E+03 E0= -.69155642E+03  d E =0.000000E+00
