all                                     
           1
    10.029929   -0.008041   -0.000129
    -0.008045   10.025432   -0.012445
    -0.000101   -0.008256    6.640783
   Na   Zr   Mg   Ca   H 
   9   9   9   9 216
Direct configuration=     1
   0.16867852  0.17184617  0.25165835
   0.17024046  0.49815701  0.25032431
   0.49528291  0.16647165  0.25227646
   0.49934968  0.17237879  0.75423532
   0.66436020  0.33589508  0.00725468
   0.33121941  0.99826472  0.49552940
   0.99889920  0.32847948  0.00102158
   0.83271390  0.83518983  0.25082835
   0.00442686  0.00404577  0.00035860
   0.17389118  0.15979153  0.74907863
   0.17144241  0.49936154  0.75139880
   0.82703498  0.17508655  0.75063573
   0.83339129  0.49701702  0.24896615
   0.49275703  0.83364294  0.74810123
   0.00334715  0.66786329  0.49450804
   0.83697277  0.83171902  0.74825771
   0.66737476  0.00442885  0.00839392
   0.00276582  0.67105365  0.00782700
   0.33313826  0.33030491  0.49787324
   0.16718065  0.83658935  0.24879805
   0.49102410  0.49698906  0.24679787
   0.33757052  0.66578428  0.49825391
   0.66483977  0.33034683  0.49467156
   0.66261227  0.66574021  0.49660931
   0.32533564  0.00121697  0.00266063
   0.82871021  0.49765360  0.75151940
   0.00493452  0.00366383  0.49621571
   0.33909383  0.32763497  0.99957270
   0.16811002  0.83899128  0.74799454
   0.83613778  0.16546236  0.25028061
   0.50694232  0.49298067  0.74040208
   0.33561392  0.66615317  0.00619548
   0.49963239  0.83565186  0.25172965
   0.00109184  0.33151140  0.49950334
   0.66382573  0.65906059  0.00035172
   0.65979017  0.00238959  0.49936713
   0.16578937  0.08362979  0.01428826
   0.17273031  0.07983165  0.47337576
   0.15823286  0.41713426  0.00117920
   0.49701689  0.08313360  0.99809384
   0.33819795  0.25387608  0.26167961
   0.17420139  0.41558877  0.49011345
   0.48942635  0.08143716  0.51379993
   0.33750499  0.25176261  0.73773431
   0.17140102  0.75444741  0.00594351
   0.50551234  0.41235342  0.00372610
   0.33483175  0.58192999  0.26750021
   0.18329005  0.75332332  0.49408372
   0.84072766  0.08229152  0.99865607
   0.65602211  0.25002291  0.24286624
   0.50464169  0.41555994  0.48204760
   0.34071711  0.58128743  0.73743076
   0.83604682  0.08043263  0.50219704
   0.66049511  0.25212052  0.76425819
   0.50116003  0.75034658  0.00353702
   0.32115873  0.91660260  0.26398786
   0.83712152  0.41645068  0.99285689
   0.65012590  0.58166003  0.26425461
   0.49795465  0.74883577  0.49286401
   0.32824923  0.92263981  0.73775087
   0.00989721  0.25303946  0.24422107
   0.82361097  0.41797569  0.51476151
   0.67050221  0.58176332  0.73100595
   0.00601790  0.24997977  0.75940601
   0.82961780  0.74957693  0.01124815
   0.67391678  0.91539689  0.25393723
   0.01110487  0.58147889  0.25018857
   0.82628876  0.74829016  0.48891954
   0.66835383  0.91733245  0.74882419
   0.99504947  0.58261445  0.75132538
   0.00824803  0.91656441  0.25804009
   0.00124208  0.91953325  0.73923066
   0.08204774  0.16457343  0.01682496
   0.08252127  0.16522303  0.48906170
   0.08436911  0.48932999  0.00824942
   0.41729305  0.15650291  0.99850410
   0.23988659  0.33379345  0.23964970
   0.08563891  0.49867049  0.49277141
   0.41901261  0.18121595  0.50215551
   0.25015860  0.33101738  0.74795100
   0.08488478  0.84862956  0.00601534
   0.41579547  0.49504935  0.99264666
   0.25097321  0.67269428  0.25890081
   0.08509864  0.83493371  0.48911116
   0.74773326  0.17512602  0.00625129
   0.58537601  0.33727269  0.26036264
   0.41470758  0.49584424  0.49519957
   0.25302131  0.67283164  0.74282537
   0.74695441  0.16747696  0.49509216
   0.58318065  0.32823820  0.74162986
   0.41198730  0.84575935  0.00984276
   0.24896215  0.99754218  0.24451947
   0.74671428  0.49422295  0.99510962
   0.58376457  0.65360663  0.25987729
   0.41067981  0.83036509  0.49350256
   0.25826981  0.99643541  0.74868169
   0.91670608  0.33078338  0.24319242
   0.74758722  0.50522736  0.49866878
   0.58431161  0.66672408  0.73456520
   0.91851694  0.33821858  0.75561922
   0.75261556  0.82963154  0.00485025
   0.57848686  0.01029877  0.24968692
   0.91167242  0.67460384  0.25347864
   0.75071226  0.83111639  0.49498861
   0.58082857  0.00436695  0.75765684
   0.91575463  0.65406845  0.74640591
   0.91606771  0.99851485  0.23893592
   0.91776561  0.00703084  0.75947092
   0.16589496  0.00763331  0.13372082
   0.16614647  0.99946182  0.61621260
   0.17632612  0.33262510  0.13148105
   0.47764715  0.00564367  0.12825423
   0.32890407  0.15299235  0.36686525
   0.17367146  0.33042214  0.62309718
   0.48889571  0.02171049  0.61963484
   0.34039103  0.15647176  0.87755391
   0.17145028  0.66319606  0.13132154
   0.49767445  0.33524562  0.12775409
   0.33111091  0.48506754  0.36889504
   0.17148341  0.66925870  0.62192353
   0.85450127  0.99689020  0.13307508
   0.66209609  0.16841868  0.37424919
   0.51048435  0.32751984  0.62267902
   0.34426759  0.49710413  0.87665780
   0.83544623  0.00338200  0.62344343
   0.65762405  0.17996284  0.87906581
   0.49895559  0.65715600  0.12847041
   0.33227563  0.84420353  0.36598254
   0.83445066  0.33064380  0.12214755
   0.66907590  0.49844291  0.37518570
   0.50027416  0.65992545  0.62019778
   0.32965860  0.83998918  0.88006954
   0.00806435  0.16130779  0.37531606
   0.81988214  0.34393578  0.62389437
   0.67372985  0.49047669  0.87625341
   0.00257719  0.16745073  0.87622399
   0.83048779  0.67283036  0.12787979
   0.66994934  0.82949064  0.37455192
   0.00815647  0.49659092  0.37309433
   0.82923016  0.65655268  0.62387278
   0.66376092  0.82838637  0.87493025
   0.99072386  0.49557378  0.87809008
   0.99785951  0.84972389  0.36564610
   0.00483611  0.84120067  0.87938467
   0.08180144  0.01175617  0.24042742
   0.08074745  0.00228897  0.75450121
   0.07678258  0.33226831  0.24376597
   0.41443952  0.00602255  0.22965950
   0.25191641  0.16567078  0.48813650
   0.08034120  0.33305424  0.75954320
   0.41979945  0.00722421  0.76815011
   0.25499819  0.16112228  0.02909789
   0.08991698  0.66635041  0.25394664
   0.41715972  0.32129271  0.26449026
   0.25012422  0.50886467  0.48774297
   0.08555916  0.66848111  0.74970247
   0.75038534  0.99528946  0.25555805
   0.58179538  0.17964632  0.50286733
   0.41757424  0.32730179  0.72811108
   0.25348871  0.49737703  0.01907311
   0.74899166  0.99783572  0.74668566
   0.57787332  0.17554594  0.00235483
   0.41711914  0.66493812  0.26514703
   0.24690962  0.82725152  0.48980497
   0.74942190  0.33507461  0.24777031
   0.58068872  0.48796225  0.48250870
   0.41685758  0.65970497  0.73589523
   0.24841501  0.83642708  0.01046260
   0.91786741  0.16185887  0.50317884
   0.74818009  0.34121330  0.76424213
   0.58146096  0.49121822  0.00966790
   0.92042616  0.16325800  0.99511929
   0.74839573  0.66653234  0.25658969
   0.58624689  0.82411457  0.50265528
   0.91740177  0.49882080  0.51539956
   0.74892133  0.66598681  0.74285972
   0.58574597  0.83223027  0.99773851
   0.91969265  0.49085839  0.98369504
   0.91692831  0.83961663  0.48507977
   0.91775187  0.84716387  0.01733185
   0.01157031  0.16678426  0.12045843
   0.00005406  0.16303444  0.62484869
   0.00750013  0.49264488  0.12263389
   0.32527227  0.16107131  0.12445043
   0.17730570  0.33537033  0.37810978
   0.99005109  0.49715890  0.63004920
   0.34368771  0.15316025  0.62162615
   0.16498199  0.32746719  0.88547530
   0.99996092  0.84481794  0.12686686
   0.32844164  0.49534552  0.12332696
   0.17260267  0.66422272  0.37281657
   0.00430990  0.84053532  0.61742865
   0.66150467  0.17838397  0.13152318
   0.48981791  0.33211681  0.37416242
   0.34030241  0.49346438  0.61710424
   0.16847394  0.67185925  0.87678641
   0.65500521  0.17613525  0.62238549
   0.51040491  0.33347241  0.87716432
   0.33193349  0.83857042  0.12337802
   0.16920635  0.01053666  0.37289491
   0.66040542  0.49299269  0.12879796
   0.49729203  0.66848708  0.37528438
   0.33189867  0.84018532  0.62127154
   0.16554543  0.00048885  0.88168729
   0.82580702  0.32904066  0.37847210
   0.67076302  0.49149732  0.62039664
   0.49959751  0.65337118  0.87777437
   0.82188403  0.34436364  0.87813876
   0.66961891  0.82861228  0.12600405
   0.49233192  0.00599184  0.37547573
   0.82606807  0.67263137  0.37645911
   0.66524264  0.82977210  0.62396700
   0.48385013  0.01296774  0.87642432
   0.83121369  0.65382885  0.87504806
   0.83876333  0.99731928  0.38042299
   0.84819641  0.00131379  0.87309133
   0.01168144  0.07969312  0.25152952
   0.99909943  0.08050884  0.74872003
   0.01501681  0.41494868  0.23999601
   0.33051478  0.08764145  0.27063758
   0.17443718  0.24969338  0.49564256
   0.99732566  0.41573323  0.75860049
   0.34359865  0.08897956  0.72218376
   0.16537093  0.25207238  0.00053673
   0.00100581  0.75665316  0.25609037
   0.33168225  0.41725923  0.26457034
   0.18443291  0.58249447  0.48646137
   0.00370095  0.75135399  0.74580796
   0.65741097  0.08852617  0.25633345
   0.49010453  0.24309466  0.49530084
   0.33687725  0.41542239  0.73652664
   0.16895401  0.58370556  0.01637717
   0.65890440  0.08614457  0.75242191
   0.50752519  0.24629945  0.01202630
   0.32992526  0.74799708  0.26105626
   0.16513105  0.91669879  0.48460429
   0.64507671  0.41189766  0.25874041
   0.50047107  0.58293436  0.49061938
   0.32761403  0.74664736  0.74305077
   0.16196977  0.91673197  0.00888129
   0.82771799  0.25409855  0.49244432
   0.67103953  0.41429850  0.73806829
   0.49887380  0.58383653  0.99803867
   0.82805696  0.25375803  0.00618688
   0.66793730  0.74967133  0.25160547
   0.49080630  0.91850753  0.50076436
   0.81758672  0.58108704  0.51366137
   0.67084959  0.74708320  0.74852203
   0.49683464  0.91853613  0.00122537
   0.83291926  0.58143673  0.99076722
   0.83924988  0.91655915  0.49145146
   0.84314678  0.91446705  0.00526698
