generated by phonopy                    
   1.00000000000000     
     0.0000000000000000    3.3372940467798768    3.3372940467800425
     3.3372940467799528    0.0000000000000000    3.3372940467800425
     3.3372940467799528    3.3372940467798768    0.0000000000000000
   Na   K    Mg   Zr   H 
     1     1     1     1    24
Direct
  0.2500000000000000  0.2500000000000000  0.2500000000000000
  0.7500000000000000  0.7500000000000000  0.7500000000000000
  0.0000000000000000  0.0000000000000000  0.0000000000000000
  0.5000000000000000  0.5000000000000000  0.5000000000000000
  0.1170804650570787  0.8974944520200125  0.6252806704061342
  0.8974944520200125  0.1170804650570787  0.3601444125167674
  0.6252806704061342  0.3601444125167674  0.1170804650570787
  0.3601444125167674  0.6252806704061342  0.8974944520200125
  0.6252806704061342  0.1170804650570787  0.8974944520200125
  0.3601444125167674  0.8974944520200125  0.1170804650570787
  0.1170804650570787  0.6252806704061342  0.3601444125167674
  0.8974944520200125  0.3601444125167674  0.6252806704061342
  0.8974944520200125  0.6252806704061342  0.1170804650570787
  0.1170804650570787  0.3601444125167674  0.8974944520200125
  0.3601444125167674  0.1170804650570787  0.6252806704061342
  0.6252806704061342  0.8974944520200125  0.3601444125167674
  0.1170804650570787  0.3601444125167674  0.6252806704061342
  0.3601444125167674  0.1170804650570787  0.8974944520200125
  0.6252806704061342  0.8974944520200125  0.1170804650570787
  0.8974944520200125  0.6252806704061342  0.3601444125167674
  0.6252806704061342  0.1170804650570787  0.3601444125167674
  0.8974944520200125  0.3601444125167674  0.1170804650570787
  0.1170804650570787  0.6252806704061342  0.8974944520200125
  0.3601444125167674  0.8974944520200125  0.6252806704061342
  0.3601444125167674  0.6252806704061342  0.1170804650570787
  0.1170804650570787  0.8974944520200125  0.3601444125167674
  0.8974944520200125  0.1170804650570787  0.6252806704061342
  0.6252806704061342  0.3601444125167674  0.8974944520200125
 
  0.00000000E+00  0.00000000E+00  0.00000000E+00
  0.00000000E+00  0.00000000E+00  0.00000000E+00
  0.00000000E+00  0.00000000E+00  0.00000000E+00
  0.00000000E+00  0.00000000E+00  0.00000000E+00
  0.00000000E+00  0.00000000E+00  0.00000000E+00
  0.00000000E+00  0.00000000E+00  0.00000000E+00
  0.00000000E+00  0.00000000E+00  0.00000000E+00
  0.00000000E+00  0.00000000E+00  0.00000000E+00
  0.00000000E+00  0.00000000E+00  0.00000000E+00
  0.00000000E+00  0.00000000E+00  0.00000000E+00
  0.00000000E+00  0.00000000E+00  0.00000000E+00
  0.00000000E+00  0.00000000E+00  0.00000000E+00
  0.00000000E+00  0.00000000E+00  0.00000000E+00
  0.00000000E+00  0.00000000E+00  0.00000000E+00
  0.00000000E+00  0.00000000E+00  0.00000000E+00
  0.00000000E+00  0.00000000E+00  0.00000000E+00
  0.00000000E+00  0.00000000E+00  0.00000000E+00
  0.00000000E+00  0.00000000E+00  0.00000000E+00
  0.00000000E+00  0.00000000E+00  0.00000000E+00
  0.00000000E+00  0.00000000E+00  0.00000000E+00
  0.00000000E+00  0.00000000E+00  0.00000000E+00
  0.00000000E+00  0.00000000E+00  0.00000000E+00
  0.00000000E+00  0.00000000E+00  0.00000000E+00
  0.00000000E+00  0.00000000E+00  0.00000000E+00
  0.00000000E+00  0.00000000E+00  0.00000000E+00
  0.00000000E+00  0.00000000E+00  0.00000000E+00
  0.00000000E+00  0.00000000E+00  0.00000000E+00
  0.00000000E+00  0.00000000E+00  0.00000000E+00
