generated by phonopy                    
   1.00000000000000     
     0.0000000000000000    3.1896690990906089    3.1896690990906662
     3.1896690990906347    0.0000000000000000    3.1896690990906662
     3.1896690990906347    3.1896690990906089    0.0000000000000000
   Na   Y    Mg   Sc   H 
     1     1     1     1    24
Direct
  0.2500000000000000  0.2500000000000000  0.2500000000000000
  0.7500000000000000  0.7500000000000000  0.7500000000000000
  0.0000000000000000  0.0000000000000000  0.0000000000000000
  0.5000000000000000  0.5000000000000000  0.5000000000000000
  0.1302195762062368  0.8927752310526458  0.6181074782993861
  0.8927752310526458  0.1302195762062368  0.3588977144417242
  0.6181074782993861  0.3588977144417242  0.1302195762062368
  0.3588977144417242  0.6181074782993861  0.8927752310526458
  0.6181074782993861  0.1302195762062368  0.8927752310526458
  0.3588977144417242  0.8927752310526458  0.1302195762062368
  0.1302195762062368  0.6181074782993861  0.3588977144417242
  0.8927752310526458  0.3588977144417242  0.6181074782993861
  0.8927752310526458  0.6181074782993861  0.1302195762062368
  0.1302195762062368  0.3588977144417242  0.8927752310526458
  0.3588977144417242  0.1302195762062368  0.6181074782993861
  0.6181074782993861  0.8927752310526458  0.3588977144417242
  0.1302195762062368  0.3588977144417242  0.6181074782993861
  0.3588977144417242  0.1302195762062368  0.8927752310526458
  0.6181074782993861  0.8927752310526458  0.1302195762062368
  0.8927752310526458  0.6181074782993861  0.3588977144417242
  0.6181074782993861  0.1302195762062368  0.3588977144417242
  0.8927752310526458  0.3588977144417242  0.1302195762062368
  0.1302195762062368  0.6181074782993861  0.8927752310526458
  0.3588977144417242  0.8927752310526458  0.6181074782993861
  0.3588977144417242  0.6181074782993861  0.1302195762062368
  0.1302195762062368  0.8927752310526458  0.3588977144417242
  0.8927752310526458  0.1302195762062368  0.6181074782993861
  0.6181074782993861  0.3588977144417242  0.8927752310526458
 
  0.00000000E+00  0.00000000E+00  0.00000000E+00
  0.00000000E+00  0.00000000E+00  0.00000000E+00
  0.00000000E+00  0.00000000E+00  0.00000000E+00
  0.00000000E+00  0.00000000E+00  0.00000000E+00
  0.00000000E+00  0.00000000E+00  0.00000000E+00
  0.00000000E+00  0.00000000E+00  0.00000000E+00
  0.00000000E+00  0.00000000E+00  0.00000000E+00
  0.00000000E+00  0.00000000E+00  0.00000000E+00
  0.00000000E+00  0.00000000E+00  0.00000000E+00
  0.00000000E+00  0.00000000E+00  0.00000000E+00
  0.00000000E+00  0.00000000E+00  0.00000000E+00
  0.00000000E+00  0.00000000E+00  0.00000000E+00
  0.00000000E+00  0.00000000E+00  0.00000000E+00
  0.00000000E+00  0.00000000E+00  0.00000000E+00
  0.00000000E+00  0.00000000E+00  0.00000000E+00
  0.00000000E+00  0.00000000E+00  0.00000000E+00
  0.00000000E+00  0.00000000E+00  0.00000000E+00
  0.00000000E+00  0.00000000E+00  0.00000000E+00
  0.00000000E+00  0.00000000E+00  0.00000000E+00
  0.00000000E+00  0.00000000E+00  0.00000000E+00
  0.00000000E+00  0.00000000E+00  0.00000000E+00
  0.00000000E+00  0.00000000E+00  0.00000000E+00
  0.00000000E+00  0.00000000E+00  0.00000000E+00
  0.00000000E+00  0.00000000E+00  0.00000000E+00
  0.00000000E+00  0.00000000E+00  0.00000000E+00
  0.00000000E+00  0.00000000E+00  0.00000000E+00
  0.00000000E+00  0.00000000E+00  0.00000000E+00
  0.00000000E+00  0.00000000E+00  0.00000000E+00
