generated by phonopy                    
   1.00000000000000     
     0.0000000000000000    3.2290055772832895    3.2290055772833832
     3.2290055772833295    0.0000000000000000    3.2290055772833832
     3.2290055772833295    3.2290055772832895    0.0000000000000000
   Na   Zr   Ti   Hf   H 
     1     1     1     1    24
Direct
  0.2500000000000000  0.2500000000000000  0.2500000000000000
  0.7500000000000000  0.7500000000000000  0.7500000000000000
  0.0000000000000000  0.0000000000000000  0.0000000000000000
  0.5000000000000000  0.5000000000000000  0.5000000000000000
  0.1263683425352156  0.8933808049450604  0.6180281856887717
  0.8933808049450604  0.1263683425352156  0.3622226668309452
  0.6180281856887717  0.3622226668309452  0.1263683425352156
  0.3622226668309452  0.6180281856887717  0.8933808049450604
  0.6180281856887717  0.1263683425352156  0.8933808049450604
  0.3622226668309452  0.8933808049450604  0.1263683425352156
  0.1263683425352156  0.6180281856887717  0.3622226668309452
  0.8933808049450604  0.3622226668309452  0.6180281856887717
  0.8933808049450604  0.6180281856887717  0.1263683425352156
  0.1263683425352156  0.3622226668309452  0.8933808049450604
  0.3622226668309452  0.1263683425352156  0.6180281856887717
  0.6180281856887717  0.8933808049450604  0.3622226668309452
  0.1263683425352156  0.3622226668309452  0.6180281856887717
  0.3622226668309452  0.1263683425352156  0.8933808049450604
  0.6180281856887717  0.8933808049450604  0.1263683425352156
  0.8933808049450604  0.6180281856887717  0.3622226668309452
  0.6180281856887717  0.1263683425352156  0.3622226668309452
  0.8933808049450604  0.3622226668309452  0.1263683425352156
  0.1263683425352156  0.6180281856887717  0.8933808049450604
  0.3622226668309452  0.8933808049450604  0.6180281856887717
  0.3622226668309452  0.6180281856887717  0.1263683425352156
  0.1263683425352156  0.8933808049450604  0.3622226668309452
  0.8933808049450604  0.1263683425352156  0.6180281856887717
  0.6180281856887717  0.3622226668309452  0.8933808049450604
 
  0.00000000E+00  0.00000000E+00  0.00000000E+00
  0.00000000E+00  0.00000000E+00  0.00000000E+00
  0.00000000E+00  0.00000000E+00  0.00000000E+00
  0.00000000E+00  0.00000000E+00  0.00000000E+00
  0.00000000E+00  0.00000000E+00  0.00000000E+00
  0.00000000E+00  0.00000000E+00  0.00000000E+00
  0.00000000E+00  0.00000000E+00  0.00000000E+00
  0.00000000E+00  0.00000000E+00  0.00000000E+00
  0.00000000E+00  0.00000000E+00  0.00000000E+00
  0.00000000E+00  0.00000000E+00  0.00000000E+00
  0.00000000E+00  0.00000000E+00  0.00000000E+00
  0.00000000E+00  0.00000000E+00  0.00000000E+00
  0.00000000E+00  0.00000000E+00  0.00000000E+00
  0.00000000E+00  0.00000000E+00  0.00000000E+00
  0.00000000E+00  0.00000000E+00  0.00000000E+00
  0.00000000E+00  0.00000000E+00  0.00000000E+00
  0.00000000E+00  0.00000000E+00  0.00000000E+00
  0.00000000E+00  0.00000000E+00  0.00000000E+00
  0.00000000E+00  0.00000000E+00  0.00000000E+00
  0.00000000E+00  0.00000000E+00  0.00000000E+00
  0.00000000E+00  0.00000000E+00  0.00000000E+00
  0.00000000E+00  0.00000000E+00  0.00000000E+00
  0.00000000E+00  0.00000000E+00  0.00000000E+00
  0.00000000E+00  0.00000000E+00  0.00000000E+00
  0.00000000E+00  0.00000000E+00  0.00000000E+00
  0.00000000E+00  0.00000000E+00  0.00000000E+00
  0.00000000E+00  0.00000000E+00  0.00000000E+00
  0.00000000E+00  0.00000000E+00  0.00000000E+00
