generated by phonopy                    
   1.00000000000000     
     0.0000000000000000    3.2879275839499713    3.2879275839500162
     3.2879275839499891    0.0000000000000000    3.2879275839500162
     3.2879275839499891    3.2879275839499713    0.0000000000000000
   Ca   Y    Sc   Zr   H 
     1     1     1     1    24
Direct
  0.2500000000000000  0.2500000000000000  0.2500000000000000
  0.7500000000000000  0.7500000000000000  0.7500000000000000
  0.0000000000000000  0.0000000000000000  0.0000000000000000
  0.5000000000000000  0.5000000000000000  0.5000000000000000
  0.1225712453742034  0.8866963313152141  0.6241355589941406
  0.8866963313152141  0.1225712453742034  0.3665968643164419
  0.6241355589941406  0.3665968643164419  0.1225712453742034
  0.3665968643164419  0.6241355589941406  0.8866963313152141
  0.6241355589941406  0.1225712453742034  0.8866963313152141
  0.3665968643164419  0.8866963313152141  0.1225712453742034
  0.1225712453742034  0.6241355589941406  0.3665968643164419
  0.8866963313152141  0.3665968643164419  0.6241355589941406
  0.8866963313152141  0.6241355589941406  0.1225712453742034
  0.1225712453742034  0.3665968643164419  0.8866963313152141
  0.3665968643164419  0.1225712453742034  0.6241355589941406
  0.6241355589941406  0.8866963313152141  0.3665968643164419
  0.1225712453742034  0.3665968643164419  0.6241355589941406
  0.3665968643164419  0.1225712453742034  0.8866963313152141
  0.6241355589941406  0.8866963313152141  0.1225712453742034
  0.8866963313152141  0.6241355589941406  0.3665968643164419
  0.6241355589941406  0.1225712453742034  0.3665968643164419
  0.8866963313152141  0.3665968643164419  0.1225712453742034
  0.1225712453742034  0.6241355589941406  0.8866963313152141
  0.3665968643164419  0.8866963313152141  0.6241355589941406
  0.3665968643164419  0.6241355589941406  0.1225712453742034
  0.1225712453742034  0.8866963313152141  0.3665968643164419
  0.8866963313152141  0.1225712453742034  0.6241355589941406
  0.6241355589941406  0.3665968643164419  0.8866963313152141
 
  0.00000000E+00  0.00000000E+00  0.00000000E+00
  0.00000000E+00  0.00000000E+00  0.00000000E+00
  0.00000000E+00  0.00000000E+00  0.00000000E+00
  0.00000000E+00  0.00000000E+00  0.00000000E+00
  0.00000000E+00  0.00000000E+00  0.00000000E+00
  0.00000000E+00  0.00000000E+00  0.00000000E+00
  0.00000000E+00  0.00000000E+00  0.00000000E+00
  0.00000000E+00  0.00000000E+00  0.00000000E+00
  0.00000000E+00  0.00000000E+00  0.00000000E+00
  0.00000000E+00  0.00000000E+00  0.00000000E+00
  0.00000000E+00  0.00000000E+00  0.00000000E+00
  0.00000000E+00  0.00000000E+00  0.00000000E+00
  0.00000000E+00  0.00000000E+00  0.00000000E+00
  0.00000000E+00  0.00000000E+00  0.00000000E+00
  0.00000000E+00  0.00000000E+00  0.00000000E+00
  0.00000000E+00  0.00000000E+00  0.00000000E+00
  0.00000000E+00  0.00000000E+00  0.00000000E+00
  0.00000000E+00  0.00000000E+00  0.00000000E+00
  0.00000000E+00  0.00000000E+00  0.00000000E+00
  0.00000000E+00  0.00000000E+00  0.00000000E+00
  0.00000000E+00  0.00000000E+00  0.00000000E+00
  0.00000000E+00  0.00000000E+00  0.00000000E+00
  0.00000000E+00  0.00000000E+00  0.00000000E+00
  0.00000000E+00  0.00000000E+00  0.00000000E+00
  0.00000000E+00  0.00000000E+00  0.00000000E+00
  0.00000000E+00  0.00000000E+00  0.00000000E+00
  0.00000000E+00  0.00000000E+00  0.00000000E+00
  0.00000000E+00  0.00000000E+00  0.00000000E+00
