generated by phonopy                    
   1.00000000000000     
     0.0000000000000000    3.3555042843270226    3.3555042843271132
     3.3555042843270604    0.0000000000000000    3.3555042843271132
     3.3555042843270604    3.3555042843270226    0.0000000000000000
   K    Zr   Sc   Y    H 
     1     1     1     1    24
Direct
  0.2500000000000000  0.2500000000000000  0.2500000000000000
  0.7500000000000000  0.7500000000000000  0.7500000000000000
  0.0000000000000000  0.0000000000000000  0.0000000000000000
  0.5000000000000000  0.5000000000000000  0.5000000000000000
  0.1224297536962382  0.8849233050623297  0.6269304809829421
  0.8849233050623297  0.1224297536962382  0.3657164602585112
  0.6269304809829421  0.3657164602585112  0.1224297536962382
  0.3657164602585112  0.6269304809829421  0.8849233050623297
  0.6269304809829421  0.1224297536962382  0.8849233050623297
  0.3657164602585112  0.8849233050623297  0.1224297536962382
  0.1224297536962382  0.6269304809829421  0.3657164602585112
  0.8849233050623297  0.3657164602585112  0.6269304809829421
  0.8849233050623297  0.6269304809829421  0.1224297536962382
  0.1224297536962382  0.3657164602585112  0.8849233050623297
  0.3657164602585112  0.1224297536962382  0.6269304809829421
  0.6269304809829421  0.8849233050623297  0.3657164602585112
  0.1224297536962382  0.3657164602585112  0.6269304809829421
  0.3657164602585112  0.1224297536962382  0.8849233050623297
  0.6269304809829421  0.8849233050623297  0.1224297536962382
  0.8849233050623297  0.6269304809829421  0.3657164602585112
  0.6269304809829421  0.1224297536962382  0.3657164602585112
  0.8849233050623297  0.3657164602585112  0.1224297536962382
  0.1224297536962382  0.6269304809829421  0.8849233050623297
  0.3657164602585112  0.8849233050623297  0.6269304809829421
  0.3657164602585112  0.6269304809829421  0.1224297536962382
  0.1224297536962382  0.8849233050623297  0.3657164602585112
  0.8849233050623297  0.1224297536962382  0.6269304809829421
  0.6269304809829421  0.3657164602585112  0.8849233050623297
 
  0.00000000E+00  0.00000000E+00  0.00000000E+00
  0.00000000E+00  0.00000000E+00  0.00000000E+00
  0.00000000E+00  0.00000000E+00  0.00000000E+00
  0.00000000E+00  0.00000000E+00  0.00000000E+00
  0.00000000E+00  0.00000000E+00  0.00000000E+00
  0.00000000E+00  0.00000000E+00  0.00000000E+00
  0.00000000E+00  0.00000000E+00  0.00000000E+00
  0.00000000E+00  0.00000000E+00  0.00000000E+00
  0.00000000E+00  0.00000000E+00  0.00000000E+00
  0.00000000E+00  0.00000000E+00  0.00000000E+00
  0.00000000E+00  0.00000000E+00  0.00000000E+00
  0.00000000E+00  0.00000000E+00  0.00000000E+00
  0.00000000E+00  0.00000000E+00  0.00000000E+00
  0.00000000E+00  0.00000000E+00  0.00000000E+00
  0.00000000E+00  0.00000000E+00  0.00000000E+00
  0.00000000E+00  0.00000000E+00  0.00000000E+00
  0.00000000E+00  0.00000000E+00  0.00000000E+00
  0.00000000E+00  0.00000000E+00  0.00000000E+00
  0.00000000E+00  0.00000000E+00  0.00000000E+00
  0.00000000E+00  0.00000000E+00  0.00000000E+00
  0.00000000E+00  0.00000000E+00  0.00000000E+00
  0.00000000E+00  0.00000000E+00  0.00000000E+00
  0.00000000E+00  0.00000000E+00  0.00000000E+00
  0.00000000E+00  0.00000000E+00  0.00000000E+00
  0.00000000E+00  0.00000000E+00  0.00000000E+00
  0.00000000E+00  0.00000000E+00  0.00000000E+00
  0.00000000E+00  0.00000000E+00  0.00000000E+00
  0.00000000E+00  0.00000000E+00  0.00000000E+00
