generated by phonopy                    
   1.00000000000000     
     0.0000000000000000    3.2650748123425717    3.2650748123426685
     3.2650748123426099    0.0000000000000000    3.2650748123426685
     3.2650748123426099    3.2650748123425717    0.0000000000000000
   Ca   Sc   Ti   Ce   H 
     1     1     1     1    24
Direct
  0.2500000000000000  0.2500000000000000  0.2500000000000000
  0.7500000000000000  0.7500000000000000  0.7500000000000000
  0.0000000000000000  0.0000000000000000  0.0000000000000000
  0.5000000000000000  0.5000000000000000  0.5000000000000000
  0.1161313325132056  0.8822611672122136  0.6346244277895181
  0.8822611672122136  0.1161313325132056  0.3669830724850556
  0.6346244277895181  0.3669830724850556  0.1161313325132056
  0.3669830724850556  0.6346244277895181  0.8822611672122136
  0.6346244277895181  0.1161313325132056  0.8822611672122136
  0.3669830724850556  0.8822611672122136  0.1161313325132056
  0.1161313325132056  0.6346244277895181  0.3669830724850556
  0.8822611672122136  0.3669830724850556  0.6346244277895181
  0.8822611672122136  0.6346244277895181  0.1161313325132056
  0.1161313325132056  0.3669830724850556  0.8822611672122136
  0.3669830724850556  0.1161313325132056  0.6346244277895181
  0.6346244277895181  0.8822611672122136  0.3669830724850556
  0.1161313325132056  0.3669830724850556  0.6346244277895181
  0.3669830724850556  0.1161313325132056  0.8822611672122136
  0.6346244277895181  0.8822611672122136  0.1161313325132056
  0.8822611672122136  0.6346244277895181  0.3669830724850556
  0.6346244277895181  0.1161313325132056  0.3669830724850556
  0.8822611672122136  0.3669830724850556  0.1161313325132056
  0.1161313325132056  0.6346244277895181  0.8822611672122136
  0.3669830724850556  0.8822611672122136  0.6346244277895181
  0.3669830724850556  0.6346244277895181  0.1161313325132056
  0.1161313325132056  0.8822611672122136  0.3669830724850556
  0.8822611672122136  0.1161313325132056  0.6346244277895181
  0.6346244277895181  0.3669830724850556  0.8822611672122136
 
  0.00000000E+00  0.00000000E+00  0.00000000E+00
  0.00000000E+00  0.00000000E+00  0.00000000E+00
  0.00000000E+00  0.00000000E+00  0.00000000E+00
  0.00000000E+00  0.00000000E+00  0.00000000E+00
  0.00000000E+00  0.00000000E+00  0.00000000E+00
  0.00000000E+00  0.00000000E+00  0.00000000E+00
  0.00000000E+00  0.00000000E+00  0.00000000E+00
  0.00000000E+00  0.00000000E+00  0.00000000E+00
  0.00000000E+00  0.00000000E+00  0.00000000E+00
  0.00000000E+00  0.00000000E+00  0.00000000E+00
  0.00000000E+00  0.00000000E+00  0.00000000E+00
  0.00000000E+00  0.00000000E+00  0.00000000E+00
  0.00000000E+00  0.00000000E+00  0.00000000E+00
  0.00000000E+00  0.00000000E+00  0.00000000E+00
  0.00000000E+00  0.00000000E+00  0.00000000E+00
  0.00000000E+00  0.00000000E+00  0.00000000E+00
  0.00000000E+00  0.00000000E+00  0.00000000E+00
  0.00000000E+00  0.00000000E+00  0.00000000E+00
  0.00000000E+00  0.00000000E+00  0.00000000E+00
  0.00000000E+00  0.00000000E+00  0.00000000E+00
  0.00000000E+00  0.00000000E+00  0.00000000E+00
  0.00000000E+00  0.00000000E+00  0.00000000E+00
  0.00000000E+00  0.00000000E+00  0.00000000E+00
  0.00000000E+00  0.00000000E+00  0.00000000E+00
  0.00000000E+00  0.00000000E+00  0.00000000E+00
  0.00000000E+00  0.00000000E+00  0.00000000E+00
  0.00000000E+00  0.00000000E+00  0.00000000E+00
  0.00000000E+00  0.00000000E+00  0.00000000E+00
