generated by phonopy                    
   1.00000000000000     
     0.0000000000000000    3.3679841169341369    3.3679841169342697
     3.3679841169341915    0.0000000000000000    3.3679841169342697
     3.3679841169341915    3.3679841169341369    0.0000000000000000
   Ca   Sr   Y    Ce   H 
     1     1     1     1    24
Direct
  0.2500000000000000  0.2500000000000000  0.2500000000000000
  0.7500000000000000  0.7500000000000000  0.7500000000000000
  0.0000000000000000  0.0000000000000000  0.0000000000000000
  0.5000000000000000  0.5000000000000000  0.5000000000000000
  0.1293986409713170  0.8848676539558085  0.6199848593726216
  0.8848676539558085  0.1293986409713170  0.3657488457002387
  0.6199848593726216  0.3657488457002387  0.1293986409713170
  0.3657488457002387  0.6199848593726216  0.8848676539558085
  0.6199848593726216  0.1293986409713170  0.8848676539558085
  0.3657488457002387  0.8848676539558085  0.1293986409713170
  0.1293986409713170  0.6199848593726216  0.3657488457002387
  0.8848676539558085  0.3657488457002387  0.6199848593726216
  0.8848676539558085  0.6199848593726216  0.1293986409713170
  0.1293986409713170  0.3657488457002387  0.8848676539558085
  0.3657488457002387  0.1293986409713170  0.6199848593726216
  0.6199848593726216  0.8848676539558085  0.3657488457002387
  0.1293986409713170  0.3657488457002387  0.6199848593726216
  0.3657488457002387  0.1293986409713170  0.8848676539558085
  0.6199848593726216  0.8848676539558085  0.1293986409713170
  0.8848676539558085  0.6199848593726216  0.3657488457002387
  0.6199848593726216  0.1293986409713170  0.3657488457002387
  0.8848676539558085  0.3657488457002387  0.1293986409713170
  0.1293986409713170  0.6199848593726216  0.8848676539558085
  0.3657488457002387  0.8848676539558085  0.6199848593726216
  0.3657488457002387  0.6199848593726216  0.1293986409713170
  0.1293986409713170  0.8848676539558085  0.3657488457002387
  0.8848676539558085  0.1293986409713170  0.6199848593726216
  0.6199848593726216  0.3657488457002387  0.8848676539558085
 
  0.00000000E+00  0.00000000E+00  0.00000000E+00
  0.00000000E+00  0.00000000E+00  0.00000000E+00
  0.00000000E+00  0.00000000E+00  0.00000000E+00
  0.00000000E+00  0.00000000E+00  0.00000000E+00
  0.00000000E+00  0.00000000E+00  0.00000000E+00
  0.00000000E+00  0.00000000E+00  0.00000000E+00
  0.00000000E+00  0.00000000E+00  0.00000000E+00
  0.00000000E+00  0.00000000E+00  0.00000000E+00
  0.00000000E+00  0.00000000E+00  0.00000000E+00
  0.00000000E+00  0.00000000E+00  0.00000000E+00
  0.00000000E+00  0.00000000E+00  0.00000000E+00
  0.00000000E+00  0.00000000E+00  0.00000000E+00
  0.00000000E+00  0.00000000E+00  0.00000000E+00
  0.00000000E+00  0.00000000E+00  0.00000000E+00
  0.00000000E+00  0.00000000E+00  0.00000000E+00
  0.00000000E+00  0.00000000E+00  0.00000000E+00
  0.00000000E+00  0.00000000E+00  0.00000000E+00
  0.00000000E+00  0.00000000E+00  0.00000000E+00
  0.00000000E+00  0.00000000E+00  0.00000000E+00
  0.00000000E+00  0.00000000E+00  0.00000000E+00
  0.00000000E+00  0.00000000E+00  0.00000000E+00
  0.00000000E+00  0.00000000E+00  0.00000000E+00
  0.00000000E+00  0.00000000E+00  0.00000000E+00
  0.00000000E+00  0.00000000E+00  0.00000000E+00
  0.00000000E+00  0.00000000E+00  0.00000000E+00
  0.00000000E+00  0.00000000E+00  0.00000000E+00
  0.00000000E+00  0.00000000E+00  0.00000000E+00
  0.00000000E+00  0.00000000E+00  0.00000000E+00
