generated by phonopy                    
   1.00000000000000     
     0.0000000000000000    3.3731674159820462    3.3731674159821337
     3.3731674159820817    0.0000000000000000    3.3731674159821337
     3.3731674159820817    3.3731674159820462    0.0000000000000000
   Ca   Zr   Sc   Ce   H 
     1     1     1     1    24
Direct
  0.2500000000000000  0.2500000000000000  0.2500000000000000
  0.7500000000000000  0.7500000000000000  0.7500000000000000
  0.0000000000000000  0.0000000000000000  0.0000000000000000
  0.5000000000000000  0.5000000000000000  0.5000000000000000
  0.1248177023530346  0.8841436468124328  0.6311020427324081
  0.8841436468124328  0.1248177023530346  0.3599366081021245
  0.6311020427324081  0.3599366081021245  0.1248177023530346
  0.3599366081021245  0.6311020427324081  0.8841436468124328
  0.6311020427324081  0.1248177023530346  0.8841436468124328
  0.3599366081021245  0.8841436468124328  0.1248177023530346
  0.1248177023530346  0.6311020427324081  0.3599366081021245
  0.8841436468124328  0.3599366081021245  0.6311020427324081
  0.8841436468124328  0.6311020427324081  0.1248177023530346
  0.1248177023530346  0.3599366081021245  0.8841436468124328
  0.3599366081021245  0.1248177023530346  0.6311020427324081
  0.6311020427324081  0.8841436468124328  0.3599366081021245
  0.1248177023530346  0.3599366081021245  0.6311020427324081
  0.3599366081021245  0.1248177023530346  0.8841436468124328
  0.6311020427324081  0.8841436468124328  0.1248177023530346
  0.8841436468124328  0.6311020427324081  0.3599366081021245
  0.6311020427324081  0.1248177023530346  0.3599366081021245
  0.8841436468124328  0.3599366081021245  0.1248177023530346
  0.1248177023530346  0.6311020427324081  0.8841436468124328
  0.3599366081021245  0.8841436468124328  0.6311020427324081
  0.3599366081021245  0.6311020427324081  0.1248177023530346
  0.1248177023530346  0.8841436468124328  0.3599366081021245
  0.8841436468124328  0.1248177023530346  0.6311020427324081
  0.6311020427324081  0.3599366081021245  0.8841436468124328
 
  0.00000000E+00  0.00000000E+00  0.00000000E+00
  0.00000000E+00  0.00000000E+00  0.00000000E+00
  0.00000000E+00  0.00000000E+00  0.00000000E+00
  0.00000000E+00  0.00000000E+00  0.00000000E+00
  0.00000000E+00  0.00000000E+00  0.00000000E+00
  0.00000000E+00  0.00000000E+00  0.00000000E+00
  0.00000000E+00  0.00000000E+00  0.00000000E+00
  0.00000000E+00  0.00000000E+00  0.00000000E+00
  0.00000000E+00  0.00000000E+00  0.00000000E+00
  0.00000000E+00  0.00000000E+00  0.00000000E+00
  0.00000000E+00  0.00000000E+00  0.00000000E+00
  0.00000000E+00  0.00000000E+00  0.00000000E+00
  0.00000000E+00  0.00000000E+00  0.00000000E+00
  0.00000000E+00  0.00000000E+00  0.00000000E+00
  0.00000000E+00  0.00000000E+00  0.00000000E+00
  0.00000000E+00  0.00000000E+00  0.00000000E+00
  0.00000000E+00  0.00000000E+00  0.00000000E+00
  0.00000000E+00  0.00000000E+00  0.00000000E+00
  0.00000000E+00  0.00000000E+00  0.00000000E+00
  0.00000000E+00  0.00000000E+00  0.00000000E+00
  0.00000000E+00  0.00000000E+00  0.00000000E+00
  0.00000000E+00  0.00000000E+00  0.00000000E+00
  0.00000000E+00  0.00000000E+00  0.00000000E+00
  0.00000000E+00  0.00000000E+00  0.00000000E+00
  0.00000000E+00  0.00000000E+00  0.00000000E+00
  0.00000000E+00  0.00000000E+00  0.00000000E+00
  0.00000000E+00  0.00000000E+00  0.00000000E+00
  0.00000000E+00  0.00000000E+00  0.00000000E+00
