generated by phonopy                    
   1.00000000000000     
     0.0000000000000000    3.3592051891404981    3.3592051891406332
     3.3592051891405514    0.0000000000000000    3.3592051891406332
     3.3592051891405514    3.3592051891404981    0.0000000000000000
   Ca   Zr   Sr   Sc   H 
     1     1     1     1    24
Direct
  0.2500000000000000  0.2500000000000000  0.2500000000000000
  0.7500000000000000  0.7500000000000000  0.7500000000000000
  0.0000000000000000  0.0000000000000000  0.0000000000000000
  0.5000000000000000  0.5000000000000000  0.5000000000000000
  0.1377169194011074  0.8711330127911125  0.6153619962259782
  0.8711330127911125  0.1377169194011074  0.3757880715818089
  0.6153619962259782  0.3757880715818089  0.1377169194011074
  0.3757880715818089  0.6153619962259782  0.8711330127911125
  0.6153619962259782  0.1377169194011074  0.8711330127911125
  0.3757880715818089  0.8711330127911125  0.1377169194011074
  0.1377169194011074  0.6153619962259782  0.3757880715818089
  0.8711330127911125  0.3757880715818089  0.6153619962259782
  0.8711330127911125  0.6153619962259782  0.1377169194011074
  0.1377169194011074  0.3757880715818089  0.8711330127911125
  0.3757880715818089  0.1377169194011074  0.6153619962259782
  0.6153619962259782  0.8711330127911125  0.3757880715818089
  0.1377169194011074  0.3757880715818089  0.6153619962259782
  0.3757880715818089  0.1377169194011074  0.8711330127911125
  0.6153619962259782  0.8711330127911125  0.1377169194011074
  0.8711330127911125  0.6153619962259782  0.3757880715818089
  0.6153619962259782  0.1377169194011074  0.3757880715818089
  0.8711330127911125  0.3757880715818089  0.1377169194011074
  0.1377169194011074  0.6153619962259782  0.8711330127911125
  0.3757880715818089  0.8711330127911125  0.6153619962259782
  0.3757880715818089  0.6153619962259782  0.1377169194011074
  0.1377169194011074  0.8711330127911125  0.3757880715818089
  0.8711330127911125  0.1377169194011074  0.6153619962259782
  0.6153619962259782  0.3757880715818089  0.8711330127911125
 
  0.00000000E+00  0.00000000E+00  0.00000000E+00
  0.00000000E+00  0.00000000E+00  0.00000000E+00
  0.00000000E+00  0.00000000E+00  0.00000000E+00
  0.00000000E+00  0.00000000E+00  0.00000000E+00
  0.00000000E+00  0.00000000E+00  0.00000000E+00
  0.00000000E+00  0.00000000E+00  0.00000000E+00
  0.00000000E+00  0.00000000E+00  0.00000000E+00
  0.00000000E+00  0.00000000E+00  0.00000000E+00
  0.00000000E+00  0.00000000E+00  0.00000000E+00
  0.00000000E+00  0.00000000E+00  0.00000000E+00
  0.00000000E+00  0.00000000E+00  0.00000000E+00
  0.00000000E+00  0.00000000E+00  0.00000000E+00
  0.00000000E+00  0.00000000E+00  0.00000000E+00
  0.00000000E+00  0.00000000E+00  0.00000000E+00
  0.00000000E+00  0.00000000E+00  0.00000000E+00
  0.00000000E+00  0.00000000E+00  0.00000000E+00
  0.00000000E+00  0.00000000E+00  0.00000000E+00
  0.00000000E+00  0.00000000E+00  0.00000000E+00
  0.00000000E+00  0.00000000E+00  0.00000000E+00
  0.00000000E+00  0.00000000E+00  0.00000000E+00
  0.00000000E+00  0.00000000E+00  0.00000000E+00
  0.00000000E+00  0.00000000E+00  0.00000000E+00
  0.00000000E+00  0.00000000E+00  0.00000000E+00
  0.00000000E+00  0.00000000E+00  0.00000000E+00
  0.00000000E+00  0.00000000E+00  0.00000000E+00
  0.00000000E+00  0.00000000E+00  0.00000000E+00
  0.00000000E+00  0.00000000E+00  0.00000000E+00
  0.00000000E+00  0.00000000E+00  0.00000000E+00
