generated by phonopy                    
   1.00000000000000     
     0.0000000000000000    3.3553017272630909    3.3553017272631460
     3.3553017272631136    0.0000000000000000    3.3553017272631460
     3.3553017272631136    3.3553017272630909    0.0000000000000000
   Na   Hf   Ca   Sc   H 
     1     1     1     1    24
Direct
  0.2500000000000000  0.2500000000000000  0.2500000000000000
  0.7500000000000000  0.7500000000000000  0.7500000000000000
  0.0000000000000000  0.0000000000000000  0.0000000000000000
  0.5000000000000000  0.5000000000000000  0.5000000000000000
  0.1380736107843248  0.8853395920683553  0.6146355135339476
  0.8853395920683553  0.1380736107843248  0.3619512836133723
  0.6146355135339476  0.3619512836133723  0.1380736107843248
  0.3619512836133723  0.6146355135339476  0.8853395920683553
  0.6146355135339476  0.1380736107843248  0.8853395920683553
  0.3619512836133723  0.8853395920683553  0.1380736107843248
  0.1380736107843248  0.6146355135339476  0.3619512836133723
  0.8853395920683553  0.3619512836133723  0.6146355135339476
  0.8853395920683553  0.6146355135339476  0.1380736107843248
  0.1380736107843248  0.3619512836133723  0.8853395920683553
  0.3619512836133723  0.1380736107843248  0.6146355135339476
  0.6146355135339476  0.8853395920683553  0.3619512836133723
  0.1380736107843248  0.3619512836133723  0.6146355135339476
  0.3619512836133723  0.1380736107843248  0.8853395920683553
  0.6146355135339476  0.8853395920683553  0.1380736107843248
  0.8853395920683553  0.6146355135339476  0.3619512836133723
  0.6146355135339476  0.1380736107843248  0.3619512836133723
  0.8853395920683553  0.3619512836133723  0.1380736107843248
  0.1380736107843248  0.6146355135339476  0.8853395920683553
  0.3619512836133723  0.8853395920683553  0.6146355135339476
  0.3619512836133723  0.6146355135339476  0.1380736107843248
  0.1380736107843248  0.8853395920683553  0.3619512836133723
  0.8853395920683553  0.1380736107843248  0.6146355135339476
  0.6146355135339476  0.3619512836133723  0.8853395920683553
 
  0.00000000E+00  0.00000000E+00  0.00000000E+00
  0.00000000E+00  0.00000000E+00  0.00000000E+00
  0.00000000E+00  0.00000000E+00  0.00000000E+00
  0.00000000E+00  0.00000000E+00  0.00000000E+00
  0.00000000E+00  0.00000000E+00  0.00000000E+00
  0.00000000E+00  0.00000000E+00  0.00000000E+00
  0.00000000E+00  0.00000000E+00  0.00000000E+00
  0.00000000E+00  0.00000000E+00  0.00000000E+00
  0.00000000E+00  0.00000000E+00  0.00000000E+00
  0.00000000E+00  0.00000000E+00  0.00000000E+00
  0.00000000E+00  0.00000000E+00  0.00000000E+00
  0.00000000E+00  0.00000000E+00  0.00000000E+00
  0.00000000E+00  0.00000000E+00  0.00000000E+00
  0.00000000E+00  0.00000000E+00  0.00000000E+00
  0.00000000E+00  0.00000000E+00  0.00000000E+00
  0.00000000E+00  0.00000000E+00  0.00000000E+00
  0.00000000E+00  0.00000000E+00  0.00000000E+00
  0.00000000E+00  0.00000000E+00  0.00000000E+00
  0.00000000E+00  0.00000000E+00  0.00000000E+00
  0.00000000E+00  0.00000000E+00  0.00000000E+00
  0.00000000E+00  0.00000000E+00  0.00000000E+00
  0.00000000E+00  0.00000000E+00  0.00000000E+00
  0.00000000E+00  0.00000000E+00  0.00000000E+00
  0.00000000E+00  0.00000000E+00  0.00000000E+00
  0.00000000E+00  0.00000000E+00  0.00000000E+00
  0.00000000E+00  0.00000000E+00  0.00000000E+00
  0.00000000E+00  0.00000000E+00  0.00000000E+00
  0.00000000E+00  0.00000000E+00  0.00000000E+00
