POSCAR                                  
   1.00000000000000     
     0.0000000000000000    0.2073064695140305    6.4632845597133235
     0.0000000000000000    6.5011369747507608    0.2071501180480344
    -3.1892159865501464    0.0000000000000000    0.0000000000000000
   Zr   K    Na   Sc   H 
     2     2     2     2    48
Direct
  0.2612026586165896  0.2617127422286813  0.5000000000000000
  0.5065715652813125  0.4974795608233364  0.0000000000000000
  0.7798376191298573  0.2200085853230433  0.5000000000000000
  0.9762655574542620  0.0227960803620419  0.0000000000000000
  0.0057711892869676  0.5209855027360817  0.0000000000000000
  0.2447259915638256  0.7543156401916846  0.5000000000000000
  0.4809297350417481  0.9850256574595520  0.0000000000000000
  0.7488105196007311  0.7323344841844062  0.5000000000000000
  0.0461954063710124  0.1393905408040794  0.5000000000000000
  0.2436118232130156  0.3917898167615590  0.0000000000000000
  0.5164065925935191  0.1152966867982030  0.5000000000000000
  0.7690442631854921  0.3643282263418612  0.0000000000000000
  0.0148267434313354  0.6393308596718228  0.5000000000000000
  0.2357187941330352  0.8796836178845311  0.0000000000000000
  0.4884256950455068  0.6301469656258760  0.5000000000000000
  0.7400930072759593  0.8585966700979881  0.0000000000000000
  0.0143598011132937  0.2867305613785831  0.7537695204324635
  0.2455717504039825  0.5212997637362449  0.2464118979835206
  0.5197930161761306  0.2419212139266804  0.7454832170781032
  0.7638455259880317  0.4882726334441330  0.2521288055328768
  0.9953778770901778  0.7546922183503142  0.7529993516505940
  0.2389878407666615  0.9981567125400517  0.2462651396878286
  0.4926399010168083  0.7476912619186180  0.7435949871498693
  0.7255268394404197  0.9705219822279574  0.2534862861665914
  0.1049631055287321  0.9763849775341669  0.5000000000000000
  0.3879993020544319  0.2425608627677747  0.0000000000000000
  0.6131652560011531  0.9842123373353218  0.5000000000000000
  0.9017398663451317  0.2995489853903877  0.0000000000000000
  0.1228047583625056  0.5295632794331624  0.5000000000000000
  0.3623418713410160  0.7566076892614575  0.0000000000000000
  0.6420183680599152  0.4823109475991103  0.5000000000000000
  0.8769746960228488  0.7588179011731597  0.0000000000000000
  0.2389878407666615  0.9981567125400517  0.7537348603121714
  0.5197930161761306  0.2419212139266804  0.2545167829218968
  0.7255268394404197  0.9705219822279574  0.7465137138334086
  0.0143598011132937  0.2867305613785831  0.2462304795675365
  0.2455717504039825  0.5212997637362449  0.7535881020164794
  0.4926399010168083  0.7476912619186180  0.2564050128501307
  0.7638455259880317  0.4882726334441330  0.7478711944671232
  0.9953778770901778  0.7546922183503142  0.2470006483494060
  0.1349145986983018  0.2717891469059879  0.0000000000000000
  0.3757339929689323  0.5214343758641604  0.5000000000000000
  0.6387305045770759  0.2293404571516646  0.0000000000000000
  0.8816516727867096  0.4893220180690108  0.5000000000000000
  0.1162741891709871  0.7578283395821401  0.0000000000000000
  0.3595914627825536  0.9831409673399492  0.5000000000000000
  0.6217598479639577  0.7487049484614161  0.0000000000000000
  0.8536444816174367  0.9482513640300567  0.5000000000000000
  0.2333689574777935  0.1250725473681484  0.0000000000000000
  0.5242613358976413  0.3613760256594745  0.5000000000000000
  0.7050400244111685  0.0986491002367913  0.0000000000000000
  0.0036260760210070  0.3910781954830753  0.5000000000000000
  0.2360574501269568  0.6393590981562554  0.0000000000000000
  0.4786952514349494  0.8722611257477908  0.5000000000000000
  0.7590679431098621  0.6145790760615810  0.0000000000000000
  0.0149327220237438  0.8860119010480076  0.5000000000000000
 
  0.00000000E+00  0.00000000E+00  0.00000000E+00
  0.00000000E+00  0.00000000E+00  0.00000000E+00
  0.00000000E+00  0.00000000E+00  0.00000000E+00
  0.00000000E+00  0.00000000E+00  0.00000000E+00
  0.00000000E+00  0.00000000E+00  0.00000000E+00
  0.00000000E+00  0.00000000E+00  0.00000000E+00
  0.00000000E+00  0.00000000E+00  0.00000000E+00
  0.00000000E+00  0.00000000E+00  0.00000000E+00
  0.00000000E+00  0.00000000E+00  0.00000000E+00
  0.00000000E+00  0.00000000E+00  0.00000000E+00
  0.00000000E+00  0.00000000E+00  0.00000000E+00
  0.00000000E+00  0.00000000E+00  0.00000000E+00
  0.00000000E+00  0.00000000E+00  0.00000000E+00
  0.00000000E+00  0.00000000E+00  0.00000000E+00
  0.00000000E+00  0.00000000E+00  0.00000000E+00
  0.00000000E+00  0.00000000E+00  0.00000000E+00
  0.00000000E+00  0.00000000E+00  0.00000000E+00
  0.00000000E+00  0.00000000E+00  0.00000000E+00
  0.00000000E+00  0.00000000E+00  0.00000000E+00
  0.00000000E+00  0.00000000E+00  0.00000000E+00
  0.00000000E+00  0.00000000E+00  0.00000000E+00
  0.00000000E+00  0.00000000E+00  0.00000000E+00
  0.00000000E+00  0.00000000E+00  0.00000000E+00
  0.00000000E+00  0.00000000E+00  0.00000000E+00
  0.00000000E+00  0.00000000E+00  0.00000000E+00
  0.00000000E+00  0.00000000E+00  0.00000000E+00
  0.00000000E+00  0.00000000E+00  0.00000000E+00
  0.00000000E+00  0.00000000E+00  0.00000000E+00
  0.00000000E+00  0.00000000E+00  0.00000000E+00
  0.00000000E+00  0.00000000E+00  0.00000000E+00
  0.00000000E+00  0.00000000E+00  0.00000000E+00
  0.00000000E+00  0.00000000E+00  0.00000000E+00
  0.00000000E+00  0.00000000E+00  0.00000000E+00
  0.00000000E+00  0.00000000E+00  0.00000000E+00
  0.00000000E+00  0.00000000E+00  0.00000000E+00
  0.00000000E+00  0.00000000E+00  0.00000000E+00
  0.00000000E+00  0.00000000E+00  0.00000000E+00
  0.00000000E+00  0.00000000E+00  0.00000000E+00
  0.00000000E+00  0.00000000E+00  0.00000000E+00
  0.00000000E+00  0.00000000E+00  0.00000000E+00
  0.00000000E+00  0.00000000E+00  0.00000000E+00
  0.00000000E+00  0.00000000E+00  0.00000000E+00
  0.00000000E+00  0.00000000E+00  0.00000000E+00
  0.00000000E+00  0.00000000E+00  0.00000000E+00
  0.00000000E+00  0.00000000E+00  0.00000000E+00
  0.00000000E+00  0.00000000E+00  0.00000000E+00
  0.00000000E+00  0.00000000E+00  0.00000000E+00
  0.00000000E+00  0.00000000E+00  0.00000000E+00
  0.00000000E+00  0.00000000E+00  0.00000000E+00
  0.00000000E+00  0.00000000E+00  0.00000000E+00
  0.00000000E+00  0.00000000E+00  0.00000000E+00
  0.00000000E+00  0.00000000E+00  0.00000000E+00
  0.00000000E+00  0.00000000E+00  0.00000000E+00
  0.00000000E+00  0.00000000E+00  0.00000000E+00
  0.00000000E+00  0.00000000E+00  0.00000000E+00
  0.00000000E+00  0.00000000E+00  0.00000000E+00
