POSCAR                                  
   1.00000000000000     
     9.7435674849841867   -0.0196047524218158    0.0218066042980574
    -0.0195406888483963    9.7462676843444065   -0.0020135969450856
     0.0144939492092499   -0.0013083797559253    6.5153588678829157
   Y    Mg   Sc   Zr   H 
     9     9     9     9   216
Direct
  0.1666300363136415  0.1691508295335495  0.2437407135917766
  0.1615880262375597  0.8328595463349941  0.2475258115593633
  0.3337317610428769  0.6639730213114277  0.5008464873488023
  0.8409784957720632  0.1642591631071255  0.7566376637267140
  0.8298160017426568  0.5051221119424554  0.2489441746729497
  0.4984282636468578  0.8261685661715674  0.7504749731612392
  0.3245063384355902  0.9989145312372756  0.9975793135697302
  0.6688195716516674  0.9974597173083382  0.4975966816485453
  0.6723717783776806  0.9973077687096392  0.0024397175186195
  0.1661589421278364  0.1706524643185858  0.7487407787488820
  0.1672339332777213  0.8295626317841069  0.7528195525258283
  0.4948964872561987  0.5014411580194107  0.7527235772730236
  0.3309016517674195  0.6662877969796881  0.9975093573013680
  0.6658146402353822  0.3382126344969336  0.9977871598200139
  0.6670431761134097  0.6647168882954304  0.0008100405808733
  0.0022821126314341  0.3410006132596379  0.0003202101364934
  0.8340759424754438  0.8298096589455639  0.2492138857283095
  0.0020588074352972  0.9928764953411147  0.9965406870794169
  0.1677750512426286  0.5005411552512058  0.2477658464063666
  0.3308676712447536  0.3392043753527858  0.5015129780900907
  0.1684005997506759  0.4998532909332596  0.7530388930785534
  0.4993294378381208  0.5036442777344448  0.2381430809280047
  0.4981631937824886  0.8275840829963244  0.2419490976472787
  0.3303740866295044  0.9991840660426732  0.5043057070260275
  0.0044237145983317  0.3315473370632276  0.5031085264076935
  0.8357592267675855  0.8313974623266489  0.7572079648488668
  0.9977622958988519  0.6635269800059405  0.0027734233147143
  0.4983687849547067  0.1704970030364166  0.2500151246659570
  0.4980486229284224  0.1705928671084465  0.7479895078548182
  0.3342022460191316  0.3396675006522401  0.9966044149003679
  0.8402503118092071  0.1682950396927581  0.2432782927016390
  0.6677300121195984  0.3376240691990660  0.5009039412949505
  0.6635717476187466  0.6645007841713593  0.5011835464428032
  0.8345904504932378  0.4990476279087304  0.7597146066610136
  0.0028310745145035  0.6675658964281510  0.5053507718122034
  0.0029697196053533  0.0007288631355422  0.5059596308610494
  0.1505052727838816  0.0856790541471213  0.9744081405085367
  0.1701088081318858  0.0872746656029832  0.5156175458170864
  0.1619655097005648  0.4207637663358383  0.9965936968092066
  0.4999401941813844  0.0813094470737781  0.0009680404353389
  0.3330684134658313  0.2550098054510173  0.2606091548536114
  0.1643501259790128  0.4160266189964403  0.5043872942891596
  0.4937918740286946  0.0810000233462844  0.4973058955494949
  0.3255913255493965  0.2524106204750041  0.7396794829925923
  0.1642781814843914  0.7451261048954692  0.9889763553040893
  0.5069291196408585  0.4197249277517230  0.9930667625127683
  0.3353260629462298  0.5826352112157736  0.2341429501912771
  0.1681214645624465  0.7524348934998386  0.5140974555654196
  0.8496476610382118  0.0768559242448532  0.0059646150419255
  0.6667592580936770  0.2546451983612883  0.2400985770221169
  0.4982813547216480  0.4186242851157047  0.4965153960414597
  0.3296422638078269  0.5818464603423976  0.7610960018891362
  0.8377090996786407  0.0834783328598974  0.4941272752737902
  0.6674210831146610  0.2539696726271359  0.7611817750914511
  0.4935888272888320  0.7442213475487804  0.0023437051687978
  0.3378527253011896  0.9157139900173235  0.2550537414924392
  0.8286083943098532  0.4141429600434918  0.0036770787587628
  0.6580468242945585  0.5861220731966128  0.2348764753058106
  0.4994193719597462  0.7515192131800816  0.4850078716674702
  0.3197064472296560  0.9150399219510987  0.7458585920688705
  0.0020001672512180  0.2555255213257013  0.2277832777882907
  0.8410890052552276  0.4158374577148081  0.5025660933527831
  0.6655269975994500  0.5827618089040740  0.7601241194647770
  0.0117548517620989  0.2523801977665414  0.7660028978166835
  0.8376745643299017  0.7516582782992600  0.0023556284515323
  0.6698292228039620  0.9083084456445860  0.2483899300256027
  0.0042025616515460  0.5821925114816224  0.2490285934613539
  0.8346363943094630  0.7526452230655210  0.5079342809715044
  0.6708279326982947  0.9109994524252443  0.7513674421135264
  0.0061030211806923  0.5837483385913274  0.7585684242480539
  0.9884473853581213  0.9138831083889514  0.2345632643667130
  0.0100544527500688  0.9099647980172136  0.7654928119537630
  0.0844228860612688  0.1827650620182126  0.9909224831286565
  0.0890713022089571  0.1698308321406898  0.5079707878660287
  0.0863942927049379  0.4994687862769780  0.9997667244756769
  0.4151436649428533  0.1684533761070313  0.9949082113004835
  0.2508795257857983  0.3410555541956484  0.2545331973553857
  0.0841612211832299  0.4944091381902638  0.5030100704070293
  0.4124128197998331  0.1701696388008358  0.5021260530098317
  0.2473019896421249  0.3299231907303408  0.7452187170436275
  0.0807979413502125  0.8268291875872507  0.9877906689220879
  0.4144789419403878  0.5100591789891453  0.9870233560465564
  0.2504344198608095  0.6633469150084395  0.2341958733067102
  0.0856494665627920  0.8362230511290392  0.5185763272008188
  0.7497847210715918  0.1845459875359623  0.0029081119727579
  0.5811645570397133  0.3385618798586592  0.2388483194511934
  0.4182019172610794  0.4960926609413931  0.5049521078601202
  0.2455604133382323  0.6669677057862700  0.7631541406703022
  0.7527529851648609  0.1701985233376178  0.4984218770958009
  0.5822677378083512  0.3438174427231502  0.7578227998738498
  0.4119326098534515  0.8229558465780187  0.0022822353578817
  0.2516858238511688  0.9996054715547729  0.2623498626308347
  0.7419138138687060  0.4992091163852592  0.9979870150261974
  0.5795208432882006  0.6676114112840068  0.2238123919785409
  0.4148726301586194  0.8362673307681376  0.4914369771159173
  0.2439173748340053  0.0020199152083364  0.7450568082709168
  0.9198064412665303  0.3381214950939651  0.2418777373125209
  0.7503473072217801  0.5012889008053989  0.5106975248797596
  0.5838566318880680  0.6560016204550152  0.7742447644024750
  0.9247136958259929  0.3348509424770256  0.7629669654442353
  0.7511948660046528  0.8201624442967059  0.0159815184059937
  0.5802638376106941  0.9928410627288002  0.2492688561938721
  0.9141535828998215  0.6747246111346570  0.2453786332637691
  0.7519897855365230  0.8276191960979205  0.4823161146142851
  0.5826406766425407  0.9984467029791944  0.7511612410930013
  0.9174093155994854  0.6704812496035473  0.7621967084230263
  0.9187971259041134  0.9973924222123856  0.2491782567656742
  0.9223075074842413  0.9906837467551313  0.7610964974570535
  0.1520120242068472  0.9999562647006925  0.1184777637560117
  0.1677292330126150  0.0051343409900895  0.6308738691077522
  0.1618276520678279  0.3414560324839400  0.1220201655110031
  0.4964508021203073  0.9974141521339703  0.1262556085981572
  0.3329085165177972  0.1703945078355105  0.3823128550936588
  0.1661741266408328  0.3344056546907410  0.6272373108143370
  0.4948503738599115  0.9985236910243103  0.6214064834926560
  0.3269661337590080  0.1698388329191118  0.8667397189585557
  0.1661612733739375  0.6616561840987174  0.1199707364075451
  0.5074247056256525  0.3403870937839315  0.1203002393340995
  0.3354459569511121  0.4963439449424598  0.3693035164418390
  0.1661814539511468  0.6664273836629135  0.6350126241178558
  0.8468852317033964  0.9859141338442043  0.1256768315602557
  0.6687939998239614  0.1717270516107448  0.3723965597504204
  0.4966064654669466  0.3453545416056087  0.6241609450919938
  0.3323147543219207  0.5062319298947244  0.8749136764820022
  0.8373967851066766  0.9903294479543092  0.6292051904988227
  0.6660022339559859  0.1769315085313607  0.8784878133181877
  0.5011518877274455  0.6634818434760916  0.1158925857692097
  0.3339070081769364  0.8353180031130805  0.3729402174550316
  0.8321435849738279  0.3367425995804112  0.1221536108846522
  0.6546072662738638  0.4998571116210471  0.3692616156161179
  0.5015805180879624  0.6509974138515986  0.6278166385408923
  0.3263808751565236  0.8266992505371462  0.8744507999559730
  0.0022281651318892  0.1683234564071796  0.3748871709473249
  0.8393846620420433  0.3326170043530894  0.6280941482251450
  0.6548191171132558  0.5036033344060726  0.8779145819487368
  0.0098922142531279  0.1560456395980978  0.8762138542582818
  0.8285354219919014  0.6765357351989678  0.1251502433166394
  0.6719958250736795  0.8274935099653007  0.3666474488853737
  0.0042005072123388  0.4954265875481738  0.3776637987393130
  0.8316168445110321  0.6724988176932172  0.6334760093712433
  0.6726275388805618  0.8201102269476266  0.8784032504686365
  0.0091946845503230  0.4992044350802658  0.8775047265735623
  0.9868910312663886  0.8348127786612309  0.3738428871379114
  0.9969875387902079  0.8335326748445411  0.8782114089308450
  0.0780520739346855  0.0005490443057568  0.2472747085113554
  0.0849750275099197  0.9868242403545153  0.7523566025771089
  0.0839510169927848  0.3391259729069631  0.2435010555910608
  0.4164985861971857  0.9943105026017207  0.2534847812924284
  0.2506777995943779  0.1682826380424274  0.5092077218989104
  0.0867872988411875  0.3334700667508628  0.7565710471680234
  0.4131607695334623  0.0004661498587950  0.7448050647958553
  0.2462168372864184  0.1743559445027358  0.9791020941409485
  0.0832114780479714  0.6610367722987078  0.2382530180933458
  0.4173234461952475  0.3430457817977413  0.2522684394439452
  0.2476319558073499  0.4958873957097509  0.4998943003302330
  0.0832668751306258  0.6727528887610390  0.7654620469607494
  0.7571528964453762  0.9897871417330109  0.2494816555828336
  0.5841912469242274  0.1690436109952884  0.4972412151647632
  0.4168039100174070  0.3432001306363901  0.7442376959619068
  0.2483855143266211  0.5097745897961588  0.9988839934246201
  0.7546496891077297  0.9930218539875213  0.7502496922977286
  0.5861775510497012  0.1733599722356729  0.0009044297048248
  0.4143242977974069  0.6639009638744398  0.2326629875404933
  0.2490466724718843  0.8363813397898952  0.5057290013921261
  0.7460587601381334  0.3333338806315709  0.2339234912801089
  0.5792007217607988  0.4989684998653487  0.5163419948754395
  0.4138461552006163  0.6545286293827530  0.7686770004345718
  0.2463914056104315  0.8201821570515904  0.9901550311146394
  0.9198617430833238  0.1724202610419212  0.4985025059601540
  0.7487563349697481  0.3335377037685845  0.7682337563857473
  0.5792900505281011  0.5075926986013783  0.9836294160546970
  0.9311009544918747  0.1790106428647178  0.9988620268112030
  0.7470550840395020  0.6780989776818416  0.2399957162518405
  0.5818431896217007  0.8313563765714491  0.4854737107372600
  0.9199548569183307  0.4954242028814946  0.5042676572268903
  0.7510502292183432  0.6673423328904988  0.7659660838948810
  0.5843449912822649  0.8201626424214439  0.0064771487010162
  0.9227672539556906  0.4961588735288274  0.0034236821045823
  0.9131256900273996  0.8321033859454232  0.5102879061454857
  0.9168388578060771  0.8273114232339012  0.0001868812158179
  0.0032182945830641  0.1478491791068990  0.1133341118383413
  0.0111793511405267  0.1706711619504730  0.6274578911148225
  0.0050589375697072  0.4963936112593572  0.1260219315040843
  0.3366294771346006  0.1712158678238325  0.1217261031790215
  0.1652127344763912  0.3399887290226005  0.3749624672764611
  0.0069769622818612  0.4955207606983407  0.6295934916516615
  0.3274152669610970  0.1700128048533500  0.6232357908652943
  0.1630243414624601  0.3369695795276328  0.8710119614111349
  0.9909831759504044  0.8357198680151612  0.1219553617836127
  0.3316517681828799  0.5063431408392347  0.1215676692069323
  0.1658793145448101  0.6608200600215852  0.3703971186522210
  0.9986328658037280  0.8320445516681048  0.6366860821412885
  0.6643590762219418  0.1791269336369865  0.1219294577568135
  0.4974346930974889  0.3433841919670897  0.3738305360448351
  0.3372541509803000  0.4966989683237628  0.6287009646772432
  0.1648756450405244  0.6638055587609770  0.8784878036785599
  0.6706615871610495  0.1702812619926064  0.6250472381182490
  0.5061956298859585  0.3412257815550745  0.8732568475934954
  0.3339177942185927  0.8265068574950405  0.1237528076192476
  0.1689232272509500  0.0011831208550603  0.3786355298060187
  0.6602322337746855  0.5008416734456276  0.1173382763791437
  0.5004234486967576  0.6622775468585829  0.3649694228389819
  0.3260857234848871  0.8356562836235568  0.6257460745847965
  0.1576921530713449  0.0044819541829924  0.8683850276046385
  0.8399723111036081  0.3361018355243175  0.3748273975669960
  0.6520607842500112  0.5016628077828358  0.6340116381589525
  0.5047308481678172  0.6587310711795595  0.8792185435290918
  0.8356692668603642  0.3322388024304388  0.8832194528301613
  0.6728576403305766  0.8209739999376353  0.1247212141858896
  0.4945478503223555  0.9969820407397236  0.3735299546962239
  0.8339153481025576  0.6783082609087714  0.3768763431030280
  0.6760943268514623  0.8279276758401224  0.6285636781150217
  0.4982358683406787  0.9996344472749854  0.8769014476748609
  0.8286545978409592  0.6724915786241539  0.8802434363744496
  0.8398562301760322  0.9861646696812087  0.3709945420010072
  0.8483323785850700  0.9906463582779139  0.8798545000492979
  0.0011778412594978  0.0774920052218562  0.2270752765481134
  0.0162284140764584  0.0808157171684201  0.7708882513364088
  0.0018756361890979  0.4181925844285530  0.2512317542361444
  0.3348467470277754  0.0825085891340578  0.2603210312934863
  0.1686454546751293  0.2525088846552492  0.5096492354764592
  0.0075828663034727  0.4171929764127285  0.7557979922790921
  0.3221293880472516  0.0866866014060079  0.7427185111907662
  0.1520063215492513  0.2546974659052879  0.9856053717241338
  0.9918450918026593  0.7503702172543356  0.2427049800268790
  0.3362757022079350  0.4198686296515604  0.2511875525379423
  0.1650843497433314  0.5784372124282484  0.5056751191252076
  0.0054512392054562  0.7505358454341930  0.7629562850330416
  0.6698472572349843  0.0853759423194944  0.2479765138667744
  0.4934517144931689  0.2551783567440467  0.5002224586369408
  0.3324597751992968  0.4189906375302570  0.7475263650258839
  0.1709314583827748  0.5846745285381658  0.9958754221741657
  0.6677937727004775  0.0844505381903531  0.7521231709299485
  0.5080778671261399  0.2540527205531120  0.9962982637759978
  0.3347876394445635  0.7475856768336584  0.2378075252451879
  0.1687888605224330  0.9160968344391662  0.5211544849459386
  0.6591588496392475  0.4171169321664934  0.2329064178209137
  0.4997787521374448  0.5758725826490902  0.4875312649493466
  0.3227252139169110  0.7468238642816232  0.7604638260928454
  0.1541241935218878  0.9118904790729658  0.9779549074143432
  0.8406095906215825  0.2517298446976994  0.5012101315420523
  0.6586012814965372  0.4194558591072948  0.7628794063332691
  0.4953276302786662  0.5830569589977301  0.9989537866058953
  0.8514386845459612  0.2543895057396313  0.9993440451476658
  0.6591074240708963  0.7476884795930729  0.2441539468496075
  0.4951019953087723  0.9168137186510066  0.4907424000207357
  0.8353266995561981  0.5842701811500604  0.5098525748477059
  0.6723009816116416  0.7453434663779603  0.7634274712543672
  0.4976120282073992  0.9151567637342382  0.0047642754570631
  0.8266267262826119  0.5905830230465199  0.0001631786926666
  0.8381427980046112  0.9113569289810570  0.4881438969750889
  0.8438717060924787  0.9107601091104769  0.0161416023260017
 
  0.00000000E+00  0.00000000E+00  0.00000000E+00
  0.00000000E+00  0.00000000E+00  0.00000000E+00
  0.00000000E+00  0.00000000E+00  0.00000000E+00
  0.00000000E+00  0.00000000E+00  0.00000000E+00
  0.00000000E+00  0.00000000E+00  0.00000000E+00
  0.00000000E+00  0.00000000E+00  0.00000000E+00
  0.00000000E+00  0.00000000E+00  0.00000000E+00
  0.00000000E+00  0.00000000E+00  0.00000000E+00
  0.00000000E+00  0.00000000E+00  0.00000000E+00
  0.00000000E+00  0.00000000E+00  0.00000000E+00
  0.00000000E+00  0.00000000E+00  0.00000000E+00
  0.00000000E+00  0.00000000E+00  0.00000000E+00
  0.00000000E+00  0.00000000E+00  0.00000000E+00
  0.00000000E+00  0.00000000E+00  0.00000000E+00
  0.00000000E+00  0.00000000E+00  0.00000000E+00
  0.00000000E+00  0.00000000E+00  0.00000000E+00
  0.00000000E+00  0.00000000E+00  0.00000000E+00
  0.00000000E+00  0.00000000E+00  0.00000000E+00
  0.00000000E+00  0.00000000E+00  0.00000000E+00
  0.00000000E+00  0.00000000E+00  0.00000000E+00
  0.00000000E+00  0.00000000E+00  0.00000000E+00
  0.00000000E+00  0.00000000E+00  0.00000000E+00
  0.00000000E+00  0.00000000E+00  0.00000000E+00
  0.00000000E+00  0.00000000E+00  0.00000000E+00
  0.00000000E+00  0.00000000E+00  0.00000000E+00
  0.00000000E+00  0.00000000E+00  0.00000000E+00
  0.00000000E+00  0.00000000E+00  0.00000000E+00
  0.00000000E+00  0.00000000E+00  0.00000000E+00
  0.00000000E+00  0.00000000E+00  0.00000000E+00
  0.00000000E+00  0.00000000E+00  0.00000000E+00
  0.00000000E+00  0.00000000E+00  0.00000000E+00
  0.00000000E+00  0.00000000E+00  0.00000000E+00
  0.00000000E+00  0.00000000E+00  0.00000000E+00
  0.00000000E+00  0.00000000E+00  0.00000000E+00
  0.00000000E+00  0.00000000E+00  0.00000000E+00
  0.00000000E+00  0.00000000E+00  0.00000000E+00
  0.00000000E+00  0.00000000E+00  0.00000000E+00
  0.00000000E+00  0.00000000E+00  0.00000000E+00
  0.00000000E+00  0.00000000E+00  0.00000000E+00
  0.00000000E+00  0.00000000E+00  0.00000000E+00
  0.00000000E+00  0.00000000E+00  0.00000000E+00
  0.00000000E+00  0.00000000E+00  0.00000000E+00
  0.00000000E+00  0.00000000E+00  0.00000000E+00
  0.00000000E+00  0.00000000E+00  0.00000000E+00
  0.00000000E+00  0.00000000E+00  0.00000000E+00
  0.00000000E+00  0.00000000E+00  0.00000000E+00
  0.00000000E+00  0.00000000E+00  0.00000000E+00
  0.00000000E+00  0.00000000E+00  0.00000000E+00
  0.00000000E+00  0.00000000E+00  0.00000000E+00
  0.00000000E+00  0.00000000E+00  0.00000000E+00
  0.00000000E+00  0.00000000E+00  0.00000000E+00
  0.00000000E+00  0.00000000E+00  0.00000000E+00
  0.00000000E+00  0.00000000E+00  0.00000000E+00
  0.00000000E+00  0.00000000E+00  0.00000000E+00
  0.00000000E+00  0.00000000E+00  0.00000000E+00
  0.00000000E+00  0.00000000E+00  0.00000000E+00
  0.00000000E+00  0.00000000E+00  0.00000000E+00
  0.00000000E+00  0.00000000E+00  0.00000000E+00
  0.00000000E+00  0.00000000E+00  0.00000000E+00
  0.00000000E+00  0.00000000E+00  0.00000000E+00
  0.00000000E+00  0.00000000E+00  0.00000000E+00
  0.00000000E+00  0.00000000E+00  0.00000000E+00
  0.00000000E+00  0.00000000E+00  0.00000000E+00
  0.00000000E+00  0.00000000E+00  0.00000000E+00
  0.00000000E+00  0.00000000E+00  0.00000000E+00
  0.00000000E+00  0.00000000E+00  0.00000000E+00
  0.00000000E+00  0.00000000E+00  0.00000000E+00
  0.00000000E+00  0.00000000E+00  0.00000000E+00
  0.00000000E+00  0.00000000E+00  0.00000000E+00
  0.00000000E+00  0.00000000E+00  0.00000000E+00
  0.00000000E+00  0.00000000E+00  0.00000000E+00
  0.00000000E+00  0.00000000E+00  0.00000000E+00
  0.00000000E+00  0.00000000E+00  0.00000000E+00
  0.00000000E+00  0.00000000E+00  0.00000000E+00
  0.00000000E+00  0.00000000E+00  0.00000000E+00
  0.00000000E+00  0.00000000E+00  0.00000000E+00
  0.00000000E+00  0.00000000E+00  0.00000000E+00
  0.00000000E+00  0.00000000E+00  0.00000000E+00
  0.00000000E+00  0.00000000E+00  0.00000000E+00
  0.00000000E+00  0.00000000E+00  0.00000000E+00
  0.00000000E+00  0.00000000E+00  0.00000000E+00
  0.00000000E+00  0.00000000E+00  0.00000000E+00
  0.00000000E+00  0.00000000E+00  0.00000000E+00
  0.00000000E+00  0.00000000E+00  0.00000000E+00
  0.00000000E+00  0.00000000E+00  0.00000000E+00
  0.00000000E+00  0.00000000E+00  0.00000000E+00
  0.00000000E+00  0.00000000E+00  0.00000000E+00
  0.00000000E+00  0.00000000E+00  0.00000000E+00
  0.00000000E+00  0.00000000E+00  0.00000000E+00
  0.00000000E+00  0.00000000E+00  0.00000000E+00
  0.00000000E+00  0.00000000E+00  0.00000000E+00
  0.00000000E+00  0.00000000E+00  0.00000000E+00
  0.00000000E+00  0.00000000E+00  0.00000000E+00
  0.00000000E+00  0.00000000E+00  0.00000000E+00
  0.00000000E+00  0.00000000E+00  0.00000000E+00
  0.00000000E+00  0.00000000E+00  0.00000000E+00
  0.00000000E+00  0.00000000E+00  0.00000000E+00
  0.00000000E+00  0.00000000E+00  0.00000000E+00
  0.00000000E+00  0.00000000E+00  0.00000000E+00
  0.00000000E+00  0.00000000E+00  0.00000000E+00
  0.00000000E+00  0.00000000E+00  0.00000000E+00
  0.00000000E+00  0.00000000E+00  0.00000000E+00
  0.00000000E+00  0.00000000E+00  0.00000000E+00
  0.00000000E+00  0.00000000E+00  0.00000000E+00
  0.00000000E+00  0.00000000E+00  0.00000000E+00
  0.00000000E+00  0.00000000E+00  0.00000000E+00
  0.00000000E+00  0.00000000E+00  0.00000000E+00
  0.00000000E+00  0.00000000E+00  0.00000000E+00
  0.00000000E+00  0.00000000E+00  0.00000000E+00
  0.00000000E+00  0.00000000E+00  0.00000000E+00
  0.00000000E+00  0.00000000E+00  0.00000000E+00
  0.00000000E+00  0.00000000E+00  0.00000000E+00
  0.00000000E+00  0.00000000E+00  0.00000000E+00
  0.00000000E+00  0.00000000E+00  0.00000000E+00
  0.00000000E+00  0.00000000E+00  0.00000000E+00
  0.00000000E+00  0.00000000E+00  0.00000000E+00
  0.00000000E+00  0.00000000E+00  0.00000000E+00
  0.00000000E+00  0.00000000E+00  0.00000000E+00
  0.00000000E+00  0.00000000E+00  0.00000000E+00
  0.00000000E+00  0.00000000E+00  0.00000000E+00
  0.00000000E+00  0.00000000E+00  0.00000000E+00
  0.00000000E+00  0.00000000E+00  0.00000000E+00
  0.00000000E+00  0.00000000E+00  0.00000000E+00
  0.00000000E+00  0.00000000E+00  0.00000000E+00
  0.00000000E+00  0.00000000E+00  0.00000000E+00
  0.00000000E+00  0.00000000E+00  0.00000000E+00
  0.00000000E+00  0.00000000E+00  0.00000000E+00
  0.00000000E+00  0.00000000E+00  0.00000000E+00
  0.00000000E+00  0.00000000E+00  0.00000000E+00
  0.00000000E+00  0.00000000E+00  0.00000000E+00
  0.00000000E+00  0.00000000E+00  0.00000000E+00
  0.00000000E+00  0.00000000E+00  0.00000000E+00
  0.00000000E+00  0.00000000E+00  0.00000000E+00
  0.00000000E+00  0.00000000E+00  0.00000000E+00
  0.00000000E+00  0.00000000E+00  0.00000000E+00
  0.00000000E+00  0.00000000E+00  0.00000000E+00
  0.00000000E+00  0.00000000E+00  0.00000000E+00
  0.00000000E+00  0.00000000E+00  0.00000000E+00
  0.00000000E+00  0.00000000E+00  0.00000000E+00
  0.00000000E+00  0.00000000E+00  0.00000000E+00
  0.00000000E+00  0.00000000E+00  0.00000000E+00
  0.00000000E+00  0.00000000E+00  0.00000000E+00
  0.00000000E+00  0.00000000E+00  0.00000000E+00
  0.00000000E+00  0.00000000E+00  0.00000000E+00
  0.00000000E+00  0.00000000E+00  0.00000000E+00
  0.00000000E+00  0.00000000E+00  0.00000000E+00
  0.00000000E+00  0.00000000E+00  0.00000000E+00
  0.00000000E+00  0.00000000E+00  0.00000000E+00
  0.00000000E+00  0.00000000E+00  0.00000000E+00
  0.00000000E+00  0.00000000E+00  0.00000000E+00
  0.00000000E+00  0.00000000E+00  0.00000000E+00
  0.00000000E+00  0.00000000E+00  0.00000000E+00
  0.00000000E+00  0.00000000E+00  0.00000000E+00
  0.00000000E+00  0.00000000E+00  0.00000000E+00
  0.00000000E+00  0.00000000E+00  0.00000000E+00
  0.00000000E+00  0.00000000E+00  0.00000000E+00
  0.00000000E+00  0.00000000E+00  0.00000000E+00
  0.00000000E+00  0.00000000E+00  0.00000000E+00
  0.00000000E+00  0.00000000E+00  0.00000000E+00
  0.00000000E+00  0.00000000E+00  0.00000000E+00
  0.00000000E+00  0.00000000E+00  0.00000000E+00
  0.00000000E+00  0.00000000E+00  0.00000000E+00
  0.00000000E+00  0.00000000E+00  0.00000000E+00
  0.00000000E+00  0.00000000E+00  0.00000000E+00
  0.00000000E+00  0.00000000E+00  0.00000000E+00
  0.00000000E+00  0.00000000E+00  0.00000000E+00
  0.00000000E+00  0.00000000E+00  0.00000000E+00
  0.00000000E+00  0.00000000E+00  0.00000000E+00
  0.00000000E+00  0.00000000E+00  0.00000000E+00
  0.00000000E+00  0.00000000E+00  0.00000000E+00
  0.00000000E+00  0.00000000E+00  0.00000000E+00
  0.00000000E+00  0.00000000E+00  0.00000000E+00
  0.00000000E+00  0.00000000E+00  0.00000000E+00
  0.00000000E+00  0.00000000E+00  0.00000000E+00
  0.00000000E+00  0.00000000E+00  0.00000000E+00
  0.00000000E+00  0.00000000E+00  0.00000000E+00
  0.00000000E+00  0.00000000E+00  0.00000000E+00
  0.00000000E+00  0.00000000E+00  0.00000000E+00
  0.00000000E+00  0.00000000E+00  0.00000000E+00
  0.00000000E+00  0.00000000E+00  0.00000000E+00
  0.00000000E+00  0.00000000E+00  0.00000000E+00
  0.00000000E+00  0.00000000E+00  0.00000000E+00
  0.00000000E+00  0.00000000E+00  0.00000000E+00
  0.00000000E+00  0.00000000E+00  0.00000000E+00
  0.00000000E+00  0.00000000E+00  0.00000000E+00
  0.00000000E+00  0.00000000E+00  0.00000000E+00
  0.00000000E+00  0.00000000E+00  0.00000000E+00
  0.00000000E+00  0.00000000E+00  0.00000000E+00
  0.00000000E+00  0.00000000E+00  0.00000000E+00
  0.00000000E+00  0.00000000E+00  0.00000000E+00
  0.00000000E+00  0.00000000E+00  0.00000000E+00
  0.00000000E+00  0.00000000E+00  0.00000000E+00
  0.00000000E+00  0.00000000E+00  0.00000000E+00
  0.00000000E+00  0.00000000E+00  0.00000000E+00
  0.00000000E+00  0.00000000E+00  0.00000000E+00
  0.00000000E+00  0.00000000E+00  0.00000000E+00
  0.00000000E+00  0.00000000E+00  0.00000000E+00
  0.00000000E+00  0.00000000E+00  0.00000000E+00
  0.00000000E+00  0.00000000E+00  0.00000000E+00
  0.00000000E+00  0.00000000E+00  0.00000000E+00
  0.00000000E+00  0.00000000E+00  0.00000000E+00
  0.00000000E+00  0.00000000E+00  0.00000000E+00
  0.00000000E+00  0.00000000E+00  0.00000000E+00
  0.00000000E+00  0.00000000E+00  0.00000000E+00
  0.00000000E+00  0.00000000E+00  0.00000000E+00
  0.00000000E+00  0.00000000E+00  0.00000000E+00
  0.00000000E+00  0.00000000E+00  0.00000000E+00
  0.00000000E+00  0.00000000E+00  0.00000000E+00
  0.00000000E+00  0.00000000E+00  0.00000000E+00
  0.00000000E+00  0.00000000E+00  0.00000000E+00
  0.00000000E+00  0.00000000E+00  0.00000000E+00
  0.00000000E+00  0.00000000E+00  0.00000000E+00
  0.00000000E+00  0.00000000E+00  0.00000000E+00
  0.00000000E+00  0.00000000E+00  0.00000000E+00
  0.00000000E+00  0.00000000E+00  0.00000000E+00
  0.00000000E+00  0.00000000E+00  0.00000000E+00
  0.00000000E+00  0.00000000E+00  0.00000000E+00
  0.00000000E+00  0.00000000E+00  0.00000000E+00
  0.00000000E+00  0.00000000E+00  0.00000000E+00
  0.00000000E+00  0.00000000E+00  0.00000000E+00
  0.00000000E+00  0.00000000E+00  0.00000000E+00
  0.00000000E+00  0.00000000E+00  0.00000000E+00
  0.00000000E+00  0.00000000E+00  0.00000000E+00
  0.00000000E+00  0.00000000E+00  0.00000000E+00
  0.00000000E+00  0.00000000E+00  0.00000000E+00
  0.00000000E+00  0.00000000E+00  0.00000000E+00
  0.00000000E+00  0.00000000E+00  0.00000000E+00
  0.00000000E+00  0.00000000E+00  0.00000000E+00
  0.00000000E+00  0.00000000E+00  0.00000000E+00
  0.00000000E+00  0.00000000E+00  0.00000000E+00
  0.00000000E+00  0.00000000E+00  0.00000000E+00
  0.00000000E+00  0.00000000E+00  0.00000000E+00
  0.00000000E+00  0.00000000E+00  0.00000000E+00
  0.00000000E+00  0.00000000E+00  0.00000000E+00
  0.00000000E+00  0.00000000E+00  0.00000000E+00
  0.00000000E+00  0.00000000E+00  0.00000000E+00
  0.00000000E+00  0.00000000E+00  0.00000000E+00
  0.00000000E+00  0.00000000E+00  0.00000000E+00
  0.00000000E+00  0.00000000E+00  0.00000000E+00
  0.00000000E+00  0.00000000E+00  0.00000000E+00
  0.00000000E+00  0.00000000E+00  0.00000000E+00
  0.00000000E+00  0.00000000E+00  0.00000000E+00
  0.00000000E+00  0.00000000E+00  0.00000000E+00
  0.00000000E+00  0.00000000E+00  0.00000000E+00
  0.00000000E+00  0.00000000E+00  0.00000000E+00
  0.00000000E+00  0.00000000E+00  0.00000000E+00
  0.00000000E+00  0.00000000E+00  0.00000000E+00
  0.00000000E+00  0.00000000E+00  0.00000000E+00
  0.00000000E+00  0.00000000E+00  0.00000000E+00
  0.00000000E+00  0.00000000E+00  0.00000000E+00
  0.00000000E+00  0.00000000E+00  0.00000000E+00
  0.00000000E+00  0.00000000E+00  0.00000000E+00
