generated by phonopy                    
   1.00000000000000     
     0.0000000000000000    3.3786671485441930    3.3786671485442969
     3.3786671485442357    0.0000000000000000    3.3786671485442969
     3.3786671485442357    3.3786671485441930    0.0000000000000000
   Sr   Sc   Zr   Hf   H 
     1     1     1     1    24
Direct
  0.2500000000000000  0.2500000000000000  0.2500000000000000
  0.7500000000000000  0.7500000000000000  0.7500000000000000
  0.0000000000000000  0.0000000000000000  0.0000000000000000
  0.5000000000000000  0.5000000000000000  0.5000000000000000
  0.1136763714458624  0.8738438452063519  0.6270709456233021
  0.8738438452063519  0.1136763714458624  0.3854088377244906
  0.6270709456233021  0.3854088377244906  0.1136763714458624
  0.3854088377244906  0.6270709456233021  0.8738438452063519
  0.6270709456233021  0.1136763714458624  0.8738438452063519
  0.3854088377244906  0.8738438452063519  0.1136763714458624
  0.1136763714458624  0.6270709456233021  0.3854088377244906
  0.8738438452063519  0.3854088377244906  0.6270709456233021
  0.8738438452063519  0.6270709456233021  0.1136763714458624
  0.1136763714458624  0.3854088377244906  0.8738438452063519
  0.3854088377244906  0.1136763714458624  0.6270709456233021
  0.6270709456233021  0.8738438452063519  0.3854088377244906
  0.1136763714458624  0.3854088377244906  0.6270709456233021
  0.3854088377244906  0.1136763714458624  0.8738438452063519
  0.6270709456233021  0.8738438452063519  0.1136763714458624
  0.8738438452063519  0.6270709456233021  0.3854088377244906
  0.6270709456233021  0.1136763714458624  0.3854088377244906
  0.8738438452063519  0.3854088377244906  0.1136763714458624
  0.1136763714458624  0.6270709456233021  0.8738438452063519
  0.3854088377244906  0.8738438452063519  0.6270709456233021
  0.3854088377244906  0.6270709456233021  0.1136763714458624
  0.1136763714458624  0.8738438452063519  0.3854088377244906
  0.8738438452063519  0.1136763714458624  0.6270709456233021
  0.6270709456233021  0.3854088377244906  0.8738438452063519
 
  0.00000000E+00  0.00000000E+00  0.00000000E+00
  0.00000000E+00  0.00000000E+00  0.00000000E+00
  0.00000000E+00  0.00000000E+00  0.00000000E+00
  0.00000000E+00  0.00000000E+00  0.00000000E+00
  0.00000000E+00  0.00000000E+00  0.00000000E+00
  0.00000000E+00  0.00000000E+00  0.00000000E+00
  0.00000000E+00  0.00000000E+00  0.00000000E+00
  0.00000000E+00  0.00000000E+00  0.00000000E+00
  0.00000000E+00  0.00000000E+00  0.00000000E+00
  0.00000000E+00  0.00000000E+00  0.00000000E+00
  0.00000000E+00  0.00000000E+00  0.00000000E+00
  0.00000000E+00  0.00000000E+00  0.00000000E+00
  0.00000000E+00  0.00000000E+00  0.00000000E+00
  0.00000000E+00  0.00000000E+00  0.00000000E+00
  0.00000000E+00  0.00000000E+00  0.00000000E+00
  0.00000000E+00  0.00000000E+00  0.00000000E+00
  0.00000000E+00  0.00000000E+00  0.00000000E+00
  0.00000000E+00  0.00000000E+00  0.00000000E+00
  0.00000000E+00  0.00000000E+00  0.00000000E+00
  0.00000000E+00  0.00000000E+00  0.00000000E+00
  0.00000000E+00  0.00000000E+00  0.00000000E+00
  0.00000000E+00  0.00000000E+00  0.00000000E+00
  0.00000000E+00  0.00000000E+00  0.00000000E+00
  0.00000000E+00  0.00000000E+00  0.00000000E+00
  0.00000000E+00  0.00000000E+00  0.00000000E+00
  0.00000000E+00  0.00000000E+00  0.00000000E+00
  0.00000000E+00  0.00000000E+00  0.00000000E+00
  0.00000000E+00  0.00000000E+00  0.00000000E+00
