generated by phonopy                    
   1.00000000000000     
     0.0000000000000000    3.2724285775779003    3.2724285775780029
     3.2724285775779438    0.0000000000000000    3.2724285775780029
     3.2724285775779438    3.2724285775779003    0.0000000000000000
   Na   Zr   Sc   Ce   H 
     1     1     1     1    24
Direct
  0.2500000000000000  0.2500000000000000  0.2500000000000000
  0.7500000000000000  0.7500000000000000  0.7500000000000000
  0.0000000000000000  0.0000000000000000  0.0000000000000000
  0.5000000000000000  0.5000000000000000  0.5000000000000000
  0.1295968726209296  0.8924562123364765  0.6224143092723509
  0.8924562123364765  0.1295968726209296  0.3555326057702359
  0.6224143092723509  0.3555326057702359  0.1295968726209296
  0.3555326057702359  0.6224143092723509  0.8924562123364765
  0.6224143092723509  0.1295968726209296  0.8924562123364765
  0.3555326057702359  0.8924562123364765  0.1295968726209296
  0.1295968726209296  0.6224143092723509  0.3555326057702359
  0.8924562123364765  0.3555326057702359  0.6224143092723509
  0.8924562123364765  0.6224143092723509  0.1295968726209296
  0.1295968726209296  0.3555326057702359  0.8924562123364765
  0.3555326057702359  0.1295968726209296  0.6224143092723509
  0.6224143092723509  0.8924562123364765  0.3555326057702359
  0.1295968726209296  0.3555326057702359  0.6224143092723509
  0.3555326057702359  0.1295968726209296  0.8924562123364765
  0.6224143092723509  0.8924562123364765  0.1295968726209296
  0.8924562123364765  0.6224143092723509  0.3555326057702359
  0.6224143092723509  0.1295968726209296  0.3555326057702359
  0.8924562123364765  0.3555326057702359  0.1295968726209296
  0.1295968726209296  0.6224143092723509  0.8924562123364765
  0.3555326057702359  0.8924562123364765  0.6224143092723509
  0.3555326057702359  0.6224143092723509  0.1295968726209296
  0.1295968726209296  0.8924562123364765  0.3555326057702359
  0.8924562123364765  0.1295968726209296  0.6224143092723509
  0.6224143092723509  0.3555326057702359  0.8924562123364765
 
  0.00000000E+00  0.00000000E+00  0.00000000E+00
  0.00000000E+00  0.00000000E+00  0.00000000E+00
  0.00000000E+00  0.00000000E+00  0.00000000E+00
  0.00000000E+00  0.00000000E+00  0.00000000E+00
  0.00000000E+00  0.00000000E+00  0.00000000E+00
  0.00000000E+00  0.00000000E+00  0.00000000E+00
  0.00000000E+00  0.00000000E+00  0.00000000E+00
  0.00000000E+00  0.00000000E+00  0.00000000E+00
  0.00000000E+00  0.00000000E+00  0.00000000E+00
  0.00000000E+00  0.00000000E+00  0.00000000E+00
  0.00000000E+00  0.00000000E+00  0.00000000E+00
  0.00000000E+00  0.00000000E+00  0.00000000E+00
  0.00000000E+00  0.00000000E+00  0.00000000E+00
  0.00000000E+00  0.00000000E+00  0.00000000E+00
  0.00000000E+00  0.00000000E+00  0.00000000E+00
  0.00000000E+00  0.00000000E+00  0.00000000E+00
  0.00000000E+00  0.00000000E+00  0.00000000E+00
  0.00000000E+00  0.00000000E+00  0.00000000E+00
  0.00000000E+00  0.00000000E+00  0.00000000E+00
  0.00000000E+00  0.00000000E+00  0.00000000E+00
  0.00000000E+00  0.00000000E+00  0.00000000E+00
  0.00000000E+00  0.00000000E+00  0.00000000E+00
  0.00000000E+00  0.00000000E+00  0.00000000E+00
  0.00000000E+00  0.00000000E+00  0.00000000E+00
  0.00000000E+00  0.00000000E+00  0.00000000E+00
  0.00000000E+00  0.00000000E+00  0.00000000E+00
  0.00000000E+00  0.00000000E+00  0.00000000E+00
  0.00000000E+00  0.00000000E+00  0.00000000E+00
