generated by phonopy                    
   1.00000000000000     
     0.0000000000000000    3.2233279870454563    3.2233279870455935
     3.2233279870455154    0.0000000000000000    3.2233279870455935
     3.2233279870455154    3.2233279870454563    0.0000000000000000
   Na   Sc   K    Mg   H 
     1     1     1     1    24
Direct
  0.2500000000000000  0.2500000000000000  0.2500000000000000
  0.7500000000000000  0.7500000000000000  0.7500000000000000
  0.0000000000000000  0.0000000000000000  0.0000000000000000
  0.5000000000000000  0.5000000000000000  0.5000000000000000
  0.1408740666020591  0.8716535775693188  0.6107973548557339
  0.8716535775693188  0.1408740666020591  0.3766750009728952
  0.6107973548557339  0.3766750009728952  0.1408740666020591
  0.3766750009728952  0.6107973548557339  0.8716535775693188
  0.6107973548557339  0.1408740666020591  0.8716535775693188
  0.3766750009728952  0.8716535775693188  0.1408740666020591
  0.1408740666020591  0.6107973548557339  0.3766750009728952
  0.8716535775693188  0.3766750009728952  0.6107973548557339
  0.8716535775693188  0.6107973548557339  0.1408740666020591
  0.1408740666020591  0.3766750009728952  0.8716535775693188
  0.3766750009728952  0.1408740666020591  0.6107973548557339
  0.6107973548557339  0.8716535775693188  0.3766750009728952
  0.1408740666020591  0.3766750009728952  0.6107973548557339
  0.3766750009728952  0.1408740666020591  0.8716535775693188
  0.6107973548557339  0.8716535775693188  0.1408740666020591
  0.8716535775693188  0.6107973548557339  0.3766750009728952
  0.6107973548557339  0.1408740666020591  0.3766750009728952
  0.8716535775693188  0.3766750009728952  0.1408740666020591
  0.1408740666020591  0.6107973548557339  0.8716535775693188
  0.3766750009728952  0.8716535775693188  0.6107973548557339
  0.3766750009728952  0.6107973548557339  0.1408740666020591
  0.1408740666020591  0.8716535775693188  0.3766750009728952
  0.8716535775693188  0.1408740666020591  0.6107973548557339
  0.6107973548557339  0.3766750009728952  0.8716535775693188
 
  0.00000000E+00  0.00000000E+00  0.00000000E+00
  0.00000000E+00  0.00000000E+00  0.00000000E+00
  0.00000000E+00  0.00000000E+00  0.00000000E+00
  0.00000000E+00  0.00000000E+00  0.00000000E+00
  0.00000000E+00  0.00000000E+00  0.00000000E+00
  0.00000000E+00  0.00000000E+00  0.00000000E+00
  0.00000000E+00  0.00000000E+00  0.00000000E+00
  0.00000000E+00  0.00000000E+00  0.00000000E+00
  0.00000000E+00  0.00000000E+00  0.00000000E+00
  0.00000000E+00  0.00000000E+00  0.00000000E+00
  0.00000000E+00  0.00000000E+00  0.00000000E+00
  0.00000000E+00  0.00000000E+00  0.00000000E+00
  0.00000000E+00  0.00000000E+00  0.00000000E+00
  0.00000000E+00  0.00000000E+00  0.00000000E+00
  0.00000000E+00  0.00000000E+00  0.00000000E+00
  0.00000000E+00  0.00000000E+00  0.00000000E+00
  0.00000000E+00  0.00000000E+00  0.00000000E+00
  0.00000000E+00  0.00000000E+00  0.00000000E+00
  0.00000000E+00  0.00000000E+00  0.00000000E+00
  0.00000000E+00  0.00000000E+00  0.00000000E+00
  0.00000000E+00  0.00000000E+00  0.00000000E+00
  0.00000000E+00  0.00000000E+00  0.00000000E+00
  0.00000000E+00  0.00000000E+00  0.00000000E+00
  0.00000000E+00  0.00000000E+00  0.00000000E+00
  0.00000000E+00  0.00000000E+00  0.00000000E+00
  0.00000000E+00  0.00000000E+00  0.00000000E+00
  0.00000000E+00  0.00000000E+00  0.00000000E+00
  0.00000000E+00  0.00000000E+00  0.00000000E+00
