generated by phonopy                    
   1.00000000000000     
     0.0000000000000000    3.3054379687342603    3.3054379687343300
     3.3054379687342879    0.0000000000000000    3.3054379687343300
     3.3054379687342879    3.3054379687342603    0.0000000000000000
   Mg   Zr   Sc   Hf   H 
     1     1     1     1    24
Direct
  0.2500000000000000  0.2500000000000000  0.2500000000000000
  0.7500000000000000  0.7500000000000000  0.7500000000000000
  0.0000000000000000  0.0000000000000000  0.0000000000000000
  0.5000000000000000  0.5000000000000000  0.5000000000000000
  0.1264737378963332  0.8908471222295091  0.6193631803185440
  0.8908471222295091  0.1264737378963332  0.3633159595556208
  0.6193631803185440  0.3633159595556208  0.1264737378963332
  0.3633159595556208  0.6193631803185440  0.8908471222295091
  0.6193631803185440  0.1264737378963332  0.8908471222295091
  0.3633159595556208  0.8908471222295091  0.1264737378963332
  0.1264737378963332  0.6193631803185440  0.3633159595556208
  0.8908471222295091  0.3633159595556208  0.6193631803185440
  0.8908471222295091  0.6193631803185440  0.1264737378963332
  0.1264737378963332  0.3633159595556208  0.8908471222295091
  0.3633159595556208  0.1264737378963332  0.6193631803185440
  0.6193631803185440  0.8908471222295091  0.3633159595556208
  0.1264737378963332  0.3633159595556208  0.6193631803185440
  0.3633159595556208  0.1264737378963332  0.8908471222295091
  0.6193631803185440  0.8908471222295091  0.1264737378963332
  0.8908471222295091  0.6193631803185440  0.3633159595556208
  0.6193631803185440  0.1264737378963332  0.3633159595556208
  0.8908471222295091  0.3633159595556208  0.1264737378963332
  0.1264737378963332  0.6193631803185440  0.8908471222295091
  0.3633159595556208  0.8908471222295091  0.6193631803185440
  0.3633159595556208  0.6193631803185440  0.1264737378963332
  0.1264737378963332  0.8908471222295091  0.3633159595556208
  0.8908471222295091  0.1264737378963332  0.6193631803185440
  0.6193631803185440  0.3633159595556208  0.8908471222295091
 
  0.00000000E+00  0.00000000E+00  0.00000000E+00
  0.00000000E+00  0.00000000E+00  0.00000000E+00
  0.00000000E+00  0.00000000E+00  0.00000000E+00
  0.00000000E+00  0.00000000E+00  0.00000000E+00
  0.00000000E+00  0.00000000E+00  0.00000000E+00
  0.00000000E+00  0.00000000E+00  0.00000000E+00
  0.00000000E+00  0.00000000E+00  0.00000000E+00
  0.00000000E+00  0.00000000E+00  0.00000000E+00
  0.00000000E+00  0.00000000E+00  0.00000000E+00
  0.00000000E+00  0.00000000E+00  0.00000000E+00
  0.00000000E+00  0.00000000E+00  0.00000000E+00
  0.00000000E+00  0.00000000E+00  0.00000000E+00
  0.00000000E+00  0.00000000E+00  0.00000000E+00
  0.00000000E+00  0.00000000E+00  0.00000000E+00
  0.00000000E+00  0.00000000E+00  0.00000000E+00
  0.00000000E+00  0.00000000E+00  0.00000000E+00
  0.00000000E+00  0.00000000E+00  0.00000000E+00
  0.00000000E+00  0.00000000E+00  0.00000000E+00
  0.00000000E+00  0.00000000E+00  0.00000000E+00
  0.00000000E+00  0.00000000E+00  0.00000000E+00
  0.00000000E+00  0.00000000E+00  0.00000000E+00
  0.00000000E+00  0.00000000E+00  0.00000000E+00
  0.00000000E+00  0.00000000E+00  0.00000000E+00
  0.00000000E+00  0.00000000E+00  0.00000000E+00
  0.00000000E+00  0.00000000E+00  0.00000000E+00
  0.00000000E+00  0.00000000E+00  0.00000000E+00
  0.00000000E+00  0.00000000E+00  0.00000000E+00
  0.00000000E+00  0.00000000E+00  0.00000000E+00
