POSCAR                                  
   1.00000000000000     
    10.0754732197412693   -0.0314350864650358    0.1170160570452522
    -0.0322595367823814   10.0299358327606871   -0.0946034009402663
     0.0776597983070996   -0.0625631115117207    6.6955134748326186
   Sc   Th   Y    Ca   H 
     9     9     9     9   216
Direct
  0.1536419842594867  0.1574671780921690  0.2670311940904924
  0.1610914116442643  0.8338237135083588  0.2517874511797729
  0.3432010453093639  0.6743481244393763  0.5007737510520158
  0.3199085242530941  0.9949697439673884  0.4856873839945379
  0.8353822881751469  0.5015675680886460  0.2573036942772333
  0.9992256978070984  0.3509020466130224  0.4765833312888574
  0.8362873102107145  0.5072513182642453  0.7240039562308738
  0.6839588962075354  0.9965394316580216  0.5081183755735452
  0.9928430367635954  0.6710619110251201  0.4912233353627471
  0.1577117401918144  0.1705634164067575  0.7513543416257775
  0.1745771912913980  0.5032396485472148  0.2231362971237942
  0.4931198063255735  0.1636401999878601  0.7669837503198877
  0.3302966336544486  0.3344597584771520  0.0016504140152804
  0.3233006383821007  0.6654118224754981  0.0068580801684135
  0.8356501720471456  0.1735454805043233  0.7644394881647258
  0.3425136427904150  0.9988753386384772  0.9875226915801321
  0.6686217684922298  0.6646234989984450  0.0035361793767308
  0.9951774979074415  0.3234914745455555  0.9789653463914050
  0.5081147893835762  0.1587122110727464  0.2738360779881575
  0.3357625531008637  0.3381870799194786  0.4892667251672265
  0.1601471973467881  0.5128487257396159  0.7182249593513106
  0.1610680076626352  0.8333765018732535  0.7358882982679944
  0.6670223058359497  0.3285716716464648  0.5024898905545285
  0.5092099373306809  0.5084669308300533  0.7464408613064819
  0.6721458033337413  0.3300976233381405  0.0080926608992797
  0.6640191123552484  0.6735721685041796  0.5018134535253722
  0.8338743343623918  0.8306317705661073  0.2484238989261058
  0.5157323549809334  0.5036893928577726  0.2580262403150471
  0.8365154622513913  0.1614881314864434  0.2693700454813452
  0.5020384628361896  0.8399645527185555  0.2639101176933139
  0.4969846062970333  0.8377718609546676  0.7533730187852825
  0.8307461803938594  0.8310931016501115  0.7530100038657466
  0.6717960627006079  0.9953820097910793  0.0175447994898335
  0.9957681932864233  0.6665582909643462  0.9875091493536772
  0.9995893232810857  0.9869167232866047  0.4990375682980002
  0.9958034523696639  0.9874220156742410  0.0138362816105300
  0.1604563013048548  0.0742182020347428  0.0215731806615409
  0.1608020563798505  0.0783148503882884  0.4912375133883842
  0.1579300909207717  0.4149448919772567  0.9695102136178875
  0.5170749470876288  0.0807426757683558  0.0253385946629407
  0.3413795687085184  0.2434950332728718  0.2549689389118086
  0.1653685687791011  0.4220652361050767  0.4788766310595634
  0.4798070870221594  0.0736274522619880  0.5132642731475983
  0.3298726167669344  0.2598154111071693  0.7295085008196764
  0.1527061498232527  0.7576582866917860  0.9911717143099636
  0.5062172169374506  0.4147190542845394  0.0163850102002030
  0.3533759886746566  0.5884121356180998  0.2691867629820237
  0.1802144804554473  0.7527607962883991  0.4810746102239918
  0.8322309112846256  0.0777324342095227  0.0228532082574517
  0.6755481870664681  0.2427351447287691  0.2525210243839240
  0.5021167701685911  0.4222160512272239  0.4996322655985779
  0.3350973393165262  0.5883620768195215  0.7307159613383263
  0.8456105674108301  0.0808533854410030  0.5043608994328039
  0.6615089310889033  0.2510882935028320  0.7527212957606153
  0.4953948413142655  0.7499798350606142  0.0120783837722627
  0.3276434794128136  0.9170280431342732  0.2513013042877787
  0.8344282588406600  0.4127500813832370  0.0384537551340003
  0.6781242829138421  0.5790421198801639  0.2634081496818368
  0.4955699823123112  0.7580213108207801  0.5037008546420338
  0.3304630233892851  0.9131974176311672  0.7213609356757544
  0.9973353101760836  0.2434426971545562  0.2653925065208256
  0.8353958905491936  0.4219581199902578  0.4852275345081836
  0.6779148378140505  0.5826504623906885  0.7399775104761446
  0.9971587441307719  0.2588672631055218  0.6824899228204444
  0.8419366703789990  0.7446315807834978  0.9920003939408630
  0.6654121814083851  0.9211827942669402  0.2693958822501656
  0.9964265785720059  0.5858169654092720  0.2363313896890062
  0.8356768924711915  0.7481532724596676  0.5030766478484381
  0.6671157016608120  0.9163014243979646  0.7552337163212357
  0.9909746974599045  0.5891311039059914  0.7331927783998538
  0.0044130228463715  0.9106372385961095  0.2532106232938673
  0.9932334158258200  0.9070948602113234  0.7546978737889347
  0.0789778166278623  0.1480096943734495  0.0251774569930490
  0.0756592759960739  0.1655396531944788  0.4980853319095715
  0.0717257907350586  0.5021103746734852  0.9703788127344168
  0.4192768888118223  0.1715786309973311  0.0435204952007808
  0.2439433563088826  0.3092569713104254  0.2588037257476756
  0.0803436657487637  0.5149533941486908  0.4773640561709627
  0.4067099982071198  0.1531207160259598  0.5063610385239059
  0.2473063559469395  0.3490750558730582  0.7327120570688024
  0.0772333702327259  0.8295236629463645  0.9996530726504531
  0.4243631701485100  0.4986315093925384  0.9915883856888854
  0.2488087723234003  0.6836305048085194  0.2855534146721084
  0.0817637712277772  0.8224284466194760  0.4860037661386443
  0.7511056958602467  0.1544414367570468  0.0288645058955552
  0.5908104778831671  0.3348983693075027  0.2546805619218873
  0.4244545454526616  0.5061392080494613  0.4958666540906123
  0.2524293190169971  0.6718574026579986  0.7298669027488103
  0.7547979232194564  0.1645113631817168  0.5070361460426227
  0.5863482253389165  0.3411813335964382  0.7576227095744485
  0.4213915937730519  0.8282457419826628  0.0145198194496317
  0.2480989043253530  0.9987146145646264  0.2490555326242614
  0.7596885509484039  0.4938009088928510  0.9833922919277143
  0.5764142803484233  0.6726900154535329  0.2610211247399619
  0.4191011453477813  0.8476924629140967  0.5105179779458382
  0.2446387050374739  0.9961642967373336  0.7331134282827989
  0.9175604620444915  0.3271764088159586  0.2473914454079349
  0.7543343795743453  0.4978528941257068  0.4985358774686759
  0.5777782805259548  0.6785537421543424  0.7483480487728542
  0.9152595327675073  0.3524600577886616  0.7171610668761446
  0.7497821991202613  0.8384812997687945  0.9976742096214934
  0.5876605308983898  0.9946500231625777  0.2898172124802230
  0.9181444190453689  0.6623455705513948  0.2440876738103199
  0.7505262632037883  0.8375566312980780  0.5079490303836849
  0.5905166503190458  0.9916683404607269  0.7378771334975767
  0.9151072949961971  0.6659481479335341  0.7431010383353183
  0.9178433015653340  0.0003598928283921  0.2615918574680762
  0.9139106764752967  0.9938863197255543  0.7549190970626256
  0.1638548151054238  0.9917335304948693  0.1256873034547539
  0.1619489956470801  0.9992634454991460  0.6130103603530799
  0.1563176306318468  0.3125891487521457  0.1344569458215759
  0.5098399519029613  0.9941496604409679  0.1393263147161647
  0.3277247695784169  0.1592042120660082  0.3760759512250615
  0.1626927610578690  0.3394359722000573  0.6009430068381008
  0.5310631776585950  0.9966269160649901  0.6303533761765152
  0.3193086879463394  0.1665271525195280  0.8845782398727877
  0.1452454144060198  0.6856024002486976  0.1197699003630888
  0.5024552141269467  0.3442918300044155  0.1292657885879009
  0.3506987618635122  0.5099680134193179  0.3803823700636784
  0.1681062380220553  0.6735775636278021  0.5997818142354845
  0.8326301066005186  0.9991385993465229  0.1356666090135334
  0.6731901503561062  0.1557846850003841  0.3853872381336814
  0.4988181509053646  0.3386097023515831  0.6309536459481393
  0.3377303871703461  0.5011356030186462  0.8486877769717793
  0.8384354819522386  0.9950411058614819  0.6381595828701663
  0.6636138381803818  0.1545431850019696  0.9000883382158875
  0.4946856564468050  0.6731112036924145  0.1378860257669459
  0.3349787380952591  0.8374541740045274  0.3820369396096837
  0.8344707271150185  0.3318797541787859  0.1440513766077984
  0.6753327544233798  0.4985039624971108  0.3767250562686328
  0.4969718830227094  0.6770814414736677  0.6270133298541651
  0.3262913782658501  0.8266732966746133  0.8579985301674640
  0.9992581939866554  0.1734512377001920  0.3813875643341831
  0.8365111547576660  0.3448706936520196  0.6141411441256679
  0.6937217783904046  0.4902346900246641  0.8772283676039834
  0.9968112887265193  0.1363073804757420  0.8951650156830198
  0.8439764965917078  0.6528618671670543  0.1228130076628915
  0.6648608778567038  0.8427183896944896  0.3861915261829552
  0.9968293847812504  0.5088838436216605  0.3579961424613813
  0.8335289076157295  0.6694150731955872  0.6180579691986168
  0.6612467711952235  0.8418746413006062  0.8757328103671611
  0.9838608598398935  0.5040225728944279  0.8584117607566597
  0.0023712458689147  0.8243028522328828  0.3729307871578413
  0.9929013353011413  0.8323421379502420  0.8730398722340169
  0.0823525288119882  0.9951905193909596  0.2529827477407878
  0.0764126051719245  0.9960598025428524  0.7588465154672477
  0.0780329044142931  0.3264338272723393  0.2430568177673109
  0.4135955992403311  0.9972549826598041  0.2646948981867183
  0.2403390633645230  0.1740146124606454  0.4847550900913475
  0.0792733129706633  0.3476413056003622  0.7103841967326900
  0.4180324773954140  0.9901842819205342  0.6973614800992962
  0.2409031410737157  0.1614303831976969  0.0353868995481434
  0.0765022353385802  0.6731097692234229  0.2525828953874907
  0.4247367546659078  0.3240848553057347  0.2489889499033708
  0.2551317703064697  0.5147099868208969  0.4832619477447579
  0.0741189296216334  0.6721276997345811  0.7286007454305690
  0.7530285316038814  0.0012521148309901  0.2602707528214907
  0.5847717732341238  0.1439233809698734  0.5154535665508675
  0.4187275725996784  0.3475794949878193  0.7389345846458184
  0.2457335926359150  0.4958856777263918  0.9500632891247065
  0.7534575449665866  0.9964725630013334  0.7657667676235320
  0.5897413490488788  0.1620435901985005  0.0207498659471739
  0.4150181584185830  0.6820681277628609  0.2623332764244424
  0.2483124881527772  0.8210457525603587  0.4767248813834613
  0.7543487720124773  0.3299448780838929  0.2560503760704620
  0.5915266656784226  0.4988733679133261  0.4974742737053219
  0.4128125814549577  0.6744011595751687  0.7415890278697290
  0.2408053693786769  0.8366808682548950  0.0057706826097998
  0.9200129961854770  0.1644320286233167  0.5045949704501425
  0.7523663375384544  0.3517044814935772  0.7450837233489196
  0.5905205246501311  0.4898306155593772  0.0014843095525592
  0.9150514468606232  0.1470967434601178  0.0305548996193679
  0.7570350398369214  0.6596407123387209  0.2599255962005955
  0.5811016707376098  0.8536020339425434  0.5082772985055755
  0.9154884904612501  0.5084583554098714  0.4882089889660861
  0.7566211456657683  0.6655655482909211  0.7390862770033522
  0.5857336391669179  0.8390983144504034  0.0026492549175785
  0.9136122406776224  0.4989769839233773  0.9699789976734863
  0.9164533354362092  0.8279662733177915  0.5021303396728527
  0.9191613827675980  0.8279184058063649  0.9933468031832220
  0.9976662430956935  0.1565532831058860  0.1434055913760091
  0.9961315121871550  0.1399993540025690  0.6221842726900917
  0.9859389198564870  0.5037449179478841  0.1077523656617032
  0.3207207218789705  0.1641178545687438  0.1480922131185949
  0.1598221622460727  0.3253825532777768  0.3701352011123973
  0.9937524491062888  0.5131586076489043  0.6018612939037027
  0.3272985440545924  0.1672810101438813  0.6076327864686490
  0.1664276345834068  0.3533724004511285  0.8406675583662846
  0.0048106288024883  0.8243556974648953  0.1207473448201739
  0.3634850201505628  0.5018312084527494  0.1358481365860840
  0.1452221705909125  0.6726299611906299  0.3621178539789653
  0.9925478198829865  0.8268589832991466  0.6236733723875432
  0.6751484110833559  0.1582424787886509  0.1489079542288962
  0.5030979885686122  0.3368707289462165  0.3727366047829648
  0.3364604951925756  0.5139070161397470  0.6112508006272108
  0.1548443992714184  0.6755151620228972  0.8614723611285768
  0.6643530222734526  0.1568078643417650  0.6322915340205029
  0.5088623806343975  0.3491766269439367  0.8845894560236403
  0.3298042563164572  0.8372777854421400  0.1409640623717223
  0.1618328631448307  0.9992776577991549  0.3662737099854354
  0.6846849602257379  0.4929776148798695  0.1312291755584525
  0.4983119688673554  0.6715635050581241  0.3800603347583120
  0.3316541393976209  0.8307433799724464  0.6109475777153861
  0.1569690074876675  0.9924716249256562  0.8836463893150182
  0.8392570268051358  0.3353560337490720  0.3799368141659656
  0.6777126858412217  0.5023881618199226  0.6179027606560368
  0.4968074882285975  0.6791947566952601  0.8775731697019324
  0.8276595057272544  0.3678644027643685  0.8707035822263762
  0.6634279547440940  0.8403254814061043  0.1357914158994404
  0.4914788416269928  0.9962256165403147  0.3949446435661983
  0.8356153122511927  0.6622989765544958  0.3752681563513178
  0.6650827711328162  0.8426704654209800  0.6317157089513685
  0.5267303531216356  0.9908466642754732  0.8814758644643916
  0.8410641097338356  0.6593412157282259  0.8656003485942279
  0.8401346100313063  0.9985434763741168  0.3838171330951923
  0.8328865712882703  0.9915439080396666  0.8859440871561546
  0.9978640656788116  0.0762760505159932  0.2628220249100295
  0.9955297179266296  0.0653567530902706  0.7540684527519375
  0.9934361132853269  0.4210220389339625  0.2373372033056427
  0.3231519415391944  0.0796297321797041  0.2598592037647691
  0.1507823150208836  0.2495194197281450  0.4859745211506379
  0.9936474504668880  0.4286684653413104  0.7228323707095896
  0.3257599717056010  0.0779801500668711  0.7186762480502580
  0.1625730495690618  0.2352281040968052  0.0284674900537212
  0.9996247157134448  0.7468834660991064  0.2475928271157599
  0.3528126879207392  0.4213932918425130  0.2552928311564102
  0.1722807806757913  0.5970381324018916  0.4766182247545458
  0.9925040036518737  0.7467533073704757  0.7377399827823510
  0.6767600784554872  0.0781074835429081  0.2674227484188592
  0.4962264332469815  0.2470306731138265  0.5109177874180943
  0.3381278428783219  0.4274927398173816  0.7379010119759144
  0.1504094907023941  0.5878656689753399  0.9699809146647880
  0.6670057187371157  0.0779559094403979  0.7654458241571191
  0.5063758559047997  0.2515909033693191  0.0355921552677856
  0.3376517694540411  0.7558266799020004  0.2656110281380961
  0.1662263566774129  0.9127163304175028  0.4865289564037880
  0.6765445662447647  0.4139171250578002  0.2561913854223548
  0.4948595465286374  0.5915858846616260  0.4968651980532854
  0.3324679219278721  0.7507726463955890  0.7399423357112767
  0.1628923807170111  0.9197943953699195  0.0026985329057183
  0.8527148179501367  0.2520709976783522  0.4993115407187076
  0.6707094629623924  0.4205617945140929  0.7497728832434021
  0.4950460272147055  0.5822541369012129  0.0133741706591977
  0.8266043456997778  0.2436485796693120  0.0410062193415897
  0.6632712156973710  0.7591145085424742  0.2620519893878708
  0.4859397407306147  0.9173275975339479  0.5104260079842078
  0.8346726672689471  0.5867549639993683  0.4887570695539836
  0.6647036723365289  0.7590640690268700  0.7489526912185909
  0.5132104847317933  0.9106012758278439  0.0138583592444732
  0.8394934174890025  0.5763308798384088  0.0040009741734863
  0.8356716831515172  0.9119659210938948  0.5096933574112867
  0.8329861988707137  0.9159525140063209  0.9967692308981384
 
  0.00000000E+00  0.00000000E+00  0.00000000E+00
  0.00000000E+00  0.00000000E+00  0.00000000E+00
  0.00000000E+00  0.00000000E+00  0.00000000E+00
  0.00000000E+00  0.00000000E+00  0.00000000E+00
  0.00000000E+00  0.00000000E+00  0.00000000E+00
  0.00000000E+00  0.00000000E+00  0.00000000E+00
  0.00000000E+00  0.00000000E+00  0.00000000E+00
  0.00000000E+00  0.00000000E+00  0.00000000E+00
  0.00000000E+00  0.00000000E+00  0.00000000E+00
  0.00000000E+00  0.00000000E+00  0.00000000E+00
  0.00000000E+00  0.00000000E+00  0.00000000E+00
  0.00000000E+00  0.00000000E+00  0.00000000E+00
  0.00000000E+00  0.00000000E+00  0.00000000E+00
  0.00000000E+00  0.00000000E+00  0.00000000E+00
  0.00000000E+00  0.00000000E+00  0.00000000E+00
  0.00000000E+00  0.00000000E+00  0.00000000E+00
  0.00000000E+00  0.00000000E+00  0.00000000E+00
  0.00000000E+00  0.00000000E+00  0.00000000E+00
  0.00000000E+00  0.00000000E+00  0.00000000E+00
  0.00000000E+00  0.00000000E+00  0.00000000E+00
  0.00000000E+00  0.00000000E+00  0.00000000E+00
  0.00000000E+00  0.00000000E+00  0.00000000E+00
  0.00000000E+00  0.00000000E+00  0.00000000E+00
  0.00000000E+00  0.00000000E+00  0.00000000E+00
  0.00000000E+00  0.00000000E+00  0.00000000E+00
  0.00000000E+00  0.00000000E+00  0.00000000E+00
  0.00000000E+00  0.00000000E+00  0.00000000E+00
  0.00000000E+00  0.00000000E+00  0.00000000E+00
  0.00000000E+00  0.00000000E+00  0.00000000E+00
  0.00000000E+00  0.00000000E+00  0.00000000E+00
  0.00000000E+00  0.00000000E+00  0.00000000E+00
  0.00000000E+00  0.00000000E+00  0.00000000E+00
  0.00000000E+00  0.00000000E+00  0.00000000E+00
  0.00000000E+00  0.00000000E+00  0.00000000E+00
  0.00000000E+00  0.00000000E+00  0.00000000E+00
  0.00000000E+00  0.00000000E+00  0.00000000E+00
  0.00000000E+00  0.00000000E+00  0.00000000E+00
  0.00000000E+00  0.00000000E+00  0.00000000E+00
  0.00000000E+00  0.00000000E+00  0.00000000E+00
  0.00000000E+00  0.00000000E+00  0.00000000E+00
  0.00000000E+00  0.00000000E+00  0.00000000E+00
  0.00000000E+00  0.00000000E+00  0.00000000E+00
  0.00000000E+00  0.00000000E+00  0.00000000E+00
  0.00000000E+00  0.00000000E+00  0.00000000E+00
  0.00000000E+00  0.00000000E+00  0.00000000E+00
  0.00000000E+00  0.00000000E+00  0.00000000E+00
  0.00000000E+00  0.00000000E+00  0.00000000E+00
  0.00000000E+00  0.00000000E+00  0.00000000E+00
  0.00000000E+00  0.00000000E+00  0.00000000E+00
  0.00000000E+00  0.00000000E+00  0.00000000E+00
  0.00000000E+00  0.00000000E+00  0.00000000E+00
  0.00000000E+00  0.00000000E+00  0.00000000E+00
  0.00000000E+00  0.00000000E+00  0.00000000E+00
  0.00000000E+00  0.00000000E+00  0.00000000E+00
  0.00000000E+00  0.00000000E+00  0.00000000E+00
  0.00000000E+00  0.00000000E+00  0.00000000E+00
  0.00000000E+00  0.00000000E+00  0.00000000E+00
  0.00000000E+00  0.00000000E+00  0.00000000E+00
  0.00000000E+00  0.00000000E+00  0.00000000E+00
  0.00000000E+00  0.00000000E+00  0.00000000E+00
  0.00000000E+00  0.00000000E+00  0.00000000E+00
  0.00000000E+00  0.00000000E+00  0.00000000E+00
  0.00000000E+00  0.00000000E+00  0.00000000E+00
  0.00000000E+00  0.00000000E+00  0.00000000E+00
  0.00000000E+00  0.00000000E+00  0.00000000E+00
  0.00000000E+00  0.00000000E+00  0.00000000E+00
  0.00000000E+00  0.00000000E+00  0.00000000E+00
  0.00000000E+00  0.00000000E+00  0.00000000E+00
  0.00000000E+00  0.00000000E+00  0.00000000E+00
  0.00000000E+00  0.00000000E+00  0.00000000E+00
  0.00000000E+00  0.00000000E+00  0.00000000E+00
  0.00000000E+00  0.00000000E+00  0.00000000E+00
  0.00000000E+00  0.00000000E+00  0.00000000E+00
  0.00000000E+00  0.00000000E+00  0.00000000E+00
  0.00000000E+00  0.00000000E+00  0.00000000E+00
  0.00000000E+00  0.00000000E+00  0.00000000E+00
  0.00000000E+00  0.00000000E+00  0.00000000E+00
  0.00000000E+00  0.00000000E+00  0.00000000E+00
  0.00000000E+00  0.00000000E+00  0.00000000E+00
  0.00000000E+00  0.00000000E+00  0.00000000E+00
  0.00000000E+00  0.00000000E+00  0.00000000E+00
  0.00000000E+00  0.00000000E+00  0.00000000E+00
  0.00000000E+00  0.00000000E+00  0.00000000E+00
  0.00000000E+00  0.00000000E+00  0.00000000E+00
  0.00000000E+00  0.00000000E+00  0.00000000E+00
  0.00000000E+00  0.00000000E+00  0.00000000E+00
  0.00000000E+00  0.00000000E+00  0.00000000E+00
  0.00000000E+00  0.00000000E+00  0.00000000E+00
  0.00000000E+00  0.00000000E+00  0.00000000E+00
  0.00000000E+00  0.00000000E+00  0.00000000E+00
  0.00000000E+00  0.00000000E+00  0.00000000E+00
  0.00000000E+00  0.00000000E+00  0.00000000E+00
  0.00000000E+00  0.00000000E+00  0.00000000E+00
  0.00000000E+00  0.00000000E+00  0.00000000E+00
  0.00000000E+00  0.00000000E+00  0.00000000E+00
  0.00000000E+00  0.00000000E+00  0.00000000E+00
  0.00000000E+00  0.00000000E+00  0.00000000E+00
  0.00000000E+00  0.00000000E+00  0.00000000E+00
  0.00000000E+00  0.00000000E+00  0.00000000E+00
  0.00000000E+00  0.00000000E+00  0.00000000E+00
  0.00000000E+00  0.00000000E+00  0.00000000E+00
  0.00000000E+00  0.00000000E+00  0.00000000E+00
  0.00000000E+00  0.00000000E+00  0.00000000E+00
  0.00000000E+00  0.00000000E+00  0.00000000E+00
  0.00000000E+00  0.00000000E+00  0.00000000E+00
  0.00000000E+00  0.00000000E+00  0.00000000E+00
  0.00000000E+00  0.00000000E+00  0.00000000E+00
  0.00000000E+00  0.00000000E+00  0.00000000E+00
  0.00000000E+00  0.00000000E+00  0.00000000E+00
  0.00000000E+00  0.00000000E+00  0.00000000E+00
  0.00000000E+00  0.00000000E+00  0.00000000E+00
  0.00000000E+00  0.00000000E+00  0.00000000E+00
  0.00000000E+00  0.00000000E+00  0.00000000E+00
  0.00000000E+00  0.00000000E+00  0.00000000E+00
  0.00000000E+00  0.00000000E+00  0.00000000E+00
  0.00000000E+00  0.00000000E+00  0.00000000E+00
  0.00000000E+00  0.00000000E+00  0.00000000E+00
  0.00000000E+00  0.00000000E+00  0.00000000E+00
  0.00000000E+00  0.00000000E+00  0.00000000E+00
  0.00000000E+00  0.00000000E+00  0.00000000E+00
  0.00000000E+00  0.00000000E+00  0.00000000E+00
  0.00000000E+00  0.00000000E+00  0.00000000E+00
  0.00000000E+00  0.00000000E+00  0.00000000E+00
  0.00000000E+00  0.00000000E+00  0.00000000E+00
  0.00000000E+00  0.00000000E+00  0.00000000E+00
  0.00000000E+00  0.00000000E+00  0.00000000E+00
  0.00000000E+00  0.00000000E+00  0.00000000E+00
  0.00000000E+00  0.00000000E+00  0.00000000E+00
  0.00000000E+00  0.00000000E+00  0.00000000E+00
  0.00000000E+00  0.00000000E+00  0.00000000E+00
  0.00000000E+00  0.00000000E+00  0.00000000E+00
  0.00000000E+00  0.00000000E+00  0.00000000E+00
  0.00000000E+00  0.00000000E+00  0.00000000E+00
  0.00000000E+00  0.00000000E+00  0.00000000E+00
  0.00000000E+00  0.00000000E+00  0.00000000E+00
  0.00000000E+00  0.00000000E+00  0.00000000E+00
  0.00000000E+00  0.00000000E+00  0.00000000E+00
  0.00000000E+00  0.00000000E+00  0.00000000E+00
  0.00000000E+00  0.00000000E+00  0.00000000E+00
  0.00000000E+00  0.00000000E+00  0.00000000E+00
  0.00000000E+00  0.00000000E+00  0.00000000E+00
  0.00000000E+00  0.00000000E+00  0.00000000E+00
  0.00000000E+00  0.00000000E+00  0.00000000E+00
  0.00000000E+00  0.00000000E+00  0.00000000E+00
  0.00000000E+00  0.00000000E+00  0.00000000E+00
  0.00000000E+00  0.00000000E+00  0.00000000E+00
  0.00000000E+00  0.00000000E+00  0.00000000E+00
  0.00000000E+00  0.00000000E+00  0.00000000E+00
  0.00000000E+00  0.00000000E+00  0.00000000E+00
  0.00000000E+00  0.00000000E+00  0.00000000E+00
  0.00000000E+00  0.00000000E+00  0.00000000E+00
  0.00000000E+00  0.00000000E+00  0.00000000E+00
  0.00000000E+00  0.00000000E+00  0.00000000E+00
  0.00000000E+00  0.00000000E+00  0.00000000E+00
  0.00000000E+00  0.00000000E+00  0.00000000E+00
  0.00000000E+00  0.00000000E+00  0.00000000E+00
  0.00000000E+00  0.00000000E+00  0.00000000E+00
  0.00000000E+00  0.00000000E+00  0.00000000E+00
  0.00000000E+00  0.00000000E+00  0.00000000E+00
  0.00000000E+00  0.00000000E+00  0.00000000E+00
  0.00000000E+00  0.00000000E+00  0.00000000E+00
  0.00000000E+00  0.00000000E+00  0.00000000E+00
  0.00000000E+00  0.00000000E+00  0.00000000E+00
  0.00000000E+00  0.00000000E+00  0.00000000E+00
  0.00000000E+00  0.00000000E+00  0.00000000E+00
  0.00000000E+00  0.00000000E+00  0.00000000E+00
  0.00000000E+00  0.00000000E+00  0.00000000E+00
  0.00000000E+00  0.00000000E+00  0.00000000E+00
  0.00000000E+00  0.00000000E+00  0.00000000E+00
  0.00000000E+00  0.00000000E+00  0.00000000E+00
  0.00000000E+00  0.00000000E+00  0.00000000E+00
  0.00000000E+00  0.00000000E+00  0.00000000E+00
  0.00000000E+00  0.00000000E+00  0.00000000E+00
  0.00000000E+00  0.00000000E+00  0.00000000E+00
  0.00000000E+00  0.00000000E+00  0.00000000E+00
  0.00000000E+00  0.00000000E+00  0.00000000E+00
  0.00000000E+00  0.00000000E+00  0.00000000E+00
  0.00000000E+00  0.00000000E+00  0.00000000E+00
  0.00000000E+00  0.00000000E+00  0.00000000E+00
  0.00000000E+00  0.00000000E+00  0.00000000E+00
  0.00000000E+00  0.00000000E+00  0.00000000E+00
  0.00000000E+00  0.00000000E+00  0.00000000E+00
  0.00000000E+00  0.00000000E+00  0.00000000E+00
  0.00000000E+00  0.00000000E+00  0.00000000E+00
  0.00000000E+00  0.00000000E+00  0.00000000E+00
  0.00000000E+00  0.00000000E+00  0.00000000E+00
  0.00000000E+00  0.00000000E+00  0.00000000E+00
  0.00000000E+00  0.00000000E+00  0.00000000E+00
  0.00000000E+00  0.00000000E+00  0.00000000E+00
  0.00000000E+00  0.00000000E+00  0.00000000E+00
  0.00000000E+00  0.00000000E+00  0.00000000E+00
  0.00000000E+00  0.00000000E+00  0.00000000E+00
  0.00000000E+00  0.00000000E+00  0.00000000E+00
  0.00000000E+00  0.00000000E+00  0.00000000E+00
  0.00000000E+00  0.00000000E+00  0.00000000E+00
  0.00000000E+00  0.00000000E+00  0.00000000E+00
  0.00000000E+00  0.00000000E+00  0.00000000E+00
  0.00000000E+00  0.00000000E+00  0.00000000E+00
  0.00000000E+00  0.00000000E+00  0.00000000E+00
  0.00000000E+00  0.00000000E+00  0.00000000E+00
  0.00000000E+00  0.00000000E+00  0.00000000E+00
  0.00000000E+00  0.00000000E+00  0.00000000E+00
  0.00000000E+00  0.00000000E+00  0.00000000E+00
  0.00000000E+00  0.00000000E+00  0.00000000E+00
  0.00000000E+00  0.00000000E+00  0.00000000E+00
  0.00000000E+00  0.00000000E+00  0.00000000E+00
  0.00000000E+00  0.00000000E+00  0.00000000E+00
  0.00000000E+00  0.00000000E+00  0.00000000E+00
  0.00000000E+00  0.00000000E+00  0.00000000E+00
  0.00000000E+00  0.00000000E+00  0.00000000E+00
  0.00000000E+00  0.00000000E+00  0.00000000E+00
  0.00000000E+00  0.00000000E+00  0.00000000E+00
  0.00000000E+00  0.00000000E+00  0.00000000E+00
  0.00000000E+00  0.00000000E+00  0.00000000E+00
  0.00000000E+00  0.00000000E+00  0.00000000E+00
  0.00000000E+00  0.00000000E+00  0.00000000E+00
  0.00000000E+00  0.00000000E+00  0.00000000E+00
  0.00000000E+00  0.00000000E+00  0.00000000E+00
  0.00000000E+00  0.00000000E+00  0.00000000E+00
  0.00000000E+00  0.00000000E+00  0.00000000E+00
  0.00000000E+00  0.00000000E+00  0.00000000E+00
  0.00000000E+00  0.00000000E+00  0.00000000E+00
  0.00000000E+00  0.00000000E+00  0.00000000E+00
  0.00000000E+00  0.00000000E+00  0.00000000E+00
  0.00000000E+00  0.00000000E+00  0.00000000E+00
  0.00000000E+00  0.00000000E+00  0.00000000E+00
  0.00000000E+00  0.00000000E+00  0.00000000E+00
  0.00000000E+00  0.00000000E+00  0.00000000E+00
  0.00000000E+00  0.00000000E+00  0.00000000E+00
  0.00000000E+00  0.00000000E+00  0.00000000E+00
  0.00000000E+00  0.00000000E+00  0.00000000E+00
  0.00000000E+00  0.00000000E+00  0.00000000E+00
  0.00000000E+00  0.00000000E+00  0.00000000E+00
  0.00000000E+00  0.00000000E+00  0.00000000E+00
  0.00000000E+00  0.00000000E+00  0.00000000E+00
  0.00000000E+00  0.00000000E+00  0.00000000E+00
  0.00000000E+00  0.00000000E+00  0.00000000E+00
  0.00000000E+00  0.00000000E+00  0.00000000E+00
  0.00000000E+00  0.00000000E+00  0.00000000E+00
  0.00000000E+00  0.00000000E+00  0.00000000E+00
  0.00000000E+00  0.00000000E+00  0.00000000E+00
  0.00000000E+00  0.00000000E+00  0.00000000E+00
  0.00000000E+00  0.00000000E+00  0.00000000E+00
  0.00000000E+00  0.00000000E+00  0.00000000E+00
  0.00000000E+00  0.00000000E+00  0.00000000E+00
  0.00000000E+00  0.00000000E+00  0.00000000E+00
  0.00000000E+00  0.00000000E+00  0.00000000E+00
  0.00000000E+00  0.00000000E+00  0.00000000E+00
  0.00000000E+00  0.00000000E+00  0.00000000E+00
  0.00000000E+00  0.00000000E+00  0.00000000E+00
  0.00000000E+00  0.00000000E+00  0.00000000E+00
  0.00000000E+00  0.00000000E+00  0.00000000E+00
