POSCAR                                  
   1.00000000000000     
    10.2447093445156590    0.0374743810963839    0.0536711850110791
     0.0375621408318104   10.2591878537980925   -0.0078190997755982
     0.0356850641711331   -0.0052208873271196    6.8513763672378118
   Na   Hf   Y    Zr   H 
     9     9     9     9   216
Direct
  0.1668458100091428  0.1673933389734188  0.2486431902410118
  0.1686787494690591  0.4940486415627845  0.2478999299234061
  0.4985112344665410  0.1667449904122620  0.2527839094039379
  0.4993640281338116  0.1638101021883358  0.7507894215696709
  0.6716611072758454  0.3322013595372368  0.9975322969204825
  0.3326523436004507  0.0010449473285306  0.5007954046798986
  0.9975950760147256  0.3323826305155535  0.9984491313170167
  0.8311210416161146  0.8406037286667782  0.2469712866688951
  0.9998065137199745  0.0044067803825456  0.0013834931617254
  0.1705013439116598  0.1642397662182944  0.7524931835675801
  0.1626869325131324  0.4944074594075047  0.7564319033608058
  0.8313078721398455  0.1736869990704051  0.7568371793195254
  0.8373069335511403  0.4973853386681597  0.2438391728760934
  0.4988412230805395  0.8422868087646123  0.7475275832462742
  0.9987498411065800  0.6701257876599129  0.4918625491411319
  0.8322223630346315  0.8366712441555748  0.7564579407291490
  0.6639949448249638  0.0102187840460388  0.0021469117934316
  0.0000343244832450  0.6674012906895612  0.0059127000167223
  0.3331507962274713  0.3268683995972310  0.4967833263728565
  0.1615337018982075  0.8367605396409203  0.2506277569269102
  0.4964606823674913  0.4942898405291132  0.2501754952503319
  0.3310604206313030  0.6660552958576673  0.5020109644354633
  0.6646986448757559  0.3294899031006580  0.4977533786361690
  0.6680662018001300  0.6677168175238961  0.5006956947722969
  0.3335435174995425  0.0050169335973322  0.0044652687953288
  0.8384096804035366  0.4983214265215992  0.7478268096890162
  0.0010063791172001  0.0010419397638373  0.4979838104441967
  0.3336440704066845  0.3213511314352431  0.0081492040132645
  0.1665206293353165  0.8411329619462791  0.7533773686187857
  0.8381646381741987  0.1624955450418852  0.2389301622452678
  0.5019478333494050  0.4914280352329570  0.7593676975417765
  0.3293936834024294  0.6665100771373815  0.0021284979820280
  0.5024184294042868  0.8376454320591691  0.2522957703237054
  0.0063616506789970  0.3290195252648900  0.4886238853498384
  0.6691419077520919  0.6649546272769555  0.0026152205129932
  0.6644625265613087  0.0055122687567319  0.4959461472067588
  0.1631280086094407  0.0839102343584130  0.0104202813277254
  0.1717012992155702  0.0818943665174672  0.4977912402461158
  0.1608838629032689  0.4122935779847339  0.0104204498227958
  0.4980928155398558  0.0904580859689403  0.0062858070960417
  0.3385101969851405  0.2419775499161361  0.2464300390915639
  0.1638585657800107  0.4181393726080600  0.4932286930165191
  0.4911715942139026  0.0842139647288818  0.4962364841277704
  0.3447800820322087  0.2494906485455957  0.7545878182184538
  0.1633393708010829  0.7499693844131343  0.9950932275029984
  0.5086940391934434  0.4120464866714855  0.0000806006884631
  0.3265280578572032  0.5796595494107635  0.2473018876204449
  0.1653128351364188  0.7501214400570504  0.5071240451378713
  0.8395820070105344  0.0800557824650667  0.9929107942606734
  0.6678316294565079  0.2499862226319038  0.2370574121291753
  0.4993210584395840  0.4152196276592832  0.5084218095608790
  0.3323912160835221  0.5791543577140317  0.7571771345594840
  0.8347875988996662  0.0852178391203182  0.5009534939118936
  0.6548927397041808  0.2505333838995156  0.7591824010614445
  0.5015166891256655  0.7480046816569725  0.9982093700683592
  0.3329375271478057  0.9187470416736900  0.2579989620449936
  0.8356360549783162  0.4148828319892530  0.0012587388056815
  0.6676770775497900  0.5821461998039439  0.2486888134102259
  0.4990508515056291  0.7501824398647514  0.5059869169665916
  0.3317139000486833  0.9204644086599814  0.7448645703568531
  0.0036415107762764  0.2503280251788880  0.2332938816205541
  0.8397359297214564  0.4121149580556462  0.4900957643637511
  0.6645954862337859  0.5850745704537843  0.7543974815809094
  0.0071788196676437  0.2515660193401175  0.7576936564318473
  0.8306992707211833  0.7546152854858832  0.0205916095425565
  0.6705797332805403  0.9177684191253306  0.2462997705835406
  0.0041718628128109  0.5768247848266128  0.2522185815909594
  0.8321060146643049  0.7535959156115908  0.4762737383645685
  0.6690233785188937  0.9227761468524491  0.7509943509940129
  0.0041109324914501  0.5864581950583556  0.7428097024006988
  0.9903449302977307  0.9174958178492076  0.2364758739449258
  0.9965247808113560  0.9208094115039742  0.7648932033243270
  0.0793098956959639  0.1712635406894805  0.0032476711152896
  0.0842378476354853  0.1665728193880511  0.4836225101806662
  0.0868098728228617  0.4885138548400434  0.0161080039042503
  0.4264885476787015  0.1648465148555900  0.0019713595481718
  0.2435391755546732  0.3284057880837565  0.2513862494986014
  0.0835012793854659  0.4957442986586003  0.4737061146503763
  0.4170594976849245  0.1544204359454469  0.5032186477466993
  0.2525940556215787  0.3294757953873315  0.7530822469786074
  0.0789611455346275  0.8427091950436036  0.9976090963280910
  0.4141691231239051  0.4958265267755735  0.9981244223834977
  0.2449825684385871  0.6617873990989622  0.2513282327654878
  0.0805109378356192  0.8331508342018168  0.5077429874376875
  0.7490090263459521  0.1743091205760550  0.0011537418738072
  0.5849046980052179  0.3236700109040456  0.2272577732446450
  0.4142074068115207  0.4960774413903053  0.5129331129888257
  0.2463311304934379  0.6624913872666198  0.7536558692082380
  0.7548217826297829  0.1678180073436621  0.4949067683410249
  0.5826021209091934  0.3201158076351902  0.7652557244217917
  0.4161272332002284  0.8336734370198826  0.0038617713003646
  0.2503819683263799  0.0060655523893587  0.2668668902340272
  0.7472491594048947  0.4953789175550583  0.9978549736205551
  0.5836307840189860  0.6643076160680508  0.2461386692251253
  0.4142370906665960  0.8459180106629134  0.4987208878669875
  0.2552794137331489  0.0017719799071969  0.7389822765335339
  0.9199183960924415  0.3308810343501634  0.2373081600066413
  0.7526444718650822  0.4968130066613554  0.4965774377267067
  0.5808295990488048  0.6719828029284898  0.7576240307286284
  0.9267895429236503  0.3296055625019534  0.7491760632785045
  0.7477496151287966  0.8385873918964606  0.0076212201074952
  0.5804718794659109  0.0118129997607070  0.2499402460442326
  0.9096456769335788  0.6672692469651835  0.2434092918227293
  0.7494507589286101  0.8367001467203679  0.4923348302687316
  0.5843122961108662  0.0121403966653872  0.7463886252781720
  0.9213460525178192  0.6703210439784684  0.7552159232109190
  0.9143711289939844  0.9972726305091868  0.2388936037552796
  0.9184230867648040  0.0055192326560700  0.7604275762097572
  0.1583721178445288  0.0107362721100301  0.1244689584523115
  0.1744220182897038  0.0028844817248839  0.6194918538120433
  0.1587181149548300  0.3276549186271467  0.1192058270601990
  0.5027464159525437  0.0047419727079969  0.1325260800548520
  0.3248814243488027  0.1574888758481237  0.3811794585451409
  0.1663791235746785  0.3317780641978914  0.6289966035784715
  0.4973236257209379  0.0063453702497753  0.6185464605464546
  0.3387317214938008  0.1668496834955064  0.8703489876070662
  0.1644886436735291  0.6558963993990687  0.1288065220779160
  0.5122796697167189  0.3239009792715493  0.1250617303468999
  0.3220674973544746  0.4987517491214817  0.3748144027700491
  0.1603668888176699  0.6636246310690765  0.6304803854163765
  0.8373026778673420  0.9966291871313260  0.1200478072302644
  0.6632443816552183  0.1650646523819930  0.3651094904288854
  0.4973988343513653  0.3219939303117485  0.6284277725634340
  0.3331852173542700  0.4941585647853088  0.8786724629921636
  0.8298049882278136  0.0077497438184153  0.6251713692945344
  0.6619955680177156  0.1719933305919881  0.8763983800574167
  0.4982470206606351  0.6675449631534036  0.1238841694685462
  0.3334436926070623  0.8402381667893408  0.3796281913277255
  0.8387891849936295  0.3290202153191046  0.1219718022407434
  0.6666464847911442  0.4995279575265883  0.3714162452814094
  0.4982005775663652  0.6697844859197843  0.6317261803184095
  0.3374722031351354  0.8319132567962910  0.8785801279451846
  0.0096108995803377  0.1658709668860894  0.3688197074765043
  0.8386090327391500  0.3288920969122842  0.6144983067534326
  0.6698182752918385  0.4937782682915355  0.8813359971574002
  0.0009320137507487  0.1703888739145398  0.8804546302767022
  0.8332539125067271  0.6837850180585292  0.1258488946640384
  0.6737958694072859  0.8376365985902510  0.3721538025886275
  0.0125995871160001  0.4992085965072803  0.3684931181981739
  0.8378669594758605  0.6730080746804461  0.6269148593128975
  0.6605549969965523  0.8423013513801294  0.8783655489491693
  0.0016625690314882  0.4971937279627241  0.8831583398896328
  0.9855333540185001  0.8329394958755074  0.3689607336749745
  0.9988160043970638  0.8373395388470968  0.8773485798296718
  0.0814012372069968  0.0133650239623009  0.2371201051993310
  0.0770027119386825  0.0050163605067439  0.7613550322233564
  0.0819688980323292  0.3303828176828247  0.2355480422127201
  0.4158545340002249  0.0103443241652172  0.2657381648923618
  0.2540522374685636  0.1586255344995635  0.4750770851409456
  0.0841799799654126  0.3243334584250164  0.7716184384332294
  0.4161944473760855  0.0096560757108577  0.7393547208433162
  0.2442682228245801  0.1661063667594291  0.0168616938516948
  0.0848155866069362  0.6545226108414823  0.2456386481298836
  0.4219735056167977  0.3195074547383285  0.2503074489934392
  0.2451045577372284  0.4971359336633583  0.4999095313325057
  0.0828045691367691  0.6750112580338694  0.7520685888131027
  0.7501015575238554  0.9989333012937465  0.2476692293239964
  0.5784583772266600  0.1654842179327645  0.5006707443504226
  0.4177403504413064  0.3208923994609378  0.7512730679056361
  0.2493523861801563  0.4966661047641949  0.0079391464331451
  0.7480142902065623  0.0012220751520360  0.7506036522262960
  0.5846414247371285  0.1778839943248656  0.0031580560200837
  0.4175662901123474  0.6690915831546960  0.2464866801042902
  0.2531547116447470  0.8398775056975509  0.4991569412724388
  0.7479976147330945  0.3324445477183247  0.2397242384762350
  0.5852601213490445  0.4986485041063062  0.4991399668098069
  0.4154356865422173  0.6622052858873531  0.7561489223875455
  0.2508350844488305  0.8349039851781015  0.0025278392334940
  0.9180367019349802  0.1682235083872357  0.5011989480501953
  0.7460911094012204  0.3358536504252712  0.7549139504950020
  0.5843498582699738  0.4876683767452050  0.0033082578418302
  0.9232888302461646  0.1643841160139772  0.9917403192450394
  0.7524013478643212  0.6721944179991013  0.2471784427092558
  0.5845735026980421  0.8398394372661571  0.5008852724749602
  0.9224390276397543  0.4943100758265544  0.4945430967257352
  0.7491337401128320  0.6696464791345065  0.7550735062739875
  0.5817385864967051  0.8295969910332772  0.0017507839435353
  0.9214523434190340  0.4968240933012069  0.0000986055062668
  0.9105200914172542  0.8370126819359243  0.4931264799895771
  0.9138942307648037  0.8419748870812214  0.0037452380508682
  0.0080576348522285  0.1706320720115500  0.1199104545986245
  0.0012501802238702  0.1687671381472171  0.6225548617397791
  0.0090155233483955  0.4909345690537279  0.1285508814095735
  0.3290535601760709  0.1656829280834486  0.1415305456100384
  0.1701150702357879  0.3299616506143366  0.3613591866871175
  0.0065185421749945  0.5015226522585507  0.6165368434645018
  0.3371604823333101  0.1601008698109254  0.6229612809301983
  0.1590653038668890  0.3280461331975033  0.8829610906868339
  0.9916526348774255  0.8410134245196659  0.1237818161001201
  0.3252691400460748  0.4964506696977296  0.1243569930281936
  0.1659470773205243  0.6561995983481879  0.3692802013899410
  0.9928787427243293  0.8306743594838508  0.6259619553064013
  0.6598678066179957  0.1735106804551165  0.1225860943697441
  0.4985074997770553  0.3220959861853885  0.3688332612744745
  0.3297829616604062  0.4952627948214925  0.6298491279025100
  0.1619260555918558  0.6610354710997370  0.8728296195804504
  0.6653685186385303  0.1638434860863711  0.6287750599615833
  0.5061128376460431  0.3233005467345222  0.8815852491667826
  0.3344120308935459  0.8332040317311211  0.1252137275921612
  0.1770635707158732  0.0100165069934093  0.3723104910310155
  0.6654054299961132  0.4936378322089681  0.1208964009433657
  0.4992772287205298  0.6680818690771062  0.3741648271245523
  0.3345600537976665  0.8376621131583164  0.6227937237939756
  0.1599070430904845  0.0046371938760927  0.8820775768208193
  0.8359103452223025  0.3251783478455934  0.3720491982537197
  0.6670994223839131  0.4992195514499969  0.6266589920954715
  0.4975591734946221  0.6733329133996193  0.8785334335581894
  0.8382865653803933  0.3338379462398819  0.8816565967390275
  0.6704499695620285  0.8396675330292425  0.1236622949891313
  0.4935772464357555  0.0055482359887975  0.3754520722072741
  0.8327144539179869  0.6800286173185199  0.3668515109871961
  0.6678088262828439  0.8405744982141528  0.6255609876217747
  0.5047765307471010  0.0050319895861151  0.8752255372139572
  0.8378628143266056  0.6699879481750486  0.8770433507100677
  0.8317558558755351  0.9991657205747018  0.3697701974813725
  0.8340245876067556  0.0047102022756178  0.8783612714381803
  0.0098665560894204  0.0832786006702548  0.2406655145634105
  0.9990593850254186  0.0811694346906080  0.7568672269662287
  0.0047804884734219  0.4134995916184820  0.2360219839918258
  0.3388483906940962  0.0797718913387300  0.2587164857443724
  0.1670166069304599  0.2445471332845983  0.4967049924247320
  0.0042756608730770  0.4100392407556015  0.7528667850213537
  0.3395457824982842  0.0810229914236160  0.7412538646060227
  0.1581111535587496  0.2507123560538105  0.0095909008063089
  0.9884032814880896  0.7553186081248953  0.2463266602774823
  0.3251748588204251  0.4150929421095668  0.2409875242746864
  0.1609808414305505  0.5800436732086922  0.4974954732816030
  0.0061296875830124  0.7515577773555293  0.7552979619944580
  0.6532360052256294  0.0874118508983273  0.2515764445846500
  0.5019766445791518  0.2431005018401606  0.5094420105395230
  0.3304912729743705  0.4122331251317419  0.7635921079525048
  0.1659537505099564  0.5774928498969985  0.0101880436033142
  0.6597653272727584  0.0861600558011020  0.7481746660829742
  0.5085834369272320  0.2497060751785085  0.9956284742898021
  0.3344323435404419  0.7512021006591425  0.2498092400507304
  0.1717550218371855  0.9207621786689302  0.5041096643916063
  0.6724898941657216  0.4122445473476830  0.2336876000601293
  0.5003395707037583  0.5840003863991043  0.5098497317076323
  0.3284372351354037  0.7467477342066076  0.7538607477126149
  0.1581659648316815  0.9207591148763541  0.9991913538048749
  0.8344748886564091  0.2489926627384094  0.4847561483134939
  0.6700161653642027  0.4124585171519399  0.7620238489798652
  0.4997634608162329  0.5842396978059270  0.9968400912948212
  0.8313592783430011  0.2572324968878021  0.0046877568810686
  0.6734756276095055  0.7561078321647230  0.2474430275176189
  0.4911912332785349  0.9213537367783644  0.4998920761245245
  0.8390034659019037  0.5827237883810312  0.4909645409880454
  0.6642133914637327  0.7541036890068753  0.7546571779089106
  0.5007803957532602  0.9145812165125591  0.0030922315883615
  0.8343053439436687  0.5854263720207911  0.0046146795956119
  0.8329557926034212  0.9197696588790905  0.4914565627504004
  0.8401646825491795  0.9180860758452809  0.0052917487494426
 
  0.00000000E+00  0.00000000E+00  0.00000000E+00
  0.00000000E+00  0.00000000E+00  0.00000000E+00
  0.00000000E+00  0.00000000E+00  0.00000000E+00
  0.00000000E+00  0.00000000E+00  0.00000000E+00
  0.00000000E+00  0.00000000E+00  0.00000000E+00
  0.00000000E+00  0.00000000E+00  0.00000000E+00
  0.00000000E+00  0.00000000E+00  0.00000000E+00
  0.00000000E+00  0.00000000E+00  0.00000000E+00
  0.00000000E+00  0.00000000E+00  0.00000000E+00
  0.00000000E+00  0.00000000E+00  0.00000000E+00
  0.00000000E+00  0.00000000E+00  0.00000000E+00
  0.00000000E+00  0.00000000E+00  0.00000000E+00
  0.00000000E+00  0.00000000E+00  0.00000000E+00
  0.00000000E+00  0.00000000E+00  0.00000000E+00
  0.00000000E+00  0.00000000E+00  0.00000000E+00
  0.00000000E+00  0.00000000E+00  0.00000000E+00
  0.00000000E+00  0.00000000E+00  0.00000000E+00
  0.00000000E+00  0.00000000E+00  0.00000000E+00
  0.00000000E+00  0.00000000E+00  0.00000000E+00
  0.00000000E+00  0.00000000E+00  0.00000000E+00
  0.00000000E+00  0.00000000E+00  0.00000000E+00
  0.00000000E+00  0.00000000E+00  0.00000000E+00
  0.00000000E+00  0.00000000E+00  0.00000000E+00
  0.00000000E+00  0.00000000E+00  0.00000000E+00
  0.00000000E+00  0.00000000E+00  0.00000000E+00
  0.00000000E+00  0.00000000E+00  0.00000000E+00
  0.00000000E+00  0.00000000E+00  0.00000000E+00
  0.00000000E+00  0.00000000E+00  0.00000000E+00
  0.00000000E+00  0.00000000E+00  0.00000000E+00
  0.00000000E+00  0.00000000E+00  0.00000000E+00
  0.00000000E+00  0.00000000E+00  0.00000000E+00
  0.00000000E+00  0.00000000E+00  0.00000000E+00
  0.00000000E+00  0.00000000E+00  0.00000000E+00
  0.00000000E+00  0.00000000E+00  0.00000000E+00
  0.00000000E+00  0.00000000E+00  0.00000000E+00
  0.00000000E+00  0.00000000E+00  0.00000000E+00
  0.00000000E+00  0.00000000E+00  0.00000000E+00
  0.00000000E+00  0.00000000E+00  0.00000000E+00
  0.00000000E+00  0.00000000E+00  0.00000000E+00
  0.00000000E+00  0.00000000E+00  0.00000000E+00
  0.00000000E+00  0.00000000E+00  0.00000000E+00
  0.00000000E+00  0.00000000E+00  0.00000000E+00
  0.00000000E+00  0.00000000E+00  0.00000000E+00
  0.00000000E+00  0.00000000E+00  0.00000000E+00
  0.00000000E+00  0.00000000E+00  0.00000000E+00
  0.00000000E+00  0.00000000E+00  0.00000000E+00
  0.00000000E+00  0.00000000E+00  0.00000000E+00
  0.00000000E+00  0.00000000E+00  0.00000000E+00
  0.00000000E+00  0.00000000E+00  0.00000000E+00
  0.00000000E+00  0.00000000E+00  0.00000000E+00
  0.00000000E+00  0.00000000E+00  0.00000000E+00
  0.00000000E+00  0.00000000E+00  0.00000000E+00
  0.00000000E+00  0.00000000E+00  0.00000000E+00
  0.00000000E+00  0.00000000E+00  0.00000000E+00
  0.00000000E+00  0.00000000E+00  0.00000000E+00
  0.00000000E+00  0.00000000E+00  0.00000000E+00
  0.00000000E+00  0.00000000E+00  0.00000000E+00
  0.00000000E+00  0.00000000E+00  0.00000000E+00
  0.00000000E+00  0.00000000E+00  0.00000000E+00
  0.00000000E+00  0.00000000E+00  0.00000000E+00
  0.00000000E+00  0.00000000E+00  0.00000000E+00
  0.00000000E+00  0.00000000E+00  0.00000000E+00
  0.00000000E+00  0.00000000E+00  0.00000000E+00
  0.00000000E+00  0.00000000E+00  0.00000000E+00
  0.00000000E+00  0.00000000E+00  0.00000000E+00
  0.00000000E+00  0.00000000E+00  0.00000000E+00
  0.00000000E+00  0.00000000E+00  0.00000000E+00
  0.00000000E+00  0.00000000E+00  0.00000000E+00
  0.00000000E+00  0.00000000E+00  0.00000000E+00
  0.00000000E+00  0.00000000E+00  0.00000000E+00
  0.00000000E+00  0.00000000E+00  0.00000000E+00
  0.00000000E+00  0.00000000E+00  0.00000000E+00
  0.00000000E+00  0.00000000E+00  0.00000000E+00
  0.00000000E+00  0.00000000E+00  0.00000000E+00
  0.00000000E+00  0.00000000E+00  0.00000000E+00
  0.00000000E+00  0.00000000E+00  0.00000000E+00
  0.00000000E+00  0.00000000E+00  0.00000000E+00
  0.00000000E+00  0.00000000E+00  0.00000000E+00
  0.00000000E+00  0.00000000E+00  0.00000000E+00
  0.00000000E+00  0.00000000E+00  0.00000000E+00
  0.00000000E+00  0.00000000E+00  0.00000000E+00
  0.00000000E+00  0.00000000E+00  0.00000000E+00
  0.00000000E+00  0.00000000E+00  0.00000000E+00
  0.00000000E+00  0.00000000E+00  0.00000000E+00
  0.00000000E+00  0.00000000E+00  0.00000000E+00
  0.00000000E+00  0.00000000E+00  0.00000000E+00
  0.00000000E+00  0.00000000E+00  0.00000000E+00
  0.00000000E+00  0.00000000E+00  0.00000000E+00
  0.00000000E+00  0.00000000E+00  0.00000000E+00
  0.00000000E+00  0.00000000E+00  0.00000000E+00
  0.00000000E+00  0.00000000E+00  0.00000000E+00
  0.00000000E+00  0.00000000E+00  0.00000000E+00
  0.00000000E+00  0.00000000E+00  0.00000000E+00
  0.00000000E+00  0.00000000E+00  0.00000000E+00
  0.00000000E+00  0.00000000E+00  0.00000000E+00
  0.00000000E+00  0.00000000E+00  0.00000000E+00
  0.00000000E+00  0.00000000E+00  0.00000000E+00
  0.00000000E+00  0.00000000E+00  0.00000000E+00
  0.00000000E+00  0.00000000E+00  0.00000000E+00
  0.00000000E+00  0.00000000E+00  0.00000000E+00
  0.00000000E+00  0.00000000E+00  0.00000000E+00
  0.00000000E+00  0.00000000E+00  0.00000000E+00
  0.00000000E+00  0.00000000E+00  0.00000000E+00
  0.00000000E+00  0.00000000E+00  0.00000000E+00
  0.00000000E+00  0.00000000E+00  0.00000000E+00
  0.00000000E+00  0.00000000E+00  0.00000000E+00
  0.00000000E+00  0.00000000E+00  0.00000000E+00
  0.00000000E+00  0.00000000E+00  0.00000000E+00
  0.00000000E+00  0.00000000E+00  0.00000000E+00
  0.00000000E+00  0.00000000E+00  0.00000000E+00
  0.00000000E+00  0.00000000E+00  0.00000000E+00
  0.00000000E+00  0.00000000E+00  0.00000000E+00
  0.00000000E+00  0.00000000E+00  0.00000000E+00
  0.00000000E+00  0.00000000E+00  0.00000000E+00
  0.00000000E+00  0.00000000E+00  0.00000000E+00
  0.00000000E+00  0.00000000E+00  0.00000000E+00
  0.00000000E+00  0.00000000E+00  0.00000000E+00
  0.00000000E+00  0.00000000E+00  0.00000000E+00
  0.00000000E+00  0.00000000E+00  0.00000000E+00
  0.00000000E+00  0.00000000E+00  0.00000000E+00
  0.00000000E+00  0.00000000E+00  0.00000000E+00
  0.00000000E+00  0.00000000E+00  0.00000000E+00
  0.00000000E+00  0.00000000E+00  0.00000000E+00
  0.00000000E+00  0.00000000E+00  0.00000000E+00
  0.00000000E+00  0.00000000E+00  0.00000000E+00
  0.00000000E+00  0.00000000E+00  0.00000000E+00
  0.00000000E+00  0.00000000E+00  0.00000000E+00
  0.00000000E+00  0.00000000E+00  0.00000000E+00
  0.00000000E+00  0.00000000E+00  0.00000000E+00
  0.00000000E+00  0.00000000E+00  0.00000000E+00
  0.00000000E+00  0.00000000E+00  0.00000000E+00
  0.00000000E+00  0.00000000E+00  0.00000000E+00
  0.00000000E+00  0.00000000E+00  0.00000000E+00
  0.00000000E+00  0.00000000E+00  0.00000000E+00
  0.00000000E+00  0.00000000E+00  0.00000000E+00
  0.00000000E+00  0.00000000E+00  0.00000000E+00
  0.00000000E+00  0.00000000E+00  0.00000000E+00
  0.00000000E+00  0.00000000E+00  0.00000000E+00
  0.00000000E+00  0.00000000E+00  0.00000000E+00
  0.00000000E+00  0.00000000E+00  0.00000000E+00
  0.00000000E+00  0.00000000E+00  0.00000000E+00
  0.00000000E+00  0.00000000E+00  0.00000000E+00
  0.00000000E+00  0.00000000E+00  0.00000000E+00
  0.00000000E+00  0.00000000E+00  0.00000000E+00
  0.00000000E+00  0.00000000E+00  0.00000000E+00
  0.00000000E+00  0.00000000E+00  0.00000000E+00
  0.00000000E+00  0.00000000E+00  0.00000000E+00
  0.00000000E+00  0.00000000E+00  0.00000000E+00
  0.00000000E+00  0.00000000E+00  0.00000000E+00
  0.00000000E+00  0.00000000E+00  0.00000000E+00
  0.00000000E+00  0.00000000E+00  0.00000000E+00
  0.00000000E+00  0.00000000E+00  0.00000000E+00
  0.00000000E+00  0.00000000E+00  0.00000000E+00
  0.00000000E+00  0.00000000E+00  0.00000000E+00
  0.00000000E+00  0.00000000E+00  0.00000000E+00
  0.00000000E+00  0.00000000E+00  0.00000000E+00
  0.00000000E+00  0.00000000E+00  0.00000000E+00
  0.00000000E+00  0.00000000E+00  0.00000000E+00
  0.00000000E+00  0.00000000E+00  0.00000000E+00
  0.00000000E+00  0.00000000E+00  0.00000000E+00
  0.00000000E+00  0.00000000E+00  0.00000000E+00
  0.00000000E+00  0.00000000E+00  0.00000000E+00
  0.00000000E+00  0.00000000E+00  0.00000000E+00
  0.00000000E+00  0.00000000E+00  0.00000000E+00
  0.00000000E+00  0.00000000E+00  0.00000000E+00
  0.00000000E+00  0.00000000E+00  0.00000000E+00
  0.00000000E+00  0.00000000E+00  0.00000000E+00
  0.00000000E+00  0.00000000E+00  0.00000000E+00
  0.00000000E+00  0.00000000E+00  0.00000000E+00
  0.00000000E+00  0.00000000E+00  0.00000000E+00
  0.00000000E+00  0.00000000E+00  0.00000000E+00
  0.00000000E+00  0.00000000E+00  0.00000000E+00
  0.00000000E+00  0.00000000E+00  0.00000000E+00
  0.00000000E+00  0.00000000E+00  0.00000000E+00
  0.00000000E+00  0.00000000E+00  0.00000000E+00
  0.00000000E+00  0.00000000E+00  0.00000000E+00
  0.00000000E+00  0.00000000E+00  0.00000000E+00
  0.00000000E+00  0.00000000E+00  0.00000000E+00
  0.00000000E+00  0.00000000E+00  0.00000000E+00
  0.00000000E+00  0.00000000E+00  0.00000000E+00
  0.00000000E+00  0.00000000E+00  0.00000000E+00
  0.00000000E+00  0.00000000E+00  0.00000000E+00
  0.00000000E+00  0.00000000E+00  0.00000000E+00
  0.00000000E+00  0.00000000E+00  0.00000000E+00
  0.00000000E+00  0.00000000E+00  0.00000000E+00
  0.00000000E+00  0.00000000E+00  0.00000000E+00
  0.00000000E+00  0.00000000E+00  0.00000000E+00
  0.00000000E+00  0.00000000E+00  0.00000000E+00
  0.00000000E+00  0.00000000E+00  0.00000000E+00
  0.00000000E+00  0.00000000E+00  0.00000000E+00
  0.00000000E+00  0.00000000E+00  0.00000000E+00
  0.00000000E+00  0.00000000E+00  0.00000000E+00
  0.00000000E+00  0.00000000E+00  0.00000000E+00
  0.00000000E+00  0.00000000E+00  0.00000000E+00
  0.00000000E+00  0.00000000E+00  0.00000000E+00
  0.00000000E+00  0.00000000E+00  0.00000000E+00
  0.00000000E+00  0.00000000E+00  0.00000000E+00
  0.00000000E+00  0.00000000E+00  0.00000000E+00
  0.00000000E+00  0.00000000E+00  0.00000000E+00
  0.00000000E+00  0.00000000E+00  0.00000000E+00
  0.00000000E+00  0.00000000E+00  0.00000000E+00
  0.00000000E+00  0.00000000E+00  0.00000000E+00
  0.00000000E+00  0.00000000E+00  0.00000000E+00
  0.00000000E+00  0.00000000E+00  0.00000000E+00
  0.00000000E+00  0.00000000E+00  0.00000000E+00
  0.00000000E+00  0.00000000E+00  0.00000000E+00
  0.00000000E+00  0.00000000E+00  0.00000000E+00
  0.00000000E+00  0.00000000E+00  0.00000000E+00
  0.00000000E+00  0.00000000E+00  0.00000000E+00
  0.00000000E+00  0.00000000E+00  0.00000000E+00
  0.00000000E+00  0.00000000E+00  0.00000000E+00
  0.00000000E+00  0.00000000E+00  0.00000000E+00
  0.00000000E+00  0.00000000E+00  0.00000000E+00
  0.00000000E+00  0.00000000E+00  0.00000000E+00
  0.00000000E+00  0.00000000E+00  0.00000000E+00
  0.00000000E+00  0.00000000E+00  0.00000000E+00
  0.00000000E+00  0.00000000E+00  0.00000000E+00
  0.00000000E+00  0.00000000E+00  0.00000000E+00
  0.00000000E+00  0.00000000E+00  0.00000000E+00
  0.00000000E+00  0.00000000E+00  0.00000000E+00
  0.00000000E+00  0.00000000E+00  0.00000000E+00
  0.00000000E+00  0.00000000E+00  0.00000000E+00
  0.00000000E+00  0.00000000E+00  0.00000000E+00
  0.00000000E+00  0.00000000E+00  0.00000000E+00
  0.00000000E+00  0.00000000E+00  0.00000000E+00
  0.00000000E+00  0.00000000E+00  0.00000000E+00
  0.00000000E+00  0.00000000E+00  0.00000000E+00
  0.00000000E+00  0.00000000E+00  0.00000000E+00
  0.00000000E+00  0.00000000E+00  0.00000000E+00
  0.00000000E+00  0.00000000E+00  0.00000000E+00
  0.00000000E+00  0.00000000E+00  0.00000000E+00
  0.00000000E+00  0.00000000E+00  0.00000000E+00
  0.00000000E+00  0.00000000E+00  0.00000000E+00
  0.00000000E+00  0.00000000E+00  0.00000000E+00
  0.00000000E+00  0.00000000E+00  0.00000000E+00
  0.00000000E+00  0.00000000E+00  0.00000000E+00
  0.00000000E+00  0.00000000E+00  0.00000000E+00
  0.00000000E+00  0.00000000E+00  0.00000000E+00
  0.00000000E+00  0.00000000E+00  0.00000000E+00
  0.00000000E+00  0.00000000E+00  0.00000000E+00
  0.00000000E+00  0.00000000E+00  0.00000000E+00
  0.00000000E+00  0.00000000E+00  0.00000000E+00
  0.00000000E+00  0.00000000E+00  0.00000000E+00
  0.00000000E+00  0.00000000E+00  0.00000000E+00
  0.00000000E+00  0.00000000E+00  0.00000000E+00
  0.00000000E+00  0.00000000E+00  0.00000000E+00
  0.00000000E+00  0.00000000E+00  0.00000000E+00
  0.00000000E+00  0.00000000E+00  0.00000000E+00
  0.00000000E+00  0.00000000E+00  0.00000000E+00
  0.00000000E+00  0.00000000E+00  0.00000000E+00
  0.00000000E+00  0.00000000E+00  0.00000000E+00
  0.00000000E+00  0.00000000E+00  0.00000000E+00
