generated by phonopy                    
   1.00000000000000     
     0.0000000000000000    3.2770550623502803    3.2770550623503416
     3.2770550623503056    0.0000000000000000    3.2770550623503416
     3.2770550623503056    3.2770550623502803    0.0000000000000000
   Na   Zr   Mg   Hf   H 
     1     1     1     1    24
Direct
  0.2500000000000000  0.2500000000000000  0.2500000000000000
  0.7500000000000000  0.7500000000000000  0.7500000000000000
  0.0000000000000000  0.0000000000000000  0.0000000000000000
  0.5000000000000000  0.5000000000000000  0.5000000000000000
  0.1237521623053297  0.8964277462314740  0.6230167691936970
  0.8964277462314740  0.1237521623053297  0.3568033222694922
  0.6230167691936970  0.3568033222694922  0.1237521623053297
  0.3568033222694922  0.6230167691936970  0.8964277462314740
  0.6230167691936970  0.1237521623053297  0.8964277462314740
  0.3568033222694922  0.8964277462314740  0.1237521623053297
  0.1237521623053297  0.6230167691936970  0.3568033222694922
  0.8964277462314740  0.3568033222694922  0.6230167691936970
  0.8964277462314740  0.6230167691936970  0.1237521623053297
  0.1237521623053297  0.3568033222694922  0.8964277462314740
  0.3568033222694922  0.1237521623053297  0.6230167691936970
  0.6230167691936970  0.8964277462314740  0.3568033222694922
  0.1237521623053297  0.3568033222694922  0.6230167691936970
  0.3568033222694922  0.1237521623053297  0.8964277462314740
  0.6230167691936970  0.8964277462314740  0.1237521623053297
  0.8964277462314740  0.6230167691936970  0.3568033222694922
  0.6230167691936970  0.1237521623053297  0.3568033222694922
  0.8964277462314740  0.3568033222694922  0.1237521623053297
  0.1237521623053297  0.6230167691936970  0.8964277462314740
  0.3568033222694922  0.8964277462314740  0.6230167691936970
  0.3568033222694922  0.6230167691936970  0.1237521623053297
  0.1237521623053297  0.8964277462314740  0.3568033222694922
  0.8964277462314740  0.1237521623053297  0.6230167691936970
  0.6230167691936970  0.3568033222694922  0.8964277462314740
 
  0.00000000E+00  0.00000000E+00  0.00000000E+00
  0.00000000E+00  0.00000000E+00  0.00000000E+00
  0.00000000E+00  0.00000000E+00  0.00000000E+00
  0.00000000E+00  0.00000000E+00  0.00000000E+00
  0.00000000E+00  0.00000000E+00  0.00000000E+00
  0.00000000E+00  0.00000000E+00  0.00000000E+00
  0.00000000E+00  0.00000000E+00  0.00000000E+00
  0.00000000E+00  0.00000000E+00  0.00000000E+00
  0.00000000E+00  0.00000000E+00  0.00000000E+00
  0.00000000E+00  0.00000000E+00  0.00000000E+00
  0.00000000E+00  0.00000000E+00  0.00000000E+00
  0.00000000E+00  0.00000000E+00  0.00000000E+00
  0.00000000E+00  0.00000000E+00  0.00000000E+00
  0.00000000E+00  0.00000000E+00  0.00000000E+00
  0.00000000E+00  0.00000000E+00  0.00000000E+00
  0.00000000E+00  0.00000000E+00  0.00000000E+00
  0.00000000E+00  0.00000000E+00  0.00000000E+00
  0.00000000E+00  0.00000000E+00  0.00000000E+00
  0.00000000E+00  0.00000000E+00  0.00000000E+00
  0.00000000E+00  0.00000000E+00  0.00000000E+00
  0.00000000E+00  0.00000000E+00  0.00000000E+00
  0.00000000E+00  0.00000000E+00  0.00000000E+00
  0.00000000E+00  0.00000000E+00  0.00000000E+00
  0.00000000E+00  0.00000000E+00  0.00000000E+00
  0.00000000E+00  0.00000000E+00  0.00000000E+00
  0.00000000E+00  0.00000000E+00  0.00000000E+00
  0.00000000E+00  0.00000000E+00  0.00000000E+00
  0.00000000E+00  0.00000000E+00  0.00000000E+00
