generated by phonopy                    
   1.00000000000000     
     0.0000000000000000    3.2511068502377709    3.2511068502378304
     3.2511068502377953    0.0000000000000000    3.2511068502378304
     3.2511068502377953    3.2511068502377709    0.0000000000000000
   Mg   Zr   Sc   Y    H 
     1     1     1     1    24
Direct
  0.2500000000000000  0.2500000000000000  0.2500000000000000
  0.7500000000000000  0.7500000000000000  0.7500000000000000
  0.0000000000000000  0.0000000000000000  0.0000000000000000
  0.5000000000000000  0.5000000000000000  0.5000000000000000
  0.1302398736091561  0.8896016606146588  0.6198615754044994
  0.8896016606146588  0.1302398736091561  0.3602968903716857
  0.6198615754044994  0.3602968903716857  0.1302398736091561
  0.3602968903716857  0.6198615754044994  0.8896016606146588
  0.6198615754044994  0.1302398736091561  0.8896016606146588
  0.3602968903716857  0.8896016606146588  0.1302398736091561
  0.1302398736091561  0.6198615754044994  0.3602968903716857
  0.8896016606146588  0.3602968903716857  0.6198615754044994
  0.8896016606146588  0.6198615754044994  0.1302398736091561
  0.1302398736091561  0.3602968903716857  0.8896016606146588
  0.3602968903716857  0.1302398736091561  0.6198615754044994
  0.6198615754044994  0.8896016606146588  0.3602968903716857
  0.1302398736091561  0.3602968903716857  0.6198615754044994
  0.3602968903716857  0.1302398736091561  0.8896016606146588
  0.6198615754044994  0.8896016606146588  0.1302398736091561
  0.8896016606146588  0.6198615754044994  0.3602968903716857
  0.6198615754044994  0.1302398736091561  0.3602968903716857
  0.8896016606146588  0.3602968903716857  0.1302398736091561
  0.1302398736091561  0.6198615754044994  0.8896016606146588
  0.3602968903716857  0.8896016606146588  0.6198615754044994
  0.3602968903716857  0.6198615754044994  0.1302398736091561
  0.1302398736091561  0.8896016606146588  0.3602968903716857
  0.8896016606146588  0.1302398736091561  0.6198615754044994
  0.6198615754044994  0.3602968903716857  0.8896016606146588
 
  0.00000000E+00  0.00000000E+00  0.00000000E+00
  0.00000000E+00  0.00000000E+00  0.00000000E+00
  0.00000000E+00  0.00000000E+00  0.00000000E+00
  0.00000000E+00  0.00000000E+00  0.00000000E+00
  0.00000000E+00  0.00000000E+00  0.00000000E+00
  0.00000000E+00  0.00000000E+00  0.00000000E+00
  0.00000000E+00  0.00000000E+00  0.00000000E+00
  0.00000000E+00  0.00000000E+00  0.00000000E+00
  0.00000000E+00  0.00000000E+00  0.00000000E+00
  0.00000000E+00  0.00000000E+00  0.00000000E+00
  0.00000000E+00  0.00000000E+00  0.00000000E+00
  0.00000000E+00  0.00000000E+00  0.00000000E+00
  0.00000000E+00  0.00000000E+00  0.00000000E+00
  0.00000000E+00  0.00000000E+00  0.00000000E+00
  0.00000000E+00  0.00000000E+00  0.00000000E+00
  0.00000000E+00  0.00000000E+00  0.00000000E+00
  0.00000000E+00  0.00000000E+00  0.00000000E+00
  0.00000000E+00  0.00000000E+00  0.00000000E+00
  0.00000000E+00  0.00000000E+00  0.00000000E+00
  0.00000000E+00  0.00000000E+00  0.00000000E+00
  0.00000000E+00  0.00000000E+00  0.00000000E+00
  0.00000000E+00  0.00000000E+00  0.00000000E+00
  0.00000000E+00  0.00000000E+00  0.00000000E+00
  0.00000000E+00  0.00000000E+00  0.00000000E+00
  0.00000000E+00  0.00000000E+00  0.00000000E+00
  0.00000000E+00  0.00000000E+00  0.00000000E+00
  0.00000000E+00  0.00000000E+00  0.00000000E+00
  0.00000000E+00  0.00000000E+00  0.00000000E+00
