generated by phonopy                    
   1.00000000000000     
     0.0000000000000000    3.3065722135891540    3.3065722135893099
     3.3065722135892193    0.0000000000000000    3.3065722135893099
     3.3065722135892193    3.3065722135891540    0.0000000000000000
   Ca   Y    Sr   Sc   H 
     1     1     1     1    24
Direct
  0.2500000000000000  0.2500000000000000  0.2500000000000000
  0.7500000000000000  0.7500000000000000  0.7500000000000000
  0.0000000000000000  0.0000000000000000  0.0000000000000000
  0.5000000000000000  0.5000000000000000  0.5000000000000000
  0.1379613188568740  0.8722973555659337  0.6134576154670626
  0.8722973555659337  0.1379613188568740  0.3762837101101297
  0.6134576154670626  0.3762837101101297  0.1379613188568740
  0.3762837101101297  0.6134576154670626  0.8722973555659337
  0.6134576154670626  0.1379613188568740  0.8722973555659337
  0.3762837101101297  0.8722973555659337  0.1379613188568740
  0.1379613188568740  0.6134576154670626  0.3762837101101297
  0.8722973555659337  0.3762837101101297  0.6134576154670626
  0.8722973555659337  0.6134576154670626  0.1379613188568740
  0.1379613188568740  0.3762837101101297  0.8722973555659337
  0.3762837101101297  0.1379613188568740  0.6134576154670626
  0.6134576154670626  0.8722973555659337  0.3762837101101297
  0.1379613188568740  0.3762837101101297  0.6134576154670626
  0.3762837101101297  0.1379613188568740  0.8722973555659337
  0.6134576154670626  0.8722973555659337  0.1379613188568740
  0.8722973555659337  0.6134576154670626  0.3762837101101297
  0.6134576154670626  0.1379613188568740  0.3762837101101297
  0.8722973555659337  0.3762837101101297  0.1379613188568740
  0.1379613188568740  0.6134576154670626  0.8722973555659337
  0.3762837101101297  0.8722973555659337  0.6134576154670626
  0.3762837101101297  0.6134576154670626  0.1379613188568740
  0.1379613188568740  0.8722973555659337  0.3762837101101297
  0.8722973555659337  0.1379613188568740  0.6134576154670626
  0.6134576154670626  0.3762837101101297  0.8722973555659337
 
  0.00000000E+00  0.00000000E+00  0.00000000E+00
  0.00000000E+00  0.00000000E+00  0.00000000E+00
  0.00000000E+00  0.00000000E+00  0.00000000E+00
  0.00000000E+00  0.00000000E+00  0.00000000E+00
  0.00000000E+00  0.00000000E+00  0.00000000E+00
  0.00000000E+00  0.00000000E+00  0.00000000E+00
  0.00000000E+00  0.00000000E+00  0.00000000E+00
  0.00000000E+00  0.00000000E+00  0.00000000E+00
  0.00000000E+00  0.00000000E+00  0.00000000E+00
  0.00000000E+00  0.00000000E+00  0.00000000E+00
  0.00000000E+00  0.00000000E+00  0.00000000E+00
  0.00000000E+00  0.00000000E+00  0.00000000E+00
  0.00000000E+00  0.00000000E+00  0.00000000E+00
  0.00000000E+00  0.00000000E+00  0.00000000E+00
  0.00000000E+00  0.00000000E+00  0.00000000E+00
  0.00000000E+00  0.00000000E+00  0.00000000E+00
  0.00000000E+00  0.00000000E+00  0.00000000E+00
  0.00000000E+00  0.00000000E+00  0.00000000E+00
  0.00000000E+00  0.00000000E+00  0.00000000E+00
  0.00000000E+00  0.00000000E+00  0.00000000E+00
  0.00000000E+00  0.00000000E+00  0.00000000E+00
  0.00000000E+00  0.00000000E+00  0.00000000E+00
  0.00000000E+00  0.00000000E+00  0.00000000E+00
  0.00000000E+00  0.00000000E+00  0.00000000E+00
  0.00000000E+00  0.00000000E+00  0.00000000E+00
  0.00000000E+00  0.00000000E+00  0.00000000E+00
  0.00000000E+00  0.00000000E+00  0.00000000E+00
  0.00000000E+00  0.00000000E+00  0.00000000E+00
