generated by phonopy                    
   1.00000000000000     
     0.0000000000000000    3.2068332639391048    3.2068332639392700
     3.2068332639391723    0.0000000000000000    3.2068332639392700
     3.2068332639391723    3.2068332639391048    0.0000000000000000
   Na   Ca   Mg   Sr   H 
     1     1     1     1    24
Direct
  0.2500000000000000  0.2500000000000000  0.2500000000000000
  0.7500000000000000  0.7500000000000000  0.7500000000000000
  0.0000000000000000  0.0000000000000000  0.0000000000000000
  0.5000000000000000  0.5000000000000000  0.5000000000000000
  0.1158970122084781  0.8976836131115888  0.6326778062202152
  0.8976836131115888  0.1158970122084781  0.3537415684597107
  0.6326778062202152  0.3537415684597107  0.1158970122084781
  0.3537415684597107  0.6326778062202152  0.8976836131115888
  0.6326778062202152  0.1158970122084781  0.8976836131115888
  0.3537415684597107  0.8976836131115888  0.1158970122084781
  0.1158970122084781  0.6326778062202152  0.3537415684597107
  0.8976836131115888  0.3537415684597107  0.6326778062202152
  0.8976836131115888  0.6326778062202152  0.1158970122084781
  0.1158970122084781  0.3537415684597107  0.8976836131115888
  0.3537415684597107  0.1158970122084781  0.6326778062202152
  0.6326778062202152  0.8976836131115888  0.3537415684597107
  0.1158970122084781  0.3537415684597107  0.6326778062202152
  0.3537415684597107  0.1158970122084781  0.8976836131115888
  0.6326778062202152  0.8976836131115888  0.1158970122084781
  0.8976836131115888  0.6326778062202152  0.3537415684597107
  0.6326778062202152  0.1158970122084781  0.3537415684597107
  0.8976836131115888  0.3537415684597107  0.1158970122084781
  0.1158970122084781  0.6326778062202152  0.8976836131115888
  0.3537415684597107  0.8976836131115888  0.6326778062202152
  0.3537415684597107  0.6326778062202152  0.1158970122084781
  0.1158970122084781  0.8976836131115888  0.3537415684597107
  0.8976836131115888  0.1158970122084781  0.6326778062202152
  0.6326778062202152  0.3537415684597107  0.8976836131115888
 
  0.00000000E+00  0.00000000E+00  0.00000000E+00
  0.00000000E+00  0.00000000E+00  0.00000000E+00
  0.00000000E+00  0.00000000E+00  0.00000000E+00
  0.00000000E+00  0.00000000E+00  0.00000000E+00
  0.00000000E+00  0.00000000E+00  0.00000000E+00
  0.00000000E+00  0.00000000E+00  0.00000000E+00
  0.00000000E+00  0.00000000E+00  0.00000000E+00
  0.00000000E+00  0.00000000E+00  0.00000000E+00
  0.00000000E+00  0.00000000E+00  0.00000000E+00
  0.00000000E+00  0.00000000E+00  0.00000000E+00
  0.00000000E+00  0.00000000E+00  0.00000000E+00
  0.00000000E+00  0.00000000E+00  0.00000000E+00
  0.00000000E+00  0.00000000E+00  0.00000000E+00
  0.00000000E+00  0.00000000E+00  0.00000000E+00
  0.00000000E+00  0.00000000E+00  0.00000000E+00
  0.00000000E+00  0.00000000E+00  0.00000000E+00
  0.00000000E+00  0.00000000E+00  0.00000000E+00
  0.00000000E+00  0.00000000E+00  0.00000000E+00
  0.00000000E+00  0.00000000E+00  0.00000000E+00
  0.00000000E+00  0.00000000E+00  0.00000000E+00
  0.00000000E+00  0.00000000E+00  0.00000000E+00
  0.00000000E+00  0.00000000E+00  0.00000000E+00
  0.00000000E+00  0.00000000E+00  0.00000000E+00
  0.00000000E+00  0.00000000E+00  0.00000000E+00
  0.00000000E+00  0.00000000E+00  0.00000000E+00
  0.00000000E+00  0.00000000E+00  0.00000000E+00
  0.00000000E+00  0.00000000E+00  0.00000000E+00
  0.00000000E+00  0.00000000E+00  0.00000000E+00
