generated by phonopy                    
   1.00000000000000     
     0.0000000000000000    3.3198930334712795    3.3198930334713306
     3.3198930334713022    0.0000000000000000    3.3198930334713306
     3.3198930334713022    3.3198930334712795    0.0000000000000000
   Ca   Y    Sc   Ce   H 
     1     1     1     1    24
Direct
  0.2500000000000000  0.2500000000000000  0.2500000000000000
  0.7500000000000000  0.7500000000000000  0.7500000000000000
  0.0000000000000000  0.0000000000000000  0.0000000000000000
  0.5000000000000000  0.5000000000000000  0.5000000000000000
  0.1236832948515243  0.8860216743380960  0.6307222413617595
  0.8860216743380960  0.1236832948515243  0.3595727894486132
  0.6307222413617595  0.3595727894486132  0.1236832948515243
  0.3595727894486132  0.6307222413617595  0.8860216743380960
  0.6307222413617595  0.1236832948515243  0.8860216743380960
  0.3595727894486132  0.8860216743380960  0.1236832948515243
  0.1236832948515243  0.6307222413617595  0.3595727894486132
  0.8860216743380960  0.3595727894486132  0.6307222413617595
  0.8860216743380960  0.6307222413617595  0.1236832948515243
  0.1236832948515243  0.3595727894486132  0.8860216743380960
  0.3595727894486132  0.1236832948515243  0.6307222413617595
  0.6307222413617595  0.8860216743380960  0.3595727894486132
  0.1236832948515243  0.3595727894486132  0.6307222413617595
  0.3595727894486132  0.1236832948515243  0.8860216743380960
  0.6307222413617595  0.8860216743380960  0.1236832948515243
  0.8860216743380960  0.6307222413617595  0.3595727894486132
  0.6307222413617595  0.1236832948515243  0.3595727894486132
  0.8860216743380960  0.3595727894486132  0.1236832948515243
  0.1236832948515243  0.6307222413617595  0.8860216743380960
  0.3595727894486132  0.8860216743380960  0.6307222413617595
  0.3595727894486132  0.6307222413617595  0.1236832948515243
  0.1236832948515243  0.8860216743380960  0.3595727894486132
  0.8860216743380960  0.1236832948515243  0.6307222413617595
  0.6307222413617595  0.3595727894486132  0.8860216743380960
 
  0.00000000E+00  0.00000000E+00  0.00000000E+00
  0.00000000E+00  0.00000000E+00  0.00000000E+00
  0.00000000E+00  0.00000000E+00  0.00000000E+00
  0.00000000E+00  0.00000000E+00  0.00000000E+00
  0.00000000E+00  0.00000000E+00  0.00000000E+00
  0.00000000E+00  0.00000000E+00  0.00000000E+00
  0.00000000E+00  0.00000000E+00  0.00000000E+00
  0.00000000E+00  0.00000000E+00  0.00000000E+00
  0.00000000E+00  0.00000000E+00  0.00000000E+00
  0.00000000E+00  0.00000000E+00  0.00000000E+00
  0.00000000E+00  0.00000000E+00  0.00000000E+00
  0.00000000E+00  0.00000000E+00  0.00000000E+00
  0.00000000E+00  0.00000000E+00  0.00000000E+00
  0.00000000E+00  0.00000000E+00  0.00000000E+00
  0.00000000E+00  0.00000000E+00  0.00000000E+00
  0.00000000E+00  0.00000000E+00  0.00000000E+00
  0.00000000E+00  0.00000000E+00  0.00000000E+00
  0.00000000E+00  0.00000000E+00  0.00000000E+00
  0.00000000E+00  0.00000000E+00  0.00000000E+00
  0.00000000E+00  0.00000000E+00  0.00000000E+00
  0.00000000E+00  0.00000000E+00  0.00000000E+00
  0.00000000E+00  0.00000000E+00  0.00000000E+00
  0.00000000E+00  0.00000000E+00  0.00000000E+00
  0.00000000E+00  0.00000000E+00  0.00000000E+00
  0.00000000E+00  0.00000000E+00  0.00000000E+00
  0.00000000E+00  0.00000000E+00  0.00000000E+00
  0.00000000E+00  0.00000000E+00  0.00000000E+00
  0.00000000E+00  0.00000000E+00  0.00000000E+00
