POSCAR                                  
   1.00000000000000     
    10.3096350766467939   -0.0317700768064770   -0.0256686783419005
    -0.0316228303829846   10.3119433707508481   -0.0863655359266780
    -0.0170087299362534   -0.0575548321783150    6.8731215798116514
   Y    Zr   K    Sc   H 
     9     9     9     9   216
Direct
  0.1697573907198298  0.1695915395132924  0.2530532804576529
  0.1683572323182726  0.8325177969033767  0.7539604087224203
  0.8324899595754065  0.1753220352742420  0.2439183892021252
  0.6616962442780621  0.3298148278806677  0.4945221721992742
  0.4982561275987188  0.8268790775126694  0.7563231916351066
  0.9956867205631367  0.3374462691762429  0.9988043882261908
  0.8356475411521019  0.8288319234808567  0.7612097339893297
  0.9978855326217893  0.6615339093123824  0.0098082881964262
  0.0044329424429576  0.0015049811684828  0.9937499735252684
  0.1629409071913171  0.1629816945434822  0.7423485055486637
  0.1708357893788906  0.4987927615847930  0.7568048944051214
  0.5030087113663054  0.1644813280885567  0.7484453051728664
  0.3375988649505771  0.3291786176934878  0.9975680746492758
  0.3299026187263312  0.6570799713804079  0.4980670589613784
  0.8268263259908597  0.1626400373512563  0.7435752772692714
  0.3318763768759069  0.9988855543942593  0.5010619458432051
  0.6680079913500087  0.6599844929270831  0.5055198465961218
  0.9963558457425240  0.3358906899497728  0.5020380041669079
  0.1726938847831897  0.5017273296823136  0.2541754570559039
  0.4992235278010820  0.1739381577949581  0.2562888757285638
  0.3310912004902408  0.3330984273910569  0.4901687942442379
  0.5142542771433055  0.8372090055342756  0.2563369092248289
  0.8337668801319706  0.5099732625714239  0.2462048027901474
  0.6594098715328299  0.6728427018292442  0.0145964548379649
  0.8435916394833909  0.8500620252195210  0.2699360329378352
  0.6555853174882619  0.9856082265202630  0.4734028689026824
  0.9894510164810448  0.9845620433001603  0.4848522590102592
  0.1745401263132417  0.8294234099729721  0.2464849441269164
  0.5007630728871337  0.5021671971014185  0.2442068045930352
  0.4994827060693952  0.5011128426152810  0.7575860574475946
  0.3367290444419467  0.6720397990672922  0.0042912796949426
  0.6664441582926710  0.3415617355586205  0.9961268450817207
  0.3343183450096239  0.0003209864040630  0.9994795167043286
  0.8255634648228994  0.5037614669027624  0.7493266253575106
  0.0067487517344530  0.6657941553439822  0.5058207827039541
  0.6655797355715394  0.0009769665246804  0.9932748641850425
  0.1760735589288257  0.0824995677274737  0.0029863717031094
  0.1566901181947377  0.0724544527801154  0.4945630779440939
  0.1738574503593076  0.4169329516140159  0.0015658239192308
  0.5002234422282050  0.0866007251060321  0.0022974516552672
  0.3365923086294820  0.2529604278152358  0.2362356327240180
  0.1606447319040358  0.4172204572326630  0.5062859575702473
  0.4996835470777942  0.0810300655675806  0.4949534423710782
  0.3329720451442498  0.2484747313925534  0.7435557717695067
  0.1732602976764460  0.7504156760692775  0.0088768516338202
  0.4991522962565311  0.4188639366622624  0.9942758791895401
  0.3411263894649064  0.5825092214664834  0.2322802239701837
  0.1762097368767643  0.7509875680421283  0.4960970585784307
  0.8237563864825013  0.0859223054230749 -0.0034365847319324
  0.6628292427892291  0.2576830325847301  0.2262612517410880
  0.4989614024074586  0.4153028877896754  0.5165541210682826
  0.3378918108144634  0.5793513668359219  0.7708975222539513
  0.8259729719650629  0.0799882431496341  0.4883966481974265
  0.6652201845993634  0.2542938213492654  0.7570759809352463
  0.4903311474013872  0.7509750305980787  0.0094577035163873
  0.3383641227341438  0.9179749599058320  0.2409720150389467
  0.8256228716915944  0.4212707446412733  0.9880249383833654
  0.6608486793067777  0.5770375480212062  0.2506960410115299
  0.4824358302913852  0.7470840024273969  0.4937499766876190
  0.3354469963547962  0.9187526064198446  0.7557637784192812
  0.0029304113465020  0.2536746765674593  0.2516412435947870
  0.8304288687760952  0.4203476500785635  0.5038932406584405
  0.6649851108153256  0.5816101450516843  0.7619622847200906
  0.9954443297773269  0.2505360588932419  0.7448596446317035
  0.8273489239417171  0.7600708766481544  0.0175593427369739
  0.6831213259392960  0.9238951881500532  0.2114445091976179
  0.0059280560591541  0.5816350747693674  0.2714979648929783
  0.8515151320867614  0.7474346184984841  0.4948814159581362
  0.6688993915552435  0.9111280904843492  0.7289374546320176
  0.9943131116447521  0.5795448399117910  0.7417764774638949
  0.0228113832882676  0.9123122490024768  0.2346165254584147
  0.0023458068212148  0.9159153290777448  0.7420222498988714
  0.0851327421521857  0.1704574850486975  0.9941984601305887
  0.0766690774739741  0.1535206253522793  0.4996217787843555
  0.0882765834722933  0.5009240072001041  0.0008727935129562
  0.4216671535418945  0.1619863952997954  0.9973016233639095
  0.2538245646757237  0.3387708479887132  0.2336651649200096
  0.0805200170629202  0.5050730348735498  0.5055940680100054
  0.4127725448298392  0.1643253884006699  0.5095744188635890
  0.2515761390115498  0.3310365637695607  0.7467709397821568
  0.0899439777043462  0.8264902014551762  0.0101739335484878
  0.4186830484579241  0.4906238391724423  0.9936089631825017
  0.2530205792406655  0.6709823128055954  0.2506549653299832
  0.0838144357712875  0.8264448515710023  0.5005419095496579
  0.7424696577701255  0.1722141386066438  0.9897245221438155
  0.5845116696779966  0.3416291492096807  0.2314410033247569
  0.4165234172025782  0.5016062353035730  0.5131353629035288
  0.2519127823581691  0.6646394304166761  0.7561887525921341
  0.7424976343044600  0.1565734272563477  0.5024698132741954
  0.5831041719833742  0.3384747574910572  0.7555993642444698
  0.4198198739628383  0.8490970745761003  0.0138693443245431
  0.2532548946483896  0.9943547823272684  0.2432465294972289
  0.7449619714432133  0.5019400580538455  0.9946946327306645
  0.5757963605321671  0.6603811440545475  0.2683603822802227
  0.4205665983312788  0.8205747642939077  0.4919590427165311
  0.2534482929329694  0.0006559433517940  0.7483605117930116
  0.9148921055077367  0.3439077549233713  0.2578639186502455
  0.7502581684756198  0.4970417880174161  0.5008528308503033
  0.5801814462080800  0.6567307699037354  0.7522334987742630
  0.9097550983631757  0.3408662377500435  0.7445686587524315
  0.7583969415778837  0.8275400796580229  0.0184046080561001
  0.5798745755145066  0.0105056486606608  0.2133352187867407
  0.9243281325742021  0.6813254308190312  0.2679857904935509
  0.7504836995527012  0.8217551569909859  0.5086135567358019
  0.5834584268320917  0.9998066304926604  0.7464994897909015
  0.9178333120179634  0.6578537659953662  0.7463141713614990
  0.9187514182855174  0.0146471142160280  0.2303806787329427
  0.9125802585405973  0.0040337641136905  0.7418338995497582
  0.1758189635785423  0.0009801632337276  0.1219383321432435
  0.1623682812036281 -0.0006020075183263  0.6162121150267050
  0.1650281295332766  0.3359253992931610  0.1293043230272857
  0.5069903060288536  0.0048584492286266  0.1276876719209125
  0.3352494872076882  0.1564483131052782  0.3789369337202906
  0.1655977984750586  0.3311794224385040  0.6265743776208087
  0.4957114229355712  0.9954717424237468  0.6274349592358153
  0.3319988723609369  0.1608315773517675  0.8730978020361863
  0.1743194015841871  0.6685683982676114  0.1290067545371216
  0.5065436188960335  0.3407654851219402  0.1199555530442323
  0.3465011958456954  0.4972774805909713  0.3649668238604611
  0.1662785455547966  0.6642897063440163  0.6308283401632915
  0.8321620096774026  0.0068041195697820  0.1158183429876711
  0.6693193455598757  0.1566684955329782  0.3646988090502578
  0.4955559902822018  0.3440170635800623  0.6247017426925277
  0.3402248775286401  0.5071183238123406  0.8820324419705418
  0.8229077777482019  0.9876448954123296  0.6116201630621195
  0.6668675023042567  0.1636145167778583  0.8760908041957203
  0.4904120271011306  0.6627849786840309  0.1316183873561583
  0.3359401652631446  0.8348457529093954  0.3700241705362921
  0.8242513232857923  0.3430615777651381  0.1194739663841358
  0.6623511080602997  0.4978119411483032  0.3723713945117140
  0.4944893054110265  0.6553767672991480  0.6253020005980680
  0.3327021965175279  0.8350187688773343  0.8830995061516825
  0.0029231251567640  0.1594361575900493  0.3780921926800840
  0.8303324721243813  0.3407715492614863  0.6304776250230019
  0.6599458446159948  0.5038638974003516  0.8762637166340633
  0.9950609072821630  0.1702345790942389  0.8680444379032213
  0.8260362254628335  0.6795020747919043  0.1434667238511158
  0.6803894289954701  0.8086048794991890  0.3784566774653757
  0.0028400278570711  0.5080860765433534  0.3796486421671977
  0.8341983822516316  0.6645131201418175  0.6273032022505537
  0.6692919346814742  0.8369108407115999  0.8806426195611108
  0.9973229245959665  0.4992577749540693  0.8644099366843624
  0.0239991535665546  0.8166280552624083  0.3695021247061266
  0.0045215625817067  0.8272532510129563  0.8846648641129609
  0.0902397808675953  0.9915120958555945  0.2483419140396178
  0.0785241583162998  0.9982476236542940  0.7328979904508526
  0.0888587919438540  0.3377139794996671  0.2447974271326725
  0.4155638058129263  0.9979424288315186  0.2384936046462006
  0.2462721573252142  0.1663032165138596  0.5091901804885118
  0.0802293594143507  0.3370722698080121  0.7504874267482965
  0.4164308601275324  0.0005826840482155  0.7628057697008750
  0.2528604804562108  0.1630337693504548  0.9935615305502610
  0.0927118968326705  0.6726756765401387  0.2548372670586872
  0.4227670120844601  0.3431329503053909  0.2441127043807694
  0.2468884969576613  0.4972502393273117  0.5126368350402813
  0.0821687389853206  0.6610399024249066  0.7506872605829676
  0.7478003848230469  0.0053262635338166  0.2332024408864123
  0.5782439932226746  0.1518514423606988  0.5075971300322413
  0.4168078368557375  0.3337835951607214  0.7476075370145850
  0.2567613503493446  0.5016112496700815  0.0034990589774546
  0.7424202623728152  0.0020500371912027  0.7406413076703482
  0.5813987772055913  0.1719160276968626  0.0019279017405515
  0.4163748606685246  0.6723489678696623  0.2571396812483591
  0.2488404511047966  0.8233960266859861  0.4939882594973206
  0.7507010164665936  0.3467511495091918  0.2439503379185273
  0.5786780568468233  0.4997049921497063  0.5072690363430753
  0.4151438925420157  0.6562149474621864  0.7487903143850128
  0.2539758601683765  0.8368836238426202  0.0079725392171021
  0.9178393395569627  0.1610810423662020  0.5050770054352740
  0.7467018821541427  0.3371731702190801  0.7489002099941307
  0.5830141990629583  0.4991871027005502  0.9956938200382117
  0.9158726123195661  0.1671331788869266  0.9867163723839171
  0.7649996504697574  0.6806878632441822  0.2417589993447578
  0.5833547633555226  0.8150649864241952  0.5132364259511621
  0.9107762741547766  0.5124805288067060  0.5049222449081463
  0.7464450613799655  0.6609109742164320  0.7634082784177911
  0.5852417936349890  0.8475242662074673  0.9994555106897011
  0.9077481419011679  0.4996637039270931  0.9857399759192503
  0.9183630845869809  0.8102225048884959  0.5139613424018751
  0.9217099027569197  0.8315670558463538  0.0197136230547000
  0.0016868697753495  0.1702080432239652  0.1239342474190551
  0.9930227998693238  0.1591669584815401  0.6149894502535731
  0.0047744887296708  0.4970540571179805  0.1370564069760068
  0.3365139250479042  0.1543192124754652  0.1278034630974191
  0.1570098720659802  0.3371757215522023  0.3799428564499399
  0.9940009736304919  0.4991805771369128  0.6256700838433767
  0.3306242298644751  0.1665161858696990  0.6269742485285722
  0.1652400544407026  0.3280130533297476  0.8726667466639194
  0.0054817192731891  0.8333561352538917  0.1336235265860664
  0.3394816278451542  0.5155821110064628  0.1241032495791122
  0.1609173504831905  0.6706403302763134  0.3750027759739402
  0.0076597568475728  0.8243838402003022  0.6227575591989188
  0.6638897615100140  0.1641801893199553  0.1165083853422885
  0.4956557909851143  0.3497487647227877  0.3665100288805134
  0.3440899464971681  0.4954195035192402  0.6284950542616307
  0.1745466966775989  0.6647599722143414  0.8814851994766696
  0.6687148363113720  0.1569494131030951  0.6153114792828280
  0.5064828081058719  0.3394599436001065  0.8773189725336744
  0.3404409962685991  0.8279446555985945  0.1405382812767711
  0.1659333225863211  0.9968242901276403  0.3715928280876019
  0.6622727764862594  0.5027669120820922  0.1268530292976880
  0.5011658850176273  0.6624868741976108  0.3743585729459321
  0.3324204066457737  0.8311727596353251  0.6206958776390435
  0.1748315198550406  0.0028952656625756  0.8725271505285725
  0.8320655830534293  0.3440322993200156  0.3687204503281656
  0.6589904959447620  0.4978952700442597  0.6256483390169365
  0.4939686048893420  0.6581827739200558  0.8813946762629575
  0.8257784478688632  0.3382762772824501  0.8719834321428924
  0.6795136469926962  0.8521609549683068  0.1229040215068856
  0.4831100418789950  0.0094683596493644  0.3734574038025508
  0.8323112659605221  0.6755763565982744  0.3887960721394976
  0.6672983092052035  0.8370305800272031  0.6345968755059779
  0.4972320978197707  0.9992827418435394  0.8769890079270969
  0.8281568420400767  0.6599063925534362  0.8782534996393878
  0.8191922435590143  0.0206852860047364  0.3669126087466453
  0.8244035282243394  0.0021027310576782  0.8739348440605410
  0.0010762379097730  0.0844687740555070  0.2528770428441097
  0.9962804120053492  0.0811214832911090  0.7314922675955224
  0.0013175167063374  0.4223501210138361  0.2535067813373039
  0.3365641223405701  0.0854946689952707  0.2252944974900253
  0.1625053263092020  0.2518156743222816  0.5089586296145054
  0.9930392490038301  0.4204955058839696  0.7475922112341526
  0.3370521786952830  0.0847914736616165  0.7648331061829762
  0.1696192274416566  0.2519630107462957  0.9923894978133816
  0.9940722661342491  0.7474323912610121  0.2677927780514961
  0.3416090448331288  0.4213596358813082  0.2421649952922975
  0.1570241622209162  0.5819567517751288  0.5026009387215387
  0.0015460480475721  0.7403756364594710  0.7495004351831990
  0.6634298848411356  0.0932012166456250  0.2315136517123313
  0.4940566052809398  0.2505812270398582  0.5171186168609165
  0.3385878986975316  0.4152746160839053  0.7473473636158329
  0.1763710979663309  0.5834014087688425  0.0054585212737030
  0.6632141862438319  0.0716412055712675  0.7411993486387864
  0.5122501779153721  0.2489112262256624 -0.0004453807167488
  0.3444195209996055  0.7576124147750035  0.2428762488561708
  0.1670783129583382  0.9104614004722873  0.4900560289182823
  0.6659689739889124  0.4192816511785832  0.2467053622888684
  0.4953249203460451  0.5780627919073221  0.4951793268159352
  0.3317424960826287  0.7444946689921526  0.7593748862947471
  0.1770150719838670  0.9153737304309307  0.0139024711835465
  0.8302388683856051  0.2528574342498825  0.5059347561607213
  0.6641249884934137  0.4172567334177913  0.7520823035588469
  0.4922781492565319  0.5843761803005344  0.0043054544253804
  0.8223150525598981  0.2538900907457940  0.9876768439441833
  0.6820074055617619  0.7483148500523390  0.2752967971187864
  0.4858971063867532  0.9106114187057585  0.5110605359966226
  0.8433485532427206  0.5778998794068123  0.5080315875656023
  0.6686447577506812  0.7470727058148139  0.7577453801415809
  0.4892975539589725  0.9178379854671682  0.0079701827354855
  0.8253395134135271  0.5829242850964280  0.9883981461303046
  0.8180354737764431  0.9147133824987027  0.5287567158584090
  0.8286461508600481  0.9256334766448555  0.0070204167706820
 
  0.00000000E+00  0.00000000E+00  0.00000000E+00
  0.00000000E+00  0.00000000E+00  0.00000000E+00
  0.00000000E+00  0.00000000E+00  0.00000000E+00
  0.00000000E+00  0.00000000E+00  0.00000000E+00
  0.00000000E+00  0.00000000E+00  0.00000000E+00
  0.00000000E+00  0.00000000E+00  0.00000000E+00
  0.00000000E+00  0.00000000E+00  0.00000000E+00
  0.00000000E+00  0.00000000E+00  0.00000000E+00
  0.00000000E+00  0.00000000E+00  0.00000000E+00
  0.00000000E+00  0.00000000E+00  0.00000000E+00
  0.00000000E+00  0.00000000E+00  0.00000000E+00
  0.00000000E+00  0.00000000E+00  0.00000000E+00
  0.00000000E+00  0.00000000E+00  0.00000000E+00
  0.00000000E+00  0.00000000E+00  0.00000000E+00
  0.00000000E+00  0.00000000E+00  0.00000000E+00
  0.00000000E+00  0.00000000E+00  0.00000000E+00
  0.00000000E+00  0.00000000E+00  0.00000000E+00
  0.00000000E+00  0.00000000E+00  0.00000000E+00
  0.00000000E+00  0.00000000E+00  0.00000000E+00
  0.00000000E+00  0.00000000E+00  0.00000000E+00
  0.00000000E+00  0.00000000E+00  0.00000000E+00
  0.00000000E+00  0.00000000E+00  0.00000000E+00
  0.00000000E+00  0.00000000E+00  0.00000000E+00
  0.00000000E+00  0.00000000E+00  0.00000000E+00
  0.00000000E+00  0.00000000E+00  0.00000000E+00
  0.00000000E+00  0.00000000E+00  0.00000000E+00
  0.00000000E+00  0.00000000E+00  0.00000000E+00
  0.00000000E+00  0.00000000E+00  0.00000000E+00
  0.00000000E+00  0.00000000E+00  0.00000000E+00
  0.00000000E+00  0.00000000E+00  0.00000000E+00
  0.00000000E+00  0.00000000E+00  0.00000000E+00
  0.00000000E+00  0.00000000E+00  0.00000000E+00
  0.00000000E+00  0.00000000E+00  0.00000000E+00
  0.00000000E+00  0.00000000E+00  0.00000000E+00
  0.00000000E+00  0.00000000E+00  0.00000000E+00
  0.00000000E+00  0.00000000E+00  0.00000000E+00
  0.00000000E+00  0.00000000E+00  0.00000000E+00
  0.00000000E+00  0.00000000E+00  0.00000000E+00
  0.00000000E+00  0.00000000E+00  0.00000000E+00
  0.00000000E+00  0.00000000E+00  0.00000000E+00
  0.00000000E+00  0.00000000E+00  0.00000000E+00
  0.00000000E+00  0.00000000E+00  0.00000000E+00
  0.00000000E+00  0.00000000E+00  0.00000000E+00
  0.00000000E+00  0.00000000E+00  0.00000000E+00
  0.00000000E+00  0.00000000E+00  0.00000000E+00
  0.00000000E+00  0.00000000E+00  0.00000000E+00
  0.00000000E+00  0.00000000E+00  0.00000000E+00
  0.00000000E+00  0.00000000E+00  0.00000000E+00
  0.00000000E+00  0.00000000E+00  0.00000000E+00
  0.00000000E+00  0.00000000E+00  0.00000000E+00
  0.00000000E+00  0.00000000E+00  0.00000000E+00
  0.00000000E+00  0.00000000E+00  0.00000000E+00
  0.00000000E+00  0.00000000E+00  0.00000000E+00
  0.00000000E+00  0.00000000E+00  0.00000000E+00
  0.00000000E+00  0.00000000E+00  0.00000000E+00
  0.00000000E+00  0.00000000E+00  0.00000000E+00
  0.00000000E+00  0.00000000E+00  0.00000000E+00
  0.00000000E+00  0.00000000E+00  0.00000000E+00
  0.00000000E+00  0.00000000E+00  0.00000000E+00
  0.00000000E+00  0.00000000E+00  0.00000000E+00
  0.00000000E+00  0.00000000E+00  0.00000000E+00
  0.00000000E+00  0.00000000E+00  0.00000000E+00
  0.00000000E+00  0.00000000E+00  0.00000000E+00
  0.00000000E+00  0.00000000E+00  0.00000000E+00
  0.00000000E+00  0.00000000E+00  0.00000000E+00
  0.00000000E+00  0.00000000E+00  0.00000000E+00
  0.00000000E+00  0.00000000E+00  0.00000000E+00
  0.00000000E+00  0.00000000E+00  0.00000000E+00
  0.00000000E+00  0.00000000E+00  0.00000000E+00
  0.00000000E+00  0.00000000E+00  0.00000000E+00
  0.00000000E+00  0.00000000E+00  0.00000000E+00
  0.00000000E+00  0.00000000E+00  0.00000000E+00
  0.00000000E+00  0.00000000E+00  0.00000000E+00
  0.00000000E+00  0.00000000E+00  0.00000000E+00
  0.00000000E+00  0.00000000E+00  0.00000000E+00
  0.00000000E+00  0.00000000E+00  0.00000000E+00
  0.00000000E+00  0.00000000E+00  0.00000000E+00
  0.00000000E+00  0.00000000E+00  0.00000000E+00
  0.00000000E+00  0.00000000E+00  0.00000000E+00
  0.00000000E+00  0.00000000E+00  0.00000000E+00
  0.00000000E+00  0.00000000E+00  0.00000000E+00
  0.00000000E+00  0.00000000E+00  0.00000000E+00
  0.00000000E+00  0.00000000E+00  0.00000000E+00
  0.00000000E+00  0.00000000E+00  0.00000000E+00
  0.00000000E+00  0.00000000E+00  0.00000000E+00
  0.00000000E+00  0.00000000E+00  0.00000000E+00
  0.00000000E+00  0.00000000E+00  0.00000000E+00
  0.00000000E+00  0.00000000E+00  0.00000000E+00
  0.00000000E+00  0.00000000E+00  0.00000000E+00
  0.00000000E+00  0.00000000E+00  0.00000000E+00
  0.00000000E+00  0.00000000E+00  0.00000000E+00
  0.00000000E+00  0.00000000E+00  0.00000000E+00
  0.00000000E+00  0.00000000E+00  0.00000000E+00
  0.00000000E+00  0.00000000E+00  0.00000000E+00
  0.00000000E+00  0.00000000E+00  0.00000000E+00
  0.00000000E+00  0.00000000E+00  0.00000000E+00
  0.00000000E+00  0.00000000E+00  0.00000000E+00
  0.00000000E+00  0.00000000E+00  0.00000000E+00
  0.00000000E+00  0.00000000E+00  0.00000000E+00
  0.00000000E+00  0.00000000E+00  0.00000000E+00
  0.00000000E+00  0.00000000E+00  0.00000000E+00
  0.00000000E+00  0.00000000E+00  0.00000000E+00
  0.00000000E+00  0.00000000E+00  0.00000000E+00
  0.00000000E+00  0.00000000E+00  0.00000000E+00
  0.00000000E+00  0.00000000E+00  0.00000000E+00
  0.00000000E+00  0.00000000E+00  0.00000000E+00
  0.00000000E+00  0.00000000E+00  0.00000000E+00
  0.00000000E+00  0.00000000E+00  0.00000000E+00
  0.00000000E+00  0.00000000E+00  0.00000000E+00
  0.00000000E+00  0.00000000E+00  0.00000000E+00
  0.00000000E+00  0.00000000E+00  0.00000000E+00
  0.00000000E+00  0.00000000E+00  0.00000000E+00
  0.00000000E+00  0.00000000E+00  0.00000000E+00
  0.00000000E+00  0.00000000E+00  0.00000000E+00
  0.00000000E+00  0.00000000E+00  0.00000000E+00
  0.00000000E+00  0.00000000E+00  0.00000000E+00
  0.00000000E+00  0.00000000E+00  0.00000000E+00
  0.00000000E+00  0.00000000E+00  0.00000000E+00
  0.00000000E+00  0.00000000E+00  0.00000000E+00
  0.00000000E+00  0.00000000E+00  0.00000000E+00
  0.00000000E+00  0.00000000E+00  0.00000000E+00
  0.00000000E+00  0.00000000E+00  0.00000000E+00
  0.00000000E+00  0.00000000E+00  0.00000000E+00
  0.00000000E+00  0.00000000E+00  0.00000000E+00
  0.00000000E+00  0.00000000E+00  0.00000000E+00
  0.00000000E+00  0.00000000E+00  0.00000000E+00
  0.00000000E+00  0.00000000E+00  0.00000000E+00
  0.00000000E+00  0.00000000E+00  0.00000000E+00
  0.00000000E+00  0.00000000E+00  0.00000000E+00
  0.00000000E+00  0.00000000E+00  0.00000000E+00
  0.00000000E+00  0.00000000E+00  0.00000000E+00
  0.00000000E+00  0.00000000E+00  0.00000000E+00
  0.00000000E+00  0.00000000E+00  0.00000000E+00
  0.00000000E+00  0.00000000E+00  0.00000000E+00
  0.00000000E+00  0.00000000E+00  0.00000000E+00
  0.00000000E+00  0.00000000E+00  0.00000000E+00
  0.00000000E+00  0.00000000E+00  0.00000000E+00
  0.00000000E+00  0.00000000E+00  0.00000000E+00
  0.00000000E+00  0.00000000E+00  0.00000000E+00
  0.00000000E+00  0.00000000E+00  0.00000000E+00
  0.00000000E+00  0.00000000E+00  0.00000000E+00
  0.00000000E+00  0.00000000E+00  0.00000000E+00
  0.00000000E+00  0.00000000E+00  0.00000000E+00
  0.00000000E+00  0.00000000E+00  0.00000000E+00
  0.00000000E+00  0.00000000E+00  0.00000000E+00
  0.00000000E+00  0.00000000E+00  0.00000000E+00
  0.00000000E+00  0.00000000E+00  0.00000000E+00
  0.00000000E+00  0.00000000E+00  0.00000000E+00
  0.00000000E+00  0.00000000E+00  0.00000000E+00
  0.00000000E+00  0.00000000E+00  0.00000000E+00
  0.00000000E+00  0.00000000E+00  0.00000000E+00
  0.00000000E+00  0.00000000E+00  0.00000000E+00
  0.00000000E+00  0.00000000E+00  0.00000000E+00
  0.00000000E+00  0.00000000E+00  0.00000000E+00
  0.00000000E+00  0.00000000E+00  0.00000000E+00
  0.00000000E+00  0.00000000E+00  0.00000000E+00
  0.00000000E+00  0.00000000E+00  0.00000000E+00
  0.00000000E+00  0.00000000E+00  0.00000000E+00
  0.00000000E+00  0.00000000E+00  0.00000000E+00
  0.00000000E+00  0.00000000E+00  0.00000000E+00
  0.00000000E+00  0.00000000E+00  0.00000000E+00
  0.00000000E+00  0.00000000E+00  0.00000000E+00
  0.00000000E+00  0.00000000E+00  0.00000000E+00
  0.00000000E+00  0.00000000E+00  0.00000000E+00
  0.00000000E+00  0.00000000E+00  0.00000000E+00
  0.00000000E+00  0.00000000E+00  0.00000000E+00
  0.00000000E+00  0.00000000E+00  0.00000000E+00
  0.00000000E+00  0.00000000E+00  0.00000000E+00
  0.00000000E+00  0.00000000E+00  0.00000000E+00
  0.00000000E+00  0.00000000E+00  0.00000000E+00
  0.00000000E+00  0.00000000E+00  0.00000000E+00
  0.00000000E+00  0.00000000E+00  0.00000000E+00
  0.00000000E+00  0.00000000E+00  0.00000000E+00
  0.00000000E+00  0.00000000E+00  0.00000000E+00
  0.00000000E+00  0.00000000E+00  0.00000000E+00
  0.00000000E+00  0.00000000E+00  0.00000000E+00
  0.00000000E+00  0.00000000E+00  0.00000000E+00
  0.00000000E+00  0.00000000E+00  0.00000000E+00
  0.00000000E+00  0.00000000E+00  0.00000000E+00
  0.00000000E+00  0.00000000E+00  0.00000000E+00
  0.00000000E+00  0.00000000E+00  0.00000000E+00
  0.00000000E+00  0.00000000E+00  0.00000000E+00
  0.00000000E+00  0.00000000E+00  0.00000000E+00
  0.00000000E+00  0.00000000E+00  0.00000000E+00
  0.00000000E+00  0.00000000E+00  0.00000000E+00
  0.00000000E+00  0.00000000E+00  0.00000000E+00
  0.00000000E+00  0.00000000E+00  0.00000000E+00
  0.00000000E+00  0.00000000E+00  0.00000000E+00
  0.00000000E+00  0.00000000E+00  0.00000000E+00
  0.00000000E+00  0.00000000E+00  0.00000000E+00
  0.00000000E+00  0.00000000E+00  0.00000000E+00
  0.00000000E+00  0.00000000E+00  0.00000000E+00
  0.00000000E+00  0.00000000E+00  0.00000000E+00
  0.00000000E+00  0.00000000E+00  0.00000000E+00
  0.00000000E+00  0.00000000E+00  0.00000000E+00
  0.00000000E+00  0.00000000E+00  0.00000000E+00
  0.00000000E+00  0.00000000E+00  0.00000000E+00
  0.00000000E+00  0.00000000E+00  0.00000000E+00
  0.00000000E+00  0.00000000E+00  0.00000000E+00
  0.00000000E+00  0.00000000E+00  0.00000000E+00
  0.00000000E+00  0.00000000E+00  0.00000000E+00
  0.00000000E+00  0.00000000E+00  0.00000000E+00
  0.00000000E+00  0.00000000E+00  0.00000000E+00
  0.00000000E+00  0.00000000E+00  0.00000000E+00
  0.00000000E+00  0.00000000E+00  0.00000000E+00
  0.00000000E+00  0.00000000E+00  0.00000000E+00
  0.00000000E+00  0.00000000E+00  0.00000000E+00
  0.00000000E+00  0.00000000E+00  0.00000000E+00
  0.00000000E+00  0.00000000E+00  0.00000000E+00
  0.00000000E+00  0.00000000E+00  0.00000000E+00
  0.00000000E+00  0.00000000E+00  0.00000000E+00
  0.00000000E+00  0.00000000E+00  0.00000000E+00
  0.00000000E+00  0.00000000E+00  0.00000000E+00
  0.00000000E+00  0.00000000E+00  0.00000000E+00
  0.00000000E+00  0.00000000E+00  0.00000000E+00
  0.00000000E+00  0.00000000E+00  0.00000000E+00
  0.00000000E+00  0.00000000E+00  0.00000000E+00
  0.00000000E+00  0.00000000E+00  0.00000000E+00
  0.00000000E+00  0.00000000E+00  0.00000000E+00
  0.00000000E+00  0.00000000E+00  0.00000000E+00
  0.00000000E+00  0.00000000E+00  0.00000000E+00
  0.00000000E+00  0.00000000E+00  0.00000000E+00
  0.00000000E+00  0.00000000E+00  0.00000000E+00
  0.00000000E+00  0.00000000E+00  0.00000000E+00
  0.00000000E+00  0.00000000E+00  0.00000000E+00
  0.00000000E+00  0.00000000E+00  0.00000000E+00
  0.00000000E+00  0.00000000E+00  0.00000000E+00
  0.00000000E+00  0.00000000E+00  0.00000000E+00
  0.00000000E+00  0.00000000E+00  0.00000000E+00
  0.00000000E+00  0.00000000E+00  0.00000000E+00
  0.00000000E+00  0.00000000E+00  0.00000000E+00
  0.00000000E+00  0.00000000E+00  0.00000000E+00
  0.00000000E+00  0.00000000E+00  0.00000000E+00
  0.00000000E+00  0.00000000E+00  0.00000000E+00
  0.00000000E+00  0.00000000E+00  0.00000000E+00
  0.00000000E+00  0.00000000E+00  0.00000000E+00
  0.00000000E+00  0.00000000E+00  0.00000000E+00
  0.00000000E+00  0.00000000E+00  0.00000000E+00
  0.00000000E+00  0.00000000E+00  0.00000000E+00
  0.00000000E+00  0.00000000E+00  0.00000000E+00
  0.00000000E+00  0.00000000E+00  0.00000000E+00
  0.00000000E+00  0.00000000E+00  0.00000000E+00
  0.00000000E+00  0.00000000E+00  0.00000000E+00
  0.00000000E+00  0.00000000E+00  0.00000000E+00
  0.00000000E+00  0.00000000E+00  0.00000000E+00
  0.00000000E+00  0.00000000E+00  0.00000000E+00
  0.00000000E+00  0.00000000E+00  0.00000000E+00
  0.00000000E+00  0.00000000E+00  0.00000000E+00
  0.00000000E+00  0.00000000E+00  0.00000000E+00
  0.00000000E+00  0.00000000E+00  0.00000000E+00
  0.00000000E+00  0.00000000E+00  0.00000000E+00
  0.00000000E+00  0.00000000E+00  0.00000000E+00
