POSCAR                                  
   1.00000000000000     
    10.3267553663143659   -0.0203374104999982   -0.0246796076675999
    -0.0202098479082672   10.3042620609207329   -0.0688868289910058
    -0.0164214475460143   -0.0459254045381644    6.8686164627740718
   Y    Zr   K    Sc   H 
     9     9     9     9   216
Direct
  0.1701943293082407  0.1695873549893638  0.2541455651703884
  0.1675120135593063  0.8326100525461213  0.7522858421808370
  0.8325952255666670  0.1749367024762369  0.2457276937682000
  0.6609925872539263  0.3295985284669453  0.4939982739635742
  0.4980444884723624  0.8259822246242722  0.7553321867142042
 -0.0053053598550221  0.3370762606545359 -0.0001480707033195
  0.8357134515946320  0.8281665140292003  0.7610501419503877
 -0.0026908647951221  0.6626901676094304  0.0089251229969693
  0.0048324371958079  0.0026801027361175 -0.0057983544635510
  0.1613843689519582  0.1642036409927011  0.7429801605245361
  0.1726206743607865  0.4984737465425842  0.7575478175695561
  0.5032511472204642  0.1661949063034959  0.7480162687360022
  0.3379110626720535  0.3293356864982070 -0.0015585486917715
  0.3309421591107736  0.6574341808722427  0.4977369727345434
  0.8274560932980964  0.1625319577004736  0.7437836779670581
  0.3332054915431488 -0.0002398509865364  0.5020806168275580
  0.6664694009256386  0.6603079406553796  0.5027451360949405
 -0.0027968457493437  0.3386573723040642  0.5024828691316174
  0.1723470664002455  0.5023077140431436  0.2525521837754537
  0.4998854658175076  0.1729015735382554  0.2552830718478816
  0.3304828144654007  0.3330907438247333  0.4919516300540741
  0.5144067168103768  0.8354955612486694  0.2546900140987701
  0.8348058858740264  0.5101933792779794  0.2466939457780211
  0.6590080117571179  0.6729866409840792  0.0152595605192377
  0.8434716977403350  0.8512118661919058  0.2701049574458536
  0.6561526447036130 -0.0129213571341769  0.4752202114697044
 -0.0101929148978536 -0.0164282294737071  0.4847973583845910
  0.1746352431385670  0.8298367168030308  0.2475222930979604
  0.4992418885811798  0.5019382429726853  0.2437396434104158
  0.5004024270595019  0.5019437715707553  0.7557893606896653
  0.3360419656932274  0.6733565412832002  0.0046285892618574
  0.6673863663198319  0.3425936704569016 -0.0039188393148716
  0.3346608222517053 -0.0012673130547147 -0.0013792381058716
  0.8244055364843350  0.5059870615943511  0.7491587095672729
  0.0081106312803542  0.6653883247684177  0.5070502000164729
  0.6657190960162563 -0.0009810858127229 -0.0076491036596125
  0.1759477573939142  0.0815029373099761  0.0053268792865011
  0.1587741934430617  0.0714723792773583  0.4940427813452883
  0.1728335188660946  0.4164089312417465  0.0001230227999031
  0.4988416944017557  0.0827211103689727  0.0030686466641927
  0.3368363530997863  0.2525954484369236  0.2375547810685978
  0.1624463449289104  0.4176282235944367  0.5071295957955483
  0.5005228518698768  0.0821765860962546  0.4975872174004912
  0.3346648976465476  0.2475755466682709  0.7470046669100102
  0.1727449829969931  0.7514717457481062  0.0091215528654624
  0.4974827437539481  0.4189676144265447 -0.0098652758362446
  0.3402958979829055  0.5819704666610829  0.2307495280293853
  0.1732947245299860  0.7505271650617117  0.4952788147364854
  0.8225856191473789  0.0847291450878565  0.0001230788303341
  0.6635516571805593  0.2576991021283152  0.2249774238983428
  0.4986714065938365  0.4148919657411466  0.5174095545393853
  0.3406403592073364  0.5800183605590654  0.7711420122183290
  0.8262479561837457  0.0777732046328489  0.4830124704783330
  0.6674793984153821  0.2536491411336950  0.7580972954142606
  0.4904114059772873  0.7501622694856610  0.0068554985791101
  0.3405874490578956  0.9159571364056753  0.2436227932881477
  0.8266675540737597  0.4219626704722315 -0.0152036251710055
  0.6601412487412706  0.5745023448392027  0.2474901888588488
  0.4835209698384242  0.7457724580882911  0.4918831910375285
  0.3350040834039394  0.9184626345125960  0.7523255094149532
  0.0027036382273882  0.2548885825401574  0.2554956783922709
  0.8284697465031270  0.4208764333653061  0.5060588533588454
  0.6612720298847701  0.5794654065281701  0.7654920189023490
 -0.0058434760331788  0.2511240374421044  0.7426253045240844
  0.8264385281630752  0.7606734365888974  0.0185502876067792
  0.6814134208436842  0.9237418981689562  0.2121020538161286
  0.0073525693043330  0.5820359177058737  0.2750127590719972
  0.8549328325619920  0.7475377327923712  0.4934627751790925
  0.6688780470526161  0.9114603617051217  0.7306809865056704
 -0.0056653262349238  0.5774632840902812  0.7391352514445193
  0.0227392457987837  0.9110083274524534  0.2329975102778223
  0.0017847940814711  0.9172039078223230  0.7434204080986316
  0.0846705594306037  0.1707719485446285 -0.0045013255338915
  0.0749764166284704  0.1543837211032165  0.5006207189203276
  0.0873562885405201  0.5012471792502075 -0.0005787006593842
  0.4219563364963619  0.1634916163879862 -0.0039722830209768
  0.2526709466263974  0.3389044591515605  0.2351787759260630
  0.0815453984740504  0.5057556863152757  0.5083689182711357
  0.4140204114501372  0.1653657214482723  0.5105819357898124
  0.2514156060405436  0.3301934308704745  0.7494094820763845
  0.0902463997086903  0.8259979340569974  0.0102178804744200
  0.4199833233876415  0.4877159004679898 -0.0024727342576155
  0.2510868426703506  0.6717888213144046  0.2517704939444009
  0.0864834737792817  0.8251075887619852  0.4969444453336043
  0.7436954498975313  0.1749212093377829 -0.0114792696732804
  0.5838048699429923  0.3421078374067336  0.2288576235185315
  0.4166017246665308  0.5012473968992645  0.5053673686643857
  0.2511136917100650  0.6656091512678415  0.7536753115227228
  0.7451447855437543  0.1579398041408055  0.5041853103862830
  0.5831580147485671  0.3384749778219703  0.7570154230961932
  0.4189751123528329  0.8479406341164409  0.0135798606525832
  0.2529152582555991 -0.0056835010177364  0.2450783113318783
  0.7429428942455987  0.5008568650203551 -0.0014647624753160
  0.5757252376956629  0.6579303931356910  0.2660315323569513
  0.4200725384764327  0.8218146498777860  0.4914617916853165
  0.2529633049209604  0.0023225934899204  0.7481133790019256
  0.9146709656112969  0.3431746628767469  0.2593089475471696
  0.7502153240924838  0.4972475050425826  0.4999772080903792
  0.5802442935621237  0.6564244293465549  0.7517135942423755
  0.9097614535725790  0.3427271458987908  0.7444919861969066
  0.7581559799520503  0.8265109869786381  0.0176200667986664
  0.5779213218199512  0.0068689861929561  0.2162939259781194
  0.9228531937439105  0.6814914737672468  0.2675034174423979
  0.7508002361054027  0.8239740192623884  0.5076927234230395
  0.5829156013701223 -0.0006614188405612  0.7479415106871522
  0.9171472255826221  0.6582573299185632  0.7488556158230298
  0.9203440393570212  0.0144143783056957  0.2304501465844287
  0.9129203297330025  0.0030111459718191  0.7406361507426000
  0.1781299629971996  0.0000118163293879  0.1227045060235854
  0.1617005647247132  0.0011275763338094  0.6178947593145917
  0.1657197234581420  0.3357061158008565  0.1285301096733218
  0.5107763961900041  0.0056210515427184  0.1250915461079319
  0.3357882952471119  0.1566317194881121  0.3785433973670413
  0.1644225609598504  0.3330188440885891  0.6256743645919618
  0.4960604306753428 -0.0046271736109831  0.6275105195208753
  0.3308307513759508  0.1594221797797412  0.8739449326595583
  0.1725913553243801  0.6697698303485581  0.1296095654309088
  0.5065570334291503  0.3402533638548521  0.1188031187078242
  0.3454213425657418  0.4967031020387466  0.3652806219566255
  0.1678785808792800  0.6628462099919390  0.6305530883315579
  0.8286687936166822  0.0073697032225258  0.1128471215212486
  0.6689433768031477  0.1582555686380641  0.3663523572395757
  0.4947943756805013  0.3440207827675555  0.6252877089264847
  0.3379588246888674  0.5084019096536342  0.8789531174037337
  0.8246090936692754 -0.0110651068089973  0.6165727659305914
  0.6671847946924199  0.1592416134249530  0.8766281528959899
  0.4900881641065491  0.6616112801920654  0.1335930455857762
  0.3366302469335216  0.8360596794772276  0.3677486241087849
  0.8236812922983702  0.3426094218787044  0.1211622813734760
  0.6624813172879644  0.4967548200252331  0.3717347182430005
  0.4938151441510231  0.6550893600697879  0.6221408471818943
  0.3322354347046756  0.8335495924435095  0.8828818835801147
  0.0044640977862886  0.1567373687972932  0.3763052144106473
  0.8309226229568175  0.3398653640333602  0.6294866236861391
  0.6621445203549191  0.5072511058920957  0.8727800813569063
 -0.0036042731979774  0.1712965511521055  0.8682892495499093
  0.8262967751744882  0.6795277257306722  0.1437656547930375
  0.6817162736822907  0.8101529473334738  0.3812767119506346
  0.0037753932964210  0.5112066560472841  0.3752119715863922
  0.8309556126145266  0.6637609999954144  0.6261101059892824
  0.6692505486048330  0.8364597574327390  0.8804884401134531
 -0.0000620014203180  0.4993059268964624  0.8670727753054411
  0.0230845484891847  0.8152097384524186  0.3682653500140459
  0.0047997658885743  0.8285892957930471  0.8844491739623513
  0.0920294695828004 -0.0082055633418321  0.2495037895815020
  0.0796148756080951 -0.0021783078024817  0.7318449297909879
  0.0884493808935143  0.3376420688904513  0.2453495222976638
  0.4141847051863979 -0.0030415935034785  0.2418477677849475
  0.2478246936072553  0.1655068089332652  0.5115879757366274
  0.0809473030851052  0.3382503510548964  0.7516770628658445
  0.4171725227461037  0.0012277024261280  0.7642072833717649
  0.2547738525927712  0.1633525688944537 -0.0082377027838188
  0.0931836648814526  0.6746850992455599  0.2491450449164848
  0.4227103512383604  0.3421751649880483  0.2476582050366023
  0.2475365023114439  0.4978257988831832  0.5110290159441732
  0.0831484546839128  0.6607949750027834  0.7539259712839292
  0.7469198113718453  0.0053919225609569  0.2326632052093961
  0.5796389723993749  0.1530503678985467  0.5067912980536291
  0.4165433531913271  0.3353664897661637  0.7473535866172376
  0.2590478340319495  0.5019447806005043  0.0040564332370770
  0.7414407122764189  0.0015348283403443  0.7413029945278216
  0.5823533001207439  0.1764093034463034  0.0006715958932945
  0.4157110538070102  0.6717327694085025  0.2509131697182305
  0.2514647741194815  0.8236024558229306  0.4947220573919068
  0.7488261098793009  0.3488886544764244  0.2415074300164640
  0.5778891731196412  0.4994776447941618  0.4972538902926760
  0.4144886986986346  0.6557534680754391  0.7518510065666877
  0.2538586221115447  0.8349165836312183  0.0060276721749412
  0.9166850743452093  0.1622732464101270  0.5069761675160193
  0.7453970271640862  0.3369849478320496  0.7504385018267925
  0.5811526483483864  0.4977959254233161 -0.0024781637772543
  0.9136143565700482  0.1672602909616548 -0.0118130308051468
  0.7659417962767384  0.6813973623579346  0.2430084711949222
  0.5832483327925625  0.8170127459554953  0.5127612162977502
  0.9113014385598803  0.5136894398007112  0.5049700508144005
  0.7457225393473195  0.6631858889948569  0.7626591503266921
  0.5850551241484003  0.8467863704695349 -0.0023038775173146
  0.9073594511782297  0.5002485359676038 -0.0158165067013895
  0.9178204642162963  0.8087923888142042  0.5131482262967625
  0.9211273570182497  0.8334271055296215  0.0203913174604441
  0.0032522824160889  0.1705811716855618  0.1264921654545905
 -0.0052739488423605  0.1591717149038420  0.6125974525577446
  0.0047111771477817  0.4974285846902426  0.1305258209172283
  0.3357682336391979  0.1524099413634671  0.1273722564730911
  0.1576787205339748  0.3377807941284693  0.3788796476072046
 -0.0052891300364628  0.5020403232757689  0.6310107739473895
  0.3298511550465057  0.1669859771376137  0.6282635088250974
  0.1641313789513680  0.3275218608401266  0.8735806468415144
  0.0054419650957153  0.8356929544387255  0.1349191704142319
  0.3378033742981094  0.5156280352945376  0.1214579576483805
  0.1640192227993533  0.6702673613176668  0.3749175390238324
  0.0065504162882278  0.8231234024158386  0.6243268060125202
  0.6630972874366219  0.1577194769052917  0.1189948292550108
  0.4937103117609176  0.3486179126120738  0.3640090863076737
  0.3445759333486963  0.4961830583988971  0.6295614530798739
  0.1753353750371204  0.6649519409751027  0.8804778192736138
  0.6685901265597559  0.1588137775674746  0.6166568089352593
  0.5055991319140044  0.3383668118025741  0.8799220601871911
  0.3398791841852883  0.8305325198436394  0.1388710233521316
  0.1659211677088100 -0.0026049491913804  0.3733954287610775
  0.6642025047248410  0.5037789518838021  0.1252945984548238
  0.4996888700505809  0.6613898490358775  0.3744735852094939
  0.3324881454167007  0.8297955914514182  0.6189016501957060
  0.1752138067680886  0.0036264650506137  0.8720084536386630
  0.8330678858066396  0.3440098362221636  0.3738245646662928
  0.6590656807740111  0.4983783897169968  0.6257231325659032
  0.4936958489853760  0.6583087716975169  0.8815873124654541
  0.8264262814822601  0.3381007537523349  0.8704634909478486
  0.6798836606849469  0.8513171578312511  0.1261701999536781
  0.4844131499914184  0.0078022007869593  0.3722941860950714
  0.8267633708775943  0.6753476573844043  0.3891270762805417
  0.6669414335936410  0.8358667131663540  0.6350667694707233
  0.4952392543037621 -0.0010691948121672  0.8752875875550744
  0.8268028168541862  0.6596168367148193  0.8785777270393861
  0.8196426766325586  0.0209421450048465  0.3704724995145476
  0.8248959210595695  0.0024480161952366  0.8722940085720283
  0.0002447466429095  0.0866605743738810  0.2556396220494815
 -0.0062735868236286  0.0820849878898415  0.7315709236248409
  0.0024849022482103  0.4224715659518818  0.2549533856706813
  0.3379844894093913  0.0851497002533707  0.2236618865686026
  0.1617769265837884  0.2513118356526591  0.5085673250733652
 -0.0111268579746618  0.4209063188770021  0.7482754287043846
  0.3385980054925501  0.0845472275094514  0.7653355250235122
  0.1699697716168235  0.2515863226706511 -0.0064230639035733
 -0.0100493318741041  0.7451833989436664  0.2708779759206371
  0.3400801649563035  0.4209217679824420  0.2422977339923440
  0.1584570828405747  0.5820617876390709  0.5018569054130791
  0.0019890527874296  0.7399100313215671  0.7484666451578942
  0.6649159167097211  0.0953841950288045  0.2269309062550919
  0.4934468134558167  0.2509309569191605  0.5142581883312877
  0.3417526719716382  0.4152701367191104  0.7495578691401743
  0.1751122673419313  0.5835600553715488  0.0039310499098515
  0.6641136378495734  0.0723614735052070  0.7445284337812823
  0.5147482115812083  0.2464613327243267 -0.0000952395230527
  0.3447177287809495  0.7549919332087502  0.2467163929269051
  0.1685027630559243  0.9101331126761637  0.4895082401864808
  0.6675429901288278  0.4181724854426596  0.2490331231490427
  0.4948348735911560  0.5763850155054935  0.5004117936724258
  0.3308372750892040  0.7439224573425859  0.7569374851305022
  0.1766154756528593  0.9157192309810488  0.0135038139158620
  0.8304097917542912  0.2542705638541132  0.5066756548370747
  0.6638522986237686  0.4165145644314299  0.7509960590932604
  0.4910675821170975  0.5835163912319171  0.0004030176552611
  0.8193230764909161  0.2541060572324033 -0.0090265700246487
  0.6818583734409495  0.7491557621578663  0.2744724318069712
  0.4872890126445713  0.9111115048744699  0.5096251653649052
  0.8443220163200088  0.5794398185193842  0.5076858881217581
  0.6692432896253748  0.7460794987356670  0.7551624942736342
  0.4880927365551771  0.9173653958676371  0.0074926284827480
  0.8269693051708629  0.5842656103277641 -0.0105353991701811
  0.8170354545666439  0.9135256247292057  0.5291310242397889
  0.8311316608712698  0.9253973123544137  0.0084827314672839
 
  0.00000000E+00  0.00000000E+00  0.00000000E+00
  0.00000000E+00  0.00000000E+00  0.00000000E+00
  0.00000000E+00  0.00000000E+00  0.00000000E+00
  0.00000000E+00  0.00000000E+00  0.00000000E+00
  0.00000000E+00  0.00000000E+00  0.00000000E+00
  0.00000000E+00  0.00000000E+00  0.00000000E+00
  0.00000000E+00  0.00000000E+00  0.00000000E+00
  0.00000000E+00  0.00000000E+00  0.00000000E+00
  0.00000000E+00  0.00000000E+00  0.00000000E+00
  0.00000000E+00  0.00000000E+00  0.00000000E+00
  0.00000000E+00  0.00000000E+00  0.00000000E+00
  0.00000000E+00  0.00000000E+00  0.00000000E+00
  0.00000000E+00  0.00000000E+00  0.00000000E+00
  0.00000000E+00  0.00000000E+00  0.00000000E+00
  0.00000000E+00  0.00000000E+00  0.00000000E+00
  0.00000000E+00  0.00000000E+00  0.00000000E+00
  0.00000000E+00  0.00000000E+00  0.00000000E+00
  0.00000000E+00  0.00000000E+00  0.00000000E+00
  0.00000000E+00  0.00000000E+00  0.00000000E+00
  0.00000000E+00  0.00000000E+00  0.00000000E+00
  0.00000000E+00  0.00000000E+00  0.00000000E+00
  0.00000000E+00  0.00000000E+00  0.00000000E+00
  0.00000000E+00  0.00000000E+00  0.00000000E+00
  0.00000000E+00  0.00000000E+00  0.00000000E+00
  0.00000000E+00  0.00000000E+00  0.00000000E+00
  0.00000000E+00  0.00000000E+00  0.00000000E+00
  0.00000000E+00  0.00000000E+00  0.00000000E+00
  0.00000000E+00  0.00000000E+00  0.00000000E+00
  0.00000000E+00  0.00000000E+00  0.00000000E+00
  0.00000000E+00  0.00000000E+00  0.00000000E+00
  0.00000000E+00  0.00000000E+00  0.00000000E+00
  0.00000000E+00  0.00000000E+00  0.00000000E+00
  0.00000000E+00  0.00000000E+00  0.00000000E+00
  0.00000000E+00  0.00000000E+00  0.00000000E+00
  0.00000000E+00  0.00000000E+00  0.00000000E+00
  0.00000000E+00  0.00000000E+00  0.00000000E+00
  0.00000000E+00  0.00000000E+00  0.00000000E+00
  0.00000000E+00  0.00000000E+00  0.00000000E+00
  0.00000000E+00  0.00000000E+00  0.00000000E+00
  0.00000000E+00  0.00000000E+00  0.00000000E+00
  0.00000000E+00  0.00000000E+00  0.00000000E+00
  0.00000000E+00  0.00000000E+00  0.00000000E+00
  0.00000000E+00  0.00000000E+00  0.00000000E+00
  0.00000000E+00  0.00000000E+00  0.00000000E+00
  0.00000000E+00  0.00000000E+00  0.00000000E+00
  0.00000000E+00  0.00000000E+00  0.00000000E+00
  0.00000000E+00  0.00000000E+00  0.00000000E+00
  0.00000000E+00  0.00000000E+00  0.00000000E+00
  0.00000000E+00  0.00000000E+00  0.00000000E+00
  0.00000000E+00  0.00000000E+00  0.00000000E+00
  0.00000000E+00  0.00000000E+00  0.00000000E+00
  0.00000000E+00  0.00000000E+00  0.00000000E+00
  0.00000000E+00  0.00000000E+00  0.00000000E+00
  0.00000000E+00  0.00000000E+00  0.00000000E+00
  0.00000000E+00  0.00000000E+00  0.00000000E+00
  0.00000000E+00  0.00000000E+00  0.00000000E+00
  0.00000000E+00  0.00000000E+00  0.00000000E+00
  0.00000000E+00  0.00000000E+00  0.00000000E+00
  0.00000000E+00  0.00000000E+00  0.00000000E+00
  0.00000000E+00  0.00000000E+00  0.00000000E+00
  0.00000000E+00  0.00000000E+00  0.00000000E+00
  0.00000000E+00  0.00000000E+00  0.00000000E+00
  0.00000000E+00  0.00000000E+00  0.00000000E+00
  0.00000000E+00  0.00000000E+00  0.00000000E+00
  0.00000000E+00  0.00000000E+00  0.00000000E+00
  0.00000000E+00  0.00000000E+00  0.00000000E+00
  0.00000000E+00  0.00000000E+00  0.00000000E+00
  0.00000000E+00  0.00000000E+00  0.00000000E+00
  0.00000000E+00  0.00000000E+00  0.00000000E+00
  0.00000000E+00  0.00000000E+00  0.00000000E+00
  0.00000000E+00  0.00000000E+00  0.00000000E+00
  0.00000000E+00  0.00000000E+00  0.00000000E+00
  0.00000000E+00  0.00000000E+00  0.00000000E+00
  0.00000000E+00  0.00000000E+00  0.00000000E+00
  0.00000000E+00  0.00000000E+00  0.00000000E+00
  0.00000000E+00  0.00000000E+00  0.00000000E+00
  0.00000000E+00  0.00000000E+00  0.00000000E+00
  0.00000000E+00  0.00000000E+00  0.00000000E+00
  0.00000000E+00  0.00000000E+00  0.00000000E+00
  0.00000000E+00  0.00000000E+00  0.00000000E+00
  0.00000000E+00  0.00000000E+00  0.00000000E+00
  0.00000000E+00  0.00000000E+00  0.00000000E+00
  0.00000000E+00  0.00000000E+00  0.00000000E+00
  0.00000000E+00  0.00000000E+00  0.00000000E+00
  0.00000000E+00  0.00000000E+00  0.00000000E+00
  0.00000000E+00  0.00000000E+00  0.00000000E+00
  0.00000000E+00  0.00000000E+00  0.00000000E+00
  0.00000000E+00  0.00000000E+00  0.00000000E+00
  0.00000000E+00  0.00000000E+00  0.00000000E+00
  0.00000000E+00  0.00000000E+00  0.00000000E+00
  0.00000000E+00  0.00000000E+00  0.00000000E+00
  0.00000000E+00  0.00000000E+00  0.00000000E+00
  0.00000000E+00  0.00000000E+00  0.00000000E+00
  0.00000000E+00  0.00000000E+00  0.00000000E+00
  0.00000000E+00  0.00000000E+00  0.00000000E+00
  0.00000000E+00  0.00000000E+00  0.00000000E+00
  0.00000000E+00  0.00000000E+00  0.00000000E+00
  0.00000000E+00  0.00000000E+00  0.00000000E+00
  0.00000000E+00  0.00000000E+00  0.00000000E+00
  0.00000000E+00  0.00000000E+00  0.00000000E+00
  0.00000000E+00  0.00000000E+00  0.00000000E+00
  0.00000000E+00  0.00000000E+00  0.00000000E+00
  0.00000000E+00  0.00000000E+00  0.00000000E+00
  0.00000000E+00  0.00000000E+00  0.00000000E+00
  0.00000000E+00  0.00000000E+00  0.00000000E+00
  0.00000000E+00  0.00000000E+00  0.00000000E+00
  0.00000000E+00  0.00000000E+00  0.00000000E+00
  0.00000000E+00  0.00000000E+00  0.00000000E+00
  0.00000000E+00  0.00000000E+00  0.00000000E+00
  0.00000000E+00  0.00000000E+00  0.00000000E+00
  0.00000000E+00  0.00000000E+00  0.00000000E+00
  0.00000000E+00  0.00000000E+00  0.00000000E+00
  0.00000000E+00  0.00000000E+00  0.00000000E+00
  0.00000000E+00  0.00000000E+00  0.00000000E+00
  0.00000000E+00  0.00000000E+00  0.00000000E+00
  0.00000000E+00  0.00000000E+00  0.00000000E+00
  0.00000000E+00  0.00000000E+00  0.00000000E+00
  0.00000000E+00  0.00000000E+00  0.00000000E+00
  0.00000000E+00  0.00000000E+00  0.00000000E+00
  0.00000000E+00  0.00000000E+00  0.00000000E+00
  0.00000000E+00  0.00000000E+00  0.00000000E+00
  0.00000000E+00  0.00000000E+00  0.00000000E+00
  0.00000000E+00  0.00000000E+00  0.00000000E+00
  0.00000000E+00  0.00000000E+00  0.00000000E+00
  0.00000000E+00  0.00000000E+00  0.00000000E+00
  0.00000000E+00  0.00000000E+00  0.00000000E+00
  0.00000000E+00  0.00000000E+00  0.00000000E+00
  0.00000000E+00  0.00000000E+00  0.00000000E+00
  0.00000000E+00  0.00000000E+00  0.00000000E+00
  0.00000000E+00  0.00000000E+00  0.00000000E+00
  0.00000000E+00  0.00000000E+00  0.00000000E+00
  0.00000000E+00  0.00000000E+00  0.00000000E+00
  0.00000000E+00  0.00000000E+00  0.00000000E+00
  0.00000000E+00  0.00000000E+00  0.00000000E+00
  0.00000000E+00  0.00000000E+00  0.00000000E+00
  0.00000000E+00  0.00000000E+00  0.00000000E+00
  0.00000000E+00  0.00000000E+00  0.00000000E+00
  0.00000000E+00  0.00000000E+00  0.00000000E+00
  0.00000000E+00  0.00000000E+00  0.00000000E+00
  0.00000000E+00  0.00000000E+00  0.00000000E+00
  0.00000000E+00  0.00000000E+00  0.00000000E+00
  0.00000000E+00  0.00000000E+00  0.00000000E+00
  0.00000000E+00  0.00000000E+00  0.00000000E+00
  0.00000000E+00  0.00000000E+00  0.00000000E+00
  0.00000000E+00  0.00000000E+00  0.00000000E+00
  0.00000000E+00  0.00000000E+00  0.00000000E+00
  0.00000000E+00  0.00000000E+00  0.00000000E+00
  0.00000000E+00  0.00000000E+00  0.00000000E+00
  0.00000000E+00  0.00000000E+00  0.00000000E+00
  0.00000000E+00  0.00000000E+00  0.00000000E+00
  0.00000000E+00  0.00000000E+00  0.00000000E+00
  0.00000000E+00  0.00000000E+00  0.00000000E+00
  0.00000000E+00  0.00000000E+00  0.00000000E+00
  0.00000000E+00  0.00000000E+00  0.00000000E+00
  0.00000000E+00  0.00000000E+00  0.00000000E+00
  0.00000000E+00  0.00000000E+00  0.00000000E+00
  0.00000000E+00  0.00000000E+00  0.00000000E+00
  0.00000000E+00  0.00000000E+00  0.00000000E+00
  0.00000000E+00  0.00000000E+00  0.00000000E+00
  0.00000000E+00  0.00000000E+00  0.00000000E+00
  0.00000000E+00  0.00000000E+00  0.00000000E+00
  0.00000000E+00  0.00000000E+00  0.00000000E+00
  0.00000000E+00  0.00000000E+00  0.00000000E+00
  0.00000000E+00  0.00000000E+00  0.00000000E+00
  0.00000000E+00  0.00000000E+00  0.00000000E+00
  0.00000000E+00  0.00000000E+00  0.00000000E+00
  0.00000000E+00  0.00000000E+00  0.00000000E+00
  0.00000000E+00  0.00000000E+00  0.00000000E+00
  0.00000000E+00  0.00000000E+00  0.00000000E+00
  0.00000000E+00  0.00000000E+00  0.00000000E+00
  0.00000000E+00  0.00000000E+00  0.00000000E+00
  0.00000000E+00  0.00000000E+00  0.00000000E+00
  0.00000000E+00  0.00000000E+00  0.00000000E+00
  0.00000000E+00  0.00000000E+00  0.00000000E+00
  0.00000000E+00  0.00000000E+00  0.00000000E+00
  0.00000000E+00  0.00000000E+00  0.00000000E+00
  0.00000000E+00  0.00000000E+00  0.00000000E+00
  0.00000000E+00  0.00000000E+00  0.00000000E+00
  0.00000000E+00  0.00000000E+00  0.00000000E+00
  0.00000000E+00  0.00000000E+00  0.00000000E+00
  0.00000000E+00  0.00000000E+00  0.00000000E+00
  0.00000000E+00  0.00000000E+00  0.00000000E+00
  0.00000000E+00  0.00000000E+00  0.00000000E+00
  0.00000000E+00  0.00000000E+00  0.00000000E+00
  0.00000000E+00  0.00000000E+00  0.00000000E+00
  0.00000000E+00  0.00000000E+00  0.00000000E+00
  0.00000000E+00  0.00000000E+00  0.00000000E+00
  0.00000000E+00  0.00000000E+00  0.00000000E+00
  0.00000000E+00  0.00000000E+00  0.00000000E+00
  0.00000000E+00  0.00000000E+00  0.00000000E+00
  0.00000000E+00  0.00000000E+00  0.00000000E+00
  0.00000000E+00  0.00000000E+00  0.00000000E+00
  0.00000000E+00  0.00000000E+00  0.00000000E+00
  0.00000000E+00  0.00000000E+00  0.00000000E+00
  0.00000000E+00  0.00000000E+00  0.00000000E+00
  0.00000000E+00  0.00000000E+00  0.00000000E+00
  0.00000000E+00  0.00000000E+00  0.00000000E+00
  0.00000000E+00  0.00000000E+00  0.00000000E+00
  0.00000000E+00  0.00000000E+00  0.00000000E+00
  0.00000000E+00  0.00000000E+00  0.00000000E+00
  0.00000000E+00  0.00000000E+00  0.00000000E+00
  0.00000000E+00  0.00000000E+00  0.00000000E+00
  0.00000000E+00  0.00000000E+00  0.00000000E+00
  0.00000000E+00  0.00000000E+00  0.00000000E+00
  0.00000000E+00  0.00000000E+00  0.00000000E+00
  0.00000000E+00  0.00000000E+00  0.00000000E+00
  0.00000000E+00  0.00000000E+00  0.00000000E+00
  0.00000000E+00  0.00000000E+00  0.00000000E+00
  0.00000000E+00  0.00000000E+00  0.00000000E+00
  0.00000000E+00  0.00000000E+00  0.00000000E+00
  0.00000000E+00  0.00000000E+00  0.00000000E+00
  0.00000000E+00  0.00000000E+00  0.00000000E+00
  0.00000000E+00  0.00000000E+00  0.00000000E+00
  0.00000000E+00  0.00000000E+00  0.00000000E+00
  0.00000000E+00  0.00000000E+00  0.00000000E+00
  0.00000000E+00  0.00000000E+00  0.00000000E+00
  0.00000000E+00  0.00000000E+00  0.00000000E+00
  0.00000000E+00  0.00000000E+00  0.00000000E+00
  0.00000000E+00  0.00000000E+00  0.00000000E+00
  0.00000000E+00  0.00000000E+00  0.00000000E+00
  0.00000000E+00  0.00000000E+00  0.00000000E+00
  0.00000000E+00  0.00000000E+00  0.00000000E+00
  0.00000000E+00  0.00000000E+00  0.00000000E+00
  0.00000000E+00  0.00000000E+00  0.00000000E+00
  0.00000000E+00  0.00000000E+00  0.00000000E+00
  0.00000000E+00  0.00000000E+00  0.00000000E+00
  0.00000000E+00  0.00000000E+00  0.00000000E+00
  0.00000000E+00  0.00000000E+00  0.00000000E+00
  0.00000000E+00  0.00000000E+00  0.00000000E+00
  0.00000000E+00  0.00000000E+00  0.00000000E+00
  0.00000000E+00  0.00000000E+00  0.00000000E+00
  0.00000000E+00  0.00000000E+00  0.00000000E+00
  0.00000000E+00  0.00000000E+00  0.00000000E+00
  0.00000000E+00  0.00000000E+00  0.00000000E+00
  0.00000000E+00  0.00000000E+00  0.00000000E+00
  0.00000000E+00  0.00000000E+00  0.00000000E+00
  0.00000000E+00  0.00000000E+00  0.00000000E+00
  0.00000000E+00  0.00000000E+00  0.00000000E+00
  0.00000000E+00  0.00000000E+00  0.00000000E+00
  0.00000000E+00  0.00000000E+00  0.00000000E+00
  0.00000000E+00  0.00000000E+00  0.00000000E+00
  0.00000000E+00  0.00000000E+00  0.00000000E+00
  0.00000000E+00  0.00000000E+00  0.00000000E+00
  0.00000000E+00  0.00000000E+00  0.00000000E+00
  0.00000000E+00  0.00000000E+00  0.00000000E+00
  0.00000000E+00  0.00000000E+00  0.00000000E+00
  0.00000000E+00  0.00000000E+00  0.00000000E+00
  0.00000000E+00  0.00000000E+00  0.00000000E+00
  0.00000000E+00  0.00000000E+00  0.00000000E+00
  0.00000000E+00  0.00000000E+00  0.00000000E+00
  0.00000000E+00  0.00000000E+00  0.00000000E+00
  0.00000000E+00  0.00000000E+00  0.00000000E+00
