       N       E                     dE             d eps       ncg     rms          rms(c)
DAV:   1     0.106392135245E+05    0.10639E+05   -0.27257E+05 17616   0.170E+03
DAV:   2     0.125921791951E+04   -0.93800E+04   -0.87624E+04 24016   0.783E+02
DAV:   3    -0.474701781764E+03   -0.17339E+04   -0.16050E+04 29416   0.354E+02
DAV:   4    -0.728636934174E+03   -0.25394E+03   -0.24183E+03 32528   0.175E+02
DAV:   5    -0.756321163734E+03   -0.27684E+02   -0.26735E+02 32528   0.746E+01    0.292E+02
DAV:   6    -0.641149473838E+03    0.11517E+03   -0.21979E+02 30568   0.536E+01    0.171E+02
DAV:   7    -0.646312202689E+03   -0.51627E+01   -0.23406E+02 29144   0.448E+01    0.510E+01
DAV:   8    -0.642402407135E+03    0.39098E+01   -0.53833E+01 28632   0.362E+01    0.197E+01
DAV:   9    -0.640659642120E+03    0.17428E+01   -0.16146E+01 29624   0.158E+01    0.802E+00
DAV:  10    -0.640588275934E+03    0.71366E-01   -0.53003E+00 29904   0.863E+00    0.823E+00
DAV:  11    -0.640602869826E+03   -0.14594E-01   -0.86366E-01 30568   0.388E+00    0.595E+00
DAV:  12    -0.640583863222E+03    0.19007E-01   -0.26537E-01 29432   0.215E+00    0.239E+00
DAV:  13    -0.640566112478E+03    0.17751E-01   -0.12757E-01 28552   0.139E+00    0.129E+00
DAV:  14    -0.640563597509E+03    0.25150E-02   -0.34537E-02 30104   0.780E-01    0.794E-01
DAV:  15    -0.640564613401E+03   -0.10159E-02   -0.10702E-02 30352   0.312E-01    0.533E-01
DAV:  16    -0.640564069986E+03    0.54341E-03   -0.38528E-03 28032   0.251E-01    0.240E-01
DAV:  17    -0.640564131693E+03   -0.61706E-04   -0.84811E-04 30472   0.966E-02    0.218E-01
DAV:  18    -0.640564046302E+03    0.85390E-04   -0.30694E-04 28576   0.748E-02    0.457E-02
DAV:  19    -0.640564051036E+03   -0.47333E-05   -0.97491E-05 30600   0.280E-02    0.337E-02
DAV:  20    -0.640564052944E+03   -0.19081E-05   -0.10882E-05 23880   0.126E-02    0.208E-02
DAV:  21    -0.640564052881E+03    0.63214E-07   -0.15703E-06 15432   0.715E-03
   1 F= 0.27147523E+03 E0= 0.27146914E+03  d E =0.271475E+03
