generated by phonopy                    
   1.00000000000000     
     0.0000000000000000    3.4268346615996679    3.4268346615997762
     3.4268346615997127    0.0000000000000000    3.4268346615997762
     3.4268346615997127    3.4268346615996679    0.0000000000000000
   Ca   Y    La   Zr   H 
     1     1     1     1    24
Direct
  0.2500000000000000  0.2500000000000000  0.2500000000000000
  0.7500000000000000  0.7500000000000000  0.7500000000000000
  0.0000000000000000  0.0000000000000000  0.0000000000000000
  0.5000000000000000  0.5000000000000000  0.5000000000000000
  0.1347982321951449  0.8748996659645627  0.6145149682520312
  0.8748996659645627  0.1347982321951449  0.3757871335882754
  0.6145149682520312  0.3757871335882754  0.1347982321951449
  0.3757871335882754  0.6145149682520312  0.8748996659645627
  0.6145149682520312  0.1347982321951449  0.8748996659645627
  0.3757871335882754  0.8748996659645627  0.1347982321951449
  0.1347982321951449  0.6145149682520312  0.3757871335882754
  0.8748996659645627  0.3757871335882754  0.6145149682520312
  0.8748996659645627  0.6145149682520312  0.1347982321951449
  0.1347982321951449  0.3757871335882754  0.8748996659645627
  0.3757871335882754  0.1347982321951449  0.6145149682520312
  0.6145149682520312  0.8748996659645627  0.3757871335882754
  0.1347982321951449  0.3757871335882754  0.6145149682520312
  0.3757871335882754  0.1347982321951449  0.8748996659645627
  0.6145149682520312  0.8748996659645627  0.1347982321951449
  0.8748996659645627  0.6145149682520312  0.3757871335882754
  0.6145149682520312  0.1347982321951449  0.3757871335882754
  0.8748996659645627  0.3757871335882754  0.1347982321951449
  0.1347982321951449  0.6145149682520312  0.8748996659645627
  0.3757871335882754  0.8748996659645627  0.6145149682520312
  0.3757871335882754  0.6145149682520312  0.1347982321951449
  0.1347982321951449  0.8748996659645627  0.3757871335882754
  0.8748996659645627  0.1347982321951449  0.6145149682520312
  0.6145149682520312  0.3757871335882754  0.8748996659645627
 
  0.00000000E+00  0.00000000E+00  0.00000000E+00
  0.00000000E+00  0.00000000E+00  0.00000000E+00
  0.00000000E+00  0.00000000E+00  0.00000000E+00
  0.00000000E+00  0.00000000E+00  0.00000000E+00
  0.00000000E+00  0.00000000E+00  0.00000000E+00
  0.00000000E+00  0.00000000E+00  0.00000000E+00
  0.00000000E+00  0.00000000E+00  0.00000000E+00
  0.00000000E+00  0.00000000E+00  0.00000000E+00
  0.00000000E+00  0.00000000E+00  0.00000000E+00
  0.00000000E+00  0.00000000E+00  0.00000000E+00
  0.00000000E+00  0.00000000E+00  0.00000000E+00
  0.00000000E+00  0.00000000E+00  0.00000000E+00
  0.00000000E+00  0.00000000E+00  0.00000000E+00
  0.00000000E+00  0.00000000E+00  0.00000000E+00
  0.00000000E+00  0.00000000E+00  0.00000000E+00
  0.00000000E+00  0.00000000E+00  0.00000000E+00
  0.00000000E+00  0.00000000E+00  0.00000000E+00
  0.00000000E+00  0.00000000E+00  0.00000000E+00
  0.00000000E+00  0.00000000E+00  0.00000000E+00
  0.00000000E+00  0.00000000E+00  0.00000000E+00
  0.00000000E+00  0.00000000E+00  0.00000000E+00
  0.00000000E+00  0.00000000E+00  0.00000000E+00
  0.00000000E+00  0.00000000E+00  0.00000000E+00
  0.00000000E+00  0.00000000E+00  0.00000000E+00
  0.00000000E+00  0.00000000E+00  0.00000000E+00
  0.00000000E+00  0.00000000E+00  0.00000000E+00
  0.00000000E+00  0.00000000E+00  0.00000000E+00
  0.00000000E+00  0.00000000E+00  0.00000000E+00
