generated by phonopy                    
   1.00000000000000     
     0.0000000000000000    3.3549851648387712    3.3549851648388840
     3.3549851648388160    0.0000000000000000    3.3549851648388840
     3.3549851648388160    3.3549851648387712    0.0000000000000000
   Y    Zr   Ti   Th   H 
     1     1     1     1    24
Direct
  0.2500000000000000  0.2500000000000000  0.2500000000000000
  0.7500000000000000  0.7500000000000000  0.7500000000000000
  0.0000000000000000  0.0000000000000000  0.0000000000000000
  0.5000000000000000  0.5000000000000000  0.5000000000000000
  0.1147022516483034  0.8840765965659614  0.6415035656957144
  0.8840765965659614  0.1147022516483034  0.3597175860900208
  0.6415035656957144  0.3597175860900208  0.1147022516483034
  0.3597175860900208  0.6415035656957144  0.8840765965659614
  0.6415035656957144  0.1147022516483034  0.8840765965659614
  0.3597175860900208  0.8840765965659614  0.1147022516483034
  0.1147022516483034  0.6415035656957144  0.3597175860900208
  0.8840765965659614  0.3597175860900208  0.6415035656957144
  0.8840765965659614  0.6415035656957144  0.1147022516483034
  0.1147022516483034  0.3597175860900208  0.8840765965659614
  0.3597175860900208  0.1147022516483034  0.6415035656957144
  0.6415035656957144  0.8840765965659614  0.3597175860900208
  0.1147022516483034  0.3597175860900208  0.6415035656957144
  0.3597175860900208  0.1147022516483034  0.8840765965659614
  0.6415035656957144  0.8840765965659614  0.1147022516483034
  0.8840765965659614  0.6415035656957144  0.3597175860900208
  0.6415035656957144  0.1147022516483034  0.3597175860900208
  0.8840765965659614  0.3597175860900208  0.1147022516483034
  0.1147022516483034  0.6415035656957144  0.8840765965659614
  0.3597175860900208  0.8840765965659614  0.6415035656957144
  0.3597175860900208  0.6415035656957144  0.1147022516483034
  0.1147022516483034  0.8840765965659614  0.3597175860900208
  0.8840765965659614  0.1147022516483034  0.6415035656957144
  0.6415035656957144  0.3597175860900208  0.8840765965659614
 
  0.00000000E+00  0.00000000E+00  0.00000000E+00
  0.00000000E+00  0.00000000E+00  0.00000000E+00
  0.00000000E+00  0.00000000E+00  0.00000000E+00
  0.00000000E+00  0.00000000E+00  0.00000000E+00
  0.00000000E+00  0.00000000E+00  0.00000000E+00
  0.00000000E+00  0.00000000E+00  0.00000000E+00
  0.00000000E+00  0.00000000E+00  0.00000000E+00
  0.00000000E+00  0.00000000E+00  0.00000000E+00
  0.00000000E+00  0.00000000E+00  0.00000000E+00
  0.00000000E+00  0.00000000E+00  0.00000000E+00
  0.00000000E+00  0.00000000E+00  0.00000000E+00
  0.00000000E+00  0.00000000E+00  0.00000000E+00
  0.00000000E+00  0.00000000E+00  0.00000000E+00
  0.00000000E+00  0.00000000E+00  0.00000000E+00
  0.00000000E+00  0.00000000E+00  0.00000000E+00
  0.00000000E+00  0.00000000E+00  0.00000000E+00
  0.00000000E+00  0.00000000E+00  0.00000000E+00
  0.00000000E+00  0.00000000E+00  0.00000000E+00
  0.00000000E+00  0.00000000E+00  0.00000000E+00
  0.00000000E+00  0.00000000E+00  0.00000000E+00
  0.00000000E+00  0.00000000E+00  0.00000000E+00
  0.00000000E+00  0.00000000E+00  0.00000000E+00
  0.00000000E+00  0.00000000E+00  0.00000000E+00
  0.00000000E+00  0.00000000E+00  0.00000000E+00
  0.00000000E+00  0.00000000E+00  0.00000000E+00
  0.00000000E+00  0.00000000E+00  0.00000000E+00
  0.00000000E+00  0.00000000E+00  0.00000000E+00
  0.00000000E+00  0.00000000E+00  0.00000000E+00
