generated by phonopy                    
   1.00000000000000     
     0.0000000000000000    3.3625751818088174    3.3625751818089609
     3.3625751818088752    0.0000000000000000    3.3625751818089609
     3.3625751818088752    3.3625751818088174    0.0000000000000000
   Ca   Y    La   Hf   H 
     1     1     1     1    24
Direct
  0.2500000000000000  0.2500000000000000  0.2500000000000000
  0.7500000000000000  0.7500000000000000  0.7500000000000000
  0.0000000000000000  0.0000000000000000  0.0000000000000000
  0.5000000000000000  0.5000000000000000  0.5000000000000000
  0.1334042171504635  0.8764671450292454  0.6140173053901634
  0.8764671450292454  0.1334042171504635  0.3761113324301135
  0.6140173053901634  0.3761113324301135  0.1334042171504635
  0.3761113324301135  0.6140173053901634  0.8764671450292454
  0.6140173053901634  0.1334042171504635  0.8764671450292454
  0.3761113324301135  0.8764671450292454  0.1334042171504635
  0.1334042171504635  0.6140173053901634  0.3761113324301135
  0.8764671450292454  0.3761113324301135  0.6140173053901634
  0.8764671450292454  0.6140173053901634  0.1334042171504635
  0.1334042171504635  0.3761113324301135  0.8764671450292454
  0.3761113324301135  0.1334042171504635  0.6140173053901634
  0.6140173053901634  0.8764671450292454  0.3761113324301135
  0.1334042171504635  0.3761113324301135  0.6140173053901634
  0.3761113324301135  0.1334042171504635  0.8764671450292454
  0.6140173053901634  0.8764671450292454  0.1334042171504635
  0.8764671450292454  0.6140173053901634  0.3761113324301135
  0.6140173053901634  0.1334042171504635  0.3761113324301135
  0.8764671450292454  0.3761113324301135  0.1334042171504635
  0.1334042171504635  0.6140173053901634  0.8764671450292454
  0.3761113324301135  0.8764671450292454  0.6140173053901634
  0.3761113324301135  0.6140173053901634  0.1334042171504635
  0.1334042171504635  0.8764671450292454  0.3761113324301135
  0.8764671450292454  0.1334042171504635  0.6140173053901634
  0.6140173053901634  0.3761113324301135  0.8764671450292454
 
  0.00000000E+00  0.00000000E+00  0.00000000E+00
  0.00000000E+00  0.00000000E+00  0.00000000E+00
  0.00000000E+00  0.00000000E+00  0.00000000E+00
  0.00000000E+00  0.00000000E+00  0.00000000E+00
  0.00000000E+00  0.00000000E+00  0.00000000E+00
  0.00000000E+00  0.00000000E+00  0.00000000E+00
  0.00000000E+00  0.00000000E+00  0.00000000E+00
  0.00000000E+00  0.00000000E+00  0.00000000E+00
  0.00000000E+00  0.00000000E+00  0.00000000E+00
  0.00000000E+00  0.00000000E+00  0.00000000E+00
  0.00000000E+00  0.00000000E+00  0.00000000E+00
  0.00000000E+00  0.00000000E+00  0.00000000E+00
  0.00000000E+00  0.00000000E+00  0.00000000E+00
  0.00000000E+00  0.00000000E+00  0.00000000E+00
  0.00000000E+00  0.00000000E+00  0.00000000E+00
  0.00000000E+00  0.00000000E+00  0.00000000E+00
  0.00000000E+00  0.00000000E+00  0.00000000E+00
  0.00000000E+00  0.00000000E+00  0.00000000E+00
  0.00000000E+00  0.00000000E+00  0.00000000E+00
  0.00000000E+00  0.00000000E+00  0.00000000E+00
  0.00000000E+00  0.00000000E+00  0.00000000E+00
  0.00000000E+00  0.00000000E+00  0.00000000E+00
  0.00000000E+00  0.00000000E+00  0.00000000E+00
  0.00000000E+00  0.00000000E+00  0.00000000E+00
  0.00000000E+00  0.00000000E+00  0.00000000E+00
  0.00000000E+00  0.00000000E+00  0.00000000E+00
  0.00000000E+00  0.00000000E+00  0.00000000E+00
  0.00000000E+00  0.00000000E+00  0.00000000E+00
