generated by phonopy                    
   1.00000000000000     
     0.0000000000000000    3.2958028995884829    3.2958028995885682
     3.2958028995885180    0.0000000000000000    3.2958028995885682
     3.2958028995885180    3.2958028995884829    0.0000000000000000
   Sc   Y    Ti   Ce   H 
     1     1     1     1    24
Direct
  0.2500000000000000  0.2500000000000000  0.2500000000000000
  0.7500000000000000  0.7500000000000000  0.7500000000000000
  0.0000000000000000  0.0000000000000000  0.0000000000000000
  0.5000000000000000  0.5000000000000000  0.5000000000000000
  0.1231691228099692  0.8877562338659004  0.6292753967150801
  0.8877562338659004  0.1231691228099692  0.3597992466090503
  0.6292753967150801  0.3597992466090503  0.1231691228099692
  0.3597992466090503  0.6292753967150801  0.8877562338659004
  0.6292753967150801  0.1231691228099692  0.8877562338659004
  0.3597992466090503  0.8877562338659004  0.1231691228099692
  0.1231691228099692  0.6292753967150801  0.3597992466090503
  0.8877562338659004  0.3597992466090503  0.6292753967150801
  0.8877562338659004  0.6292753967150801  0.1231691228099692
  0.1231691228099692  0.3597992466090503  0.8877562338659004
  0.3597992466090503  0.1231691228099692  0.6292753967150801
  0.6292753967150801  0.8877562338659004  0.3597992466090503
  0.1231691228099692  0.3597992466090503  0.6292753967150801
  0.3597992466090503  0.1231691228099692  0.8877562338659004
  0.6292753967150801  0.8877562338659004  0.1231691228099692
  0.8877562338659004  0.6292753967150801  0.3597992466090503
  0.6292753967150801  0.1231691228099692  0.3597992466090503
  0.8877562338659004  0.3597992466090503  0.1231691228099692
  0.1231691228099692  0.6292753967150801  0.8877562338659004
  0.3597992466090503  0.8877562338659004  0.6292753967150801
  0.3597992466090503  0.6292753967150801  0.1231691228099692
  0.1231691228099692  0.8877562338659004  0.3597992466090503
  0.8877562338659004  0.1231691228099692  0.6292753967150801
  0.6292753967150801  0.3597992466090503  0.8877562338659004
 
  0.00000000E+00  0.00000000E+00  0.00000000E+00
  0.00000000E+00  0.00000000E+00  0.00000000E+00
  0.00000000E+00  0.00000000E+00  0.00000000E+00
  0.00000000E+00  0.00000000E+00  0.00000000E+00
  0.00000000E+00  0.00000000E+00  0.00000000E+00
  0.00000000E+00  0.00000000E+00  0.00000000E+00
  0.00000000E+00  0.00000000E+00  0.00000000E+00
  0.00000000E+00  0.00000000E+00  0.00000000E+00
  0.00000000E+00  0.00000000E+00  0.00000000E+00
  0.00000000E+00  0.00000000E+00  0.00000000E+00
  0.00000000E+00  0.00000000E+00  0.00000000E+00
  0.00000000E+00  0.00000000E+00  0.00000000E+00
  0.00000000E+00  0.00000000E+00  0.00000000E+00
  0.00000000E+00  0.00000000E+00  0.00000000E+00
  0.00000000E+00  0.00000000E+00  0.00000000E+00
  0.00000000E+00  0.00000000E+00  0.00000000E+00
  0.00000000E+00  0.00000000E+00  0.00000000E+00
  0.00000000E+00  0.00000000E+00  0.00000000E+00
  0.00000000E+00  0.00000000E+00  0.00000000E+00
  0.00000000E+00  0.00000000E+00  0.00000000E+00
  0.00000000E+00  0.00000000E+00  0.00000000E+00
  0.00000000E+00  0.00000000E+00  0.00000000E+00
  0.00000000E+00  0.00000000E+00  0.00000000E+00
  0.00000000E+00  0.00000000E+00  0.00000000E+00
  0.00000000E+00  0.00000000E+00  0.00000000E+00
  0.00000000E+00  0.00000000E+00  0.00000000E+00
  0.00000000E+00  0.00000000E+00  0.00000000E+00
  0.00000000E+00  0.00000000E+00  0.00000000E+00
