generated by phonopy                    
   1.00000000000000     
     0.0000000000000000    3.2966367565623158    3.2966367565624242
     3.2966367565623607    0.0000000000000000    3.2966367565624242
     3.2966367565623607    3.2966367565623158    0.0000000000000000
   Na   Ca   Mg   Sc   H 
     1     1     1     1    24
Direct
  0.2500000000000000  0.2500000000000000  0.2500000000000000
  0.7500000000000000  0.7500000000000000  0.7500000000000000
  0.0000000000000000  0.0000000000000000  0.0000000000000000
  0.5000000000000000  0.5000000000000000  0.5000000000000000
  0.1245344997393971  0.8889935238576641  0.6208733039164755
  0.8889935238576641  0.1245344997393971  0.3655986724864562
  0.6208733039164755  0.3655986724864562  0.1245344997393971
  0.3655986724864562  0.6208733039164755  0.8889935238576641
  0.6208733039164755  0.1245344997393971  0.8889935238576641
  0.3655986724864562  0.8889935238576641  0.1245344997393971
  0.1245344997393971  0.6208733039164755  0.3655986724864562
  0.8889935238576641  0.3655986724864562  0.6208733039164755
  0.8889935238576641  0.6208733039164755  0.1245344997393971
  0.1245344997393971  0.3655986724864562  0.8889935238576641
  0.3655986724864562  0.1245344997393971  0.6208733039164755
  0.6208733039164755  0.8889935238576641  0.3655986724864562
  0.1245344997393971  0.3655986724864562  0.6208733039164755
  0.3655986724864562  0.1245344997393971  0.8889935238576641
  0.6208733039164755  0.8889935238576641  0.1245344997393971
  0.8889935238576641  0.6208733039164755  0.3655986724864562
  0.6208733039164755  0.1245344997393971  0.3655986724864562
  0.8889935238576641  0.3655986724864562  0.1245344997393971
  0.1245344997393971  0.6208733039164755  0.8889935238576641
  0.3655986724864562  0.8889935238576641  0.6208733039164755
  0.3655986724864562  0.6208733039164755  0.1245344997393971
  0.1245344997393971  0.8889935238576641  0.3655986724864562
  0.8889935238576641  0.1245344997393971  0.6208733039164755
  0.6208733039164755  0.3655986724864562  0.8889935238576641
 
  0.00000000E+00  0.00000000E+00  0.00000000E+00
  0.00000000E+00  0.00000000E+00  0.00000000E+00
  0.00000000E+00  0.00000000E+00  0.00000000E+00
  0.00000000E+00  0.00000000E+00  0.00000000E+00
  0.00000000E+00  0.00000000E+00  0.00000000E+00
  0.00000000E+00  0.00000000E+00  0.00000000E+00
  0.00000000E+00  0.00000000E+00  0.00000000E+00
  0.00000000E+00  0.00000000E+00  0.00000000E+00
  0.00000000E+00  0.00000000E+00  0.00000000E+00
  0.00000000E+00  0.00000000E+00  0.00000000E+00
  0.00000000E+00  0.00000000E+00  0.00000000E+00
  0.00000000E+00  0.00000000E+00  0.00000000E+00
  0.00000000E+00  0.00000000E+00  0.00000000E+00
  0.00000000E+00  0.00000000E+00  0.00000000E+00
  0.00000000E+00  0.00000000E+00  0.00000000E+00
  0.00000000E+00  0.00000000E+00  0.00000000E+00
  0.00000000E+00  0.00000000E+00  0.00000000E+00
  0.00000000E+00  0.00000000E+00  0.00000000E+00
  0.00000000E+00  0.00000000E+00  0.00000000E+00
  0.00000000E+00  0.00000000E+00  0.00000000E+00
  0.00000000E+00  0.00000000E+00  0.00000000E+00
  0.00000000E+00  0.00000000E+00  0.00000000E+00
  0.00000000E+00  0.00000000E+00  0.00000000E+00
  0.00000000E+00  0.00000000E+00  0.00000000E+00
  0.00000000E+00  0.00000000E+00  0.00000000E+00
  0.00000000E+00  0.00000000E+00  0.00000000E+00
  0.00000000E+00  0.00000000E+00  0.00000000E+00
  0.00000000E+00  0.00000000E+00  0.00000000E+00
