       N       E                     dE             d eps       ncg     rms          rms(c)
DAV:   1     0.144885102949E+05    0.14489E+05   -0.27001E+05138288   0.255E+03
DAV:   2     0.272587306351E+04   -0.11763E+05   -0.10989E+05137760   0.825E+02
DAV:   3    -0.198319470224E+03   -0.29242E+04   -0.26676E+04168120   0.427E+02
DAV:   4    -0.657741169182E+03   -0.45942E+03   -0.43679E+03233104   0.236E+02
DAV:   5    -0.690110039466E+03   -0.32369E+02   -0.31183E+02231608   0.746E+01
DAV:   6    -0.692468601283E+03   -0.23586E+01   -0.22988E+01237624   0.170E+01
DAV:   7    -0.692647606067E+03   -0.17900E+00   -0.17652E+00234280   0.468E+00
DAV:   8    -0.692666156110E+03   -0.18550E-01   -0.18405E-01252528   0.138E+00
DAV:   9    -0.692667798059E+03   -0.16419E-02   -0.16352E-02243288   0.410E-01
DAV:  10    -0.692667976536E+03   -0.17848E-03   -0.17812E-03254888   0.116E-01
DAV:  11    -0.692667991002E+03   -0.14465E-04   -0.14457E-04236144   0.291E-02
DAV:  12    -0.692667992532E+03   -0.15299E-05   -0.15321E-05192096   0.788E-03
DAV:  13    -0.692667992699E+03   -0.16786E-06   -0.16769E-06148408   0.277E-03
DAV:  14    -0.692667992719E+03   -0.19965E-07   -0.19914E-07139528   0.128E-03
   1 F= -.69266799E+03 E0= -.69266799E+03  d E =0.000000E+00
