POSCAR                                  
   1.00000000000000     
    10.0310183781797768   -0.0016971405730212    0.0104727823287753
    -0.0017003088649641   10.0212967746358501    0.0028294065172542
     0.0069115604954943    0.0018671645057575    6.6494798032627855
   Mg   Ca   Zr   Na   H 
     9     9     9     9   216
Direct
  0.1723830970714451  0.1645240491284711  0.2498728463621285
  0.1637890415520801  0.8340160873763582  0.2507608389990256
  0.3342817354274462  0.6685827119265594  0.5010249552516007
  0.8259525085996849  0.1745835708360745  0.7509878291543541
  0.8323596330492916  0.4977984422858287  0.2482964934458402
  0.4972108643170077  0.8338442242794919  0.7503553624764701
  0.3347437104102506  0.0029606841122588  0.0002809957677721
  0.6724612050883380  0.0005371162666490  0.5066715293878407
  0.6685714771339157  0.0025432098289916  0.9906776378184694
  0.1623866340596124  0.1623496141705418  0.7540785515037846
  0.1719110770212934  0.8363945599187296  0.7496405506986122
  0.5077134650142021  0.4986392628887616  0.7485707057533668
  0.3351754098547540  0.6680087426356237  0.0029840785883088
  0.6664984826980100  0.3248189776122861  0.9991122312036270
  0.6657172197316140  0.6697953298985869  0.9988203398789061
  0.9980325391275690  0.3273396271010015  0.0007897088734186
  0.8347362946173129  0.8397573411241398  0.2508516064819041
  0.0022358126983462  0.0065722962495277  0.0036263516417695
  0.1612683755510694  0.4985175974385494  0.2528291631423280
  0.3413320206359702  0.3295412075650823  0.4998140940310715
  0.1648920039501895  0.5011284587472231  0.7474330790373489
  0.5071065974223474  0.4953332880262231  0.2474088058884420
  0.5046855402495118  0.8413185263786294  0.2496763645693493
  0.3353668760547014  0.9995226756709856  0.4978122508838334
  0.9864233671064454  0.3291301065494531  0.5015702543875513
  0.8324977476056000  0.8348045592420219  0.7410853407083430
  0.9965227738783181  0.6701814792382187  0.9998625311423149
  0.5017635620710774  0.1622653852155892  0.2519748251008604
  0.5022717983718781  0.1645198704214762  0.7530631066375691
  0.3343095266546024  0.3309721999774202  0.9998198613370262
  0.8229649886375295  0.1698046134630703  0.2566497524237131
  0.6666774144556433  0.3344242896653742  0.5002558526920045
  0.6685605855921751  0.6641069084033904  0.5005136948208641
  0.8297946707767998  0.4988652014114263  0.7494841498739673
  0.9981620694232894  0.6679813082366519  0.5012292020985867
  0.9973054115322668  0.9967830962674223  0.4973140151939046
  0.1764391889884593  0.0859739077231914  0.0183730564401893
  0.1541832925637736  0.0849441636151179  0.4846698025279376
  0.1678601171057547  0.4132898676061635  0.0016819966728204
  0.5033845325863004  0.0885861604320578  0.9994228157101712
  0.3365135311865564  0.2489722154870288  0.2359233493808638
  0.1703129715210714  0.4143102135475809  0.5000219665426837
  0.5136473353210522  0.0833020184080422  0.5047874526748261
  0.3355061030201884  0.2473973424485196  0.7611539974676266
  0.1681193639075594  0.7504098650374328  0.0067280804221297
  0.4993226368516050  0.4130136693285167  0.9985800935790472
  0.3356192388360285  0.5870530751352093  0.2635734758105527
  0.1711638087733472  0.7467205265146243  0.4969831979399632
  0.8308545382388238  0.0825370675671878  0.9794455051551416
  0.6588031183887182  0.2507649273653216  0.2600567661752924
  0.5088331597413357  0.4148011665099868  0.4995840016513952
  0.3448200638609648  0.5870981025893826  0.7426848931798223
  0.8310572304368243  0.0826725846770907  0.5165599786295479
  0.6615233524417259  0.2516606949556329  0.7413027572339342
  0.4986250653120546  0.7510515909439127  0.9896895549915427
  0.3208260746364395  0.9159527660266987  0.2403806922035407
  0.8315048990787864  0.4140412783940513  0.9807917937808018
  0.6691003320427128  0.5857544629703707  0.2562472401044977
  0.5022177252202167  0.7478042569785395  0.5050567707318840
  0.3398783660410467  0.9162546534901226  0.7518783351624656
  0.0066989050008519  0.2492070398009288  0.2511393805081434
  0.8242339436392409  0.4129236716767293  0.5214508993236824
  0.6736294649802705  0.5828333097717694  0.7376834034769407
  0.9900366509902283  0.2447497149535667  0.7556960299111759
  0.8303690130207466  0.7536228543077815  0.9986609780727500
  0.6721374500491352  0.9219564903234403  0.2752059627370555
  0.9946774866238002  0.5844725311516304  0.2586453148946040
  0.8306327673823557  0.7504142928478993  0.4947998161110763
  0.6639146864224539  0.9170361042068067  0.7380045385750834
  0.9856421757337696  0.5839552125247206  0.7352081297171726
  0.0114918741859306  0.9185373267878341  0.2525794924833915
  0.0010571166813035  0.9220422271763505  0.7488319575012066
  0.0865263255619026  0.1661263362819386  0.0212631647401942
  0.0866485639586565  0.1578253385471246  0.4881705200271572
  0.0791907252085544  0.4970224840051241  0.0052842306527565
  0.4132981226894520  0.1598161551123553  0.0045123663075820
  0.2520029811666054  0.3267627485936220  0.2465384373426191
  0.0757305667637606  0.5004628691591270  0.4964906737592178
  0.4195783851845991  0.1621303563352047  0.5073382446411979
  0.2511871539629180  0.3287907631471316  0.7568626139685272
  0.0880292005934314  0.8432103611393302  0.0055852716512893
  0.4143398268240819  0.4936822606080356  0.9967638054066454
  0.2497630523928271  0.6765325956932737  0.2562754663754477
  0.0866148543909049  0.8394714852733637  0.4951787988852439
  0.7430313839929761  0.1618444326520494  0.0234660898844609
  0.5907102692018887  0.3152329282470606  0.2614501374137558
  0.4194014188179946  0.5069939877725296  0.5007986498525385
  0.2492100630542569  0.6683201336276611  0.7480823790552741
  0.7477308921994280  0.1795228025430395  0.5056746215364988
  0.5837615075246008  0.3179368357864638  0.7332837458195536
  0.4161199207711303  0.8428641797273104  0.9964787161119397
  0.2504707194754496  0.9934206124821140  0.2370868083941541
  0.7510316970297765  0.4995013078749737  0.0167662651073993
  0.5865676177037502  0.6683956503384456  0.2649640593363358
  0.4169172617959249  0.8287848964550353  0.5023466716524354
  0.2504751459181586  0.0010905885137469  0.7650799388585060
  0.9091250872477243  0.3312504436418313  0.2399144619213511
  0.7509686208395194  0.4994089416716087  0.4804930421610361
  0.5846066853698526  0.6790801554761794  0.7367324090261063
  0.9151283850128159  0.3354233746655110  0.7531155463058921
  0.7474426459326291  0.8418683706493904  0.9956883384316634
  0.5855060726215124  0.0083236139994559  0.2219834509876034
  0.9120304677776867  0.6635318308290318  0.2714228679364752
  0.7477637494500057  0.8233317954518857  0.4983033602515732
  0.5842027109971167  0.0002198359956890  0.7582657018047227
  0.9189500646984098  0.6635374075567906  0.7416964632293123
  0.9143716223407919  0.0117963929576391  0.2608548387314271
  0.9183349564777877  0.0010245150334921  0.7456377655395844
  0.1738657544959181  0.0055067286965266  0.1251267094148348
  0.1646000220369071  0.9995274210387947  0.6219951455536351
  0.1707660656168159  0.3250648561853146  0.1240396384456767
  0.5091764742580258  0.0086402365732874  0.1206075833436430
  0.3383877744564497  0.1645498502239256  0.3706041379472564
  0.1692342380534525  0.3290456398901163  0.6247307801733364
  0.5056099543892377  0.9940789519398220  0.6275133880795309
  0.3393450164278934  0.1650125903210700  0.8762614076558964
  0.1661720912533362  0.6714383803990888  0.1286387824321430
  0.4945793410487083  0.3155577689863598  0.1154396417567749
  0.3308333754931140  0.5025606116793099  0.3767178549353219
  0.1665947309602206  0.6722328895305326  0.6180516630217312
  0.8196458833887573  0.0100443969192409  0.1277927399801722
  0.6676317882644223  0.1495595969113606  0.3781800555410564
  0.5099332430471963  0.3289576431792420  0.6287947276229392
  0.3360644126211688  0.4945024915124153  0.8759418981148061
  0.8350603600337834  0.0265943486537855  0.6200295207312807
  0.6652984785240863  0.1588636553476908  0.8727167536124337
  0.5002549563294553  0.6693987598915452  0.1260865190899656
  0.3281411513771672  0.8324649323515264  0.3711194039090623
  0.8352281168911427  0.3312091928060760  0.1280741410640235
  0.6853836580997026  0.4999146890142894  0.3828981683796047
  0.4976941174618567  0.6721273135212867  0.6206795640485804
  0.3417389492389245  0.8427385724214451  0.8781147951544334
  0.9811776830837748  0.1542803108949023  0.3713479538706298
  0.8193297967134814  0.3452174153329953  0.6266463375964112
  0.6693360564754952  0.4946762962262529  0.8735013825819907
  0.9853639040101015  0.1682131015966945  0.8693370519217107
  0.8309981494627585  0.6607394428053310  0.1289455464640810
  0.6705188156462889  0.8472072413127834  0.3786042309731626
  0.9838462995629609  0.5111432594704286  0.3811693770427800
  0.8312143673740454  0.6472225060240951  0.6130390190185763
  0.6551725763264721  0.8406244265046762  0.8726914480963450
  0.9940070250752439  0.4946933028653349  0.8709182728356795
  0.0001290971418393  0.8296511381401640  0.3778079958385310
  0.0033916290536096  0.8388473243499478  0.8733425399780884
  0.0845899034687801  0.9980303891170803  0.2588275386504900
  0.0816509053577818  0.9972138664529616  0.7347199590914075
  0.0822122903273929  0.3149652685258051  0.2545090296473665
  0.4178704798835567  0.0047417412666204  0.2303385243082046
  0.2493429843133785  0.1659496648823046  0.4972788418246654
  0.0817833116019247  0.3291231890802657  0.7437236436933624
  0.4222154669884846  0.0047645594672565  0.7677027851622464
  0.2504906743973978  0.1671876295212019  0.0010373179107535
  0.0823062701046829  0.6760852989177434  0.2680587742811710
  0.4166749486041299  0.3267339749250894  0.2368760518557492
  0.2555152340573084  0.5032513013947718  0.4943726486800966
  0.0833360360734562  0.6725878316141215  0.7340273453462863
  0.7490769062406037  0.0049719733598172  0.2328421443921665
  0.5783898079594743  0.1731119402767519  0.5067598421548059
  0.4203153414027210  0.3287324728715960  0.7685724956031973
  0.2525589912772092  0.4977543076707384  0.0054200180274392
  0.7512633125157150  0.0004335429457583  0.7530015438081042
  0.5778842685939130  0.1525114391872668  0.9914258987859860
  0.4132328497335532  0.6716330625476049  0.2606744661207895
  0.2510698868254760  0.8289840977329623  0.4888310766910213
  0.7498684967366502  0.3386294373351042  0.2654395572137794
  0.5879722342347919  0.4977211788542846  0.4976147143433597
  0.4156687095896212  0.6615946132991064  0.7456991755364660
  0.2511911739932656  0.8388564940570103  0.0118546490155014
  0.9225387945782814  0.1584772559885695  0.4692165818389681
  0.7451376333083377  0.3308577741784348  0.7424435802902651
  0.5879997151766132  0.4968853297207652  0.9960932935677547
  0.9161533434847395  0.1657636622238163  0.0383872597993855
  0.7496428612204138  0.6627792738067747  0.2557373660970182
  0.5813400544909599  0.8268604936471171  0.5140672637569800
  0.9120482804282929  0.5025520695384922  0.4853543010891223
  0.7493948767417550  0.6657897809528750  0.7448068511262358
  0.5837928646152623  0.8455507435510456  0.9764047989305031
  0.9137628790990380  0.4977291652079854  0.0103795742074167
  0.9225234165859391  0.8312401476912445  0.4928317619017631
  0.9155209606667702  0.8431873883547691  0.9973755540820556
  0.9769298941148188  0.1647932305404949  0.1288668480276993
  0.9874551990148343  0.1573567924271548  0.6240433792535396
  0.9890663620117243  0.4975964887178349  0.1221186025002174
  0.3403459545087464  0.1667214382796181  0.1240734071376770
  0.1614411992808001  0.3290625668107867  0.3761804943199950
  0.9931476308338882  0.5073384477670524  0.6273194466112865
  0.3436632126404375  0.1636736683449040  0.6300827787932579
  0.1754725338374623  0.3289853824648282  0.8796426898671880
  0.0024477467139077  0.8369553900780977  0.1241862864893150
  0.3307307075722091  0.4931802001874243  0.1219701810808806
  0.1550397149802872  0.6736209438585483  0.3748233061700844
  0.0037697043704105  0.8293533746383124  0.6241126563195183
  0.6735827987301264  0.1526789745444090  0.1239809771209519
  0.5091513429903521  0.3268879592746392  0.3707320883684859
  0.3357874136235646  0.5074457700850283  0.6240014231121668
  0.1710005455577539  0.6694575249113650  0.8760927610901055
  0.6655967373996262  0.1548626355177148  0.6240096653025103
  0.4920475323278561  0.3276511567829831  0.8740275288756600
  0.3339633200775141  0.8394198882656325  0.1251213052110089
  0.1649799378009423  0.9970807701065307  0.3741895616621106
  0.6813979213817737  0.4988218903432299  0.1199009075767670
  0.5059853551417443  0.6725375510904706  0.3775423280572445
  0.3419217466761097  0.8276815827468694  0.6262283431965691
  0.1818185287690557  0.9992690728246809  0.8768570192887586
  0.8205032772796775  0.3356653712122618  0.3709586004492666
  0.6714275896866182  0.5007274152095610  0.6269658023768413
  0.4980617678709447  0.6740721545557621  0.8723990978127610
  0.8313592032685154  0.3426412331866007  0.8835009356379084
  0.6680241252081111  0.8487298603950603  0.1203382792267045
  0.5174717664110585  0.0056135021802020  0.3791568848248889
  0.8392170423926998  0.6656009993334120  0.3714911839998340
  0.6600313620756871  0.8393390011419980  0.6256270339603021
  0.4951667897448539  0.9997274162248584  0.8688571114695555
  0.8281986266226964  0.6491871127387271  0.8747746624668278
  0.8367408321517602  0.0088006703804581  0.3707852272922913
  0.8309546910038819  0.0254739311517429  0.8765346145294720
  0.0158615152100851  0.0836931574820990  0.2580609917825319
  0.9839096319086233  0.0846017144682669  0.7336054056655412
  0.9952042037437929  0.4161932415379156  0.2484137714436285
  0.3315780212491404  0.0854168326347746  0.2384159791574909
  0.1642071443926802  0.2493049153544530  0.4951140101424182
  0.9859537974544073  0.4169104440087301  0.7551868350402328
  0.3397991267898131  0.0856676271405420  0.7569798467488850
  0.1771539951537374  0.2501012917777832  0.0080445209726204
  0.0024406035409753  0.7491434544920368  0.2620247857353031
  0.3335838435590571  0.4144529537198096  0.2396754799258081
  0.1688989852144351  0.5863634744408799  0.4965818948161903
  0.0077317641374022  0.7496897292188283  0.7318544251265457
  0.6643336209452270  0.0880448601422495  0.2813185276765311
  0.5167490198941395  0.2430071709288881  0.4936976525113976
  0.3379101138482092  0.4144815132246523  0.7556282919804491
  0.1663998503071271  0.5863294546986157  0.0035827902057863
  0.6675404512981205  0.0875822488820911  0.7333995941902296
  0.4964323715712875  0.2479299673206997  0.0136134292778017
  0.3281330745830662  0.7485299569826752  0.2603417747602611
  0.1559979674309594  0.9110155325291261  0.4882672610316075
  0.6703891700199849  0.4164790363023740  0.2508921543045888
  0.4981700248404716  0.5871417163064081  0.4971657535406819
  0.3370604719837085  0.7488250740954839  0.7426842679310409
  0.1640254406995865  0.9126362086966608  0.0127392302895032
  0.8185654945483166  0.2409437062458857  0.5056504131975855
  0.6756369496662468  0.4188070842449125  0.7460181383445040
  0.5010980707963008  0.5851884678804457  0.0005500433167131
  0.8270068852700472  0.2430173184334713  0.9935432348011234
  0.6692306328247193  0.7462947534359322  0.2629417823057219
  0.5071549610856404  0.9182522815057961  0.5215380611661161
  0.8327145694296921  0.5869745613962991  0.5191606624509298
  0.6545078752356959  0.7451170521267769  0.7390056974315823
  0.4984658287193358  0.9191627052898803  0.9924810442226973
  0.8302929285682278  0.5861873755394647  0.9775883016986651
  0.8325002417680564  0.9213910420472947  0.5018688677980000
  0.8379278766658791  0.9188383027818829  0.9921268966268674
 
  0.00000000E+00  0.00000000E+00  0.00000000E+00
  0.00000000E+00  0.00000000E+00  0.00000000E+00
  0.00000000E+00  0.00000000E+00  0.00000000E+00
  0.00000000E+00  0.00000000E+00  0.00000000E+00
  0.00000000E+00  0.00000000E+00  0.00000000E+00
  0.00000000E+00  0.00000000E+00  0.00000000E+00
  0.00000000E+00  0.00000000E+00  0.00000000E+00
  0.00000000E+00  0.00000000E+00  0.00000000E+00
  0.00000000E+00  0.00000000E+00  0.00000000E+00
  0.00000000E+00  0.00000000E+00  0.00000000E+00
  0.00000000E+00  0.00000000E+00  0.00000000E+00
  0.00000000E+00  0.00000000E+00  0.00000000E+00
  0.00000000E+00  0.00000000E+00  0.00000000E+00
  0.00000000E+00  0.00000000E+00  0.00000000E+00
  0.00000000E+00  0.00000000E+00  0.00000000E+00
  0.00000000E+00  0.00000000E+00  0.00000000E+00
  0.00000000E+00  0.00000000E+00  0.00000000E+00
  0.00000000E+00  0.00000000E+00  0.00000000E+00
  0.00000000E+00  0.00000000E+00  0.00000000E+00
  0.00000000E+00  0.00000000E+00  0.00000000E+00
  0.00000000E+00  0.00000000E+00  0.00000000E+00
  0.00000000E+00  0.00000000E+00  0.00000000E+00
  0.00000000E+00  0.00000000E+00  0.00000000E+00
  0.00000000E+00  0.00000000E+00  0.00000000E+00
  0.00000000E+00  0.00000000E+00  0.00000000E+00
  0.00000000E+00  0.00000000E+00  0.00000000E+00
  0.00000000E+00  0.00000000E+00  0.00000000E+00
  0.00000000E+00  0.00000000E+00  0.00000000E+00
  0.00000000E+00  0.00000000E+00  0.00000000E+00
  0.00000000E+00  0.00000000E+00  0.00000000E+00
  0.00000000E+00  0.00000000E+00  0.00000000E+00
  0.00000000E+00  0.00000000E+00  0.00000000E+00
  0.00000000E+00  0.00000000E+00  0.00000000E+00
  0.00000000E+00  0.00000000E+00  0.00000000E+00
  0.00000000E+00  0.00000000E+00  0.00000000E+00
  0.00000000E+00  0.00000000E+00  0.00000000E+00
  0.00000000E+00  0.00000000E+00  0.00000000E+00
  0.00000000E+00  0.00000000E+00  0.00000000E+00
  0.00000000E+00  0.00000000E+00  0.00000000E+00
  0.00000000E+00  0.00000000E+00  0.00000000E+00
  0.00000000E+00  0.00000000E+00  0.00000000E+00
  0.00000000E+00  0.00000000E+00  0.00000000E+00
  0.00000000E+00  0.00000000E+00  0.00000000E+00
  0.00000000E+00  0.00000000E+00  0.00000000E+00
  0.00000000E+00  0.00000000E+00  0.00000000E+00
  0.00000000E+00  0.00000000E+00  0.00000000E+00
  0.00000000E+00  0.00000000E+00  0.00000000E+00
  0.00000000E+00  0.00000000E+00  0.00000000E+00
  0.00000000E+00  0.00000000E+00  0.00000000E+00
  0.00000000E+00  0.00000000E+00  0.00000000E+00
  0.00000000E+00  0.00000000E+00  0.00000000E+00
  0.00000000E+00  0.00000000E+00  0.00000000E+00
  0.00000000E+00  0.00000000E+00  0.00000000E+00
  0.00000000E+00  0.00000000E+00  0.00000000E+00
  0.00000000E+00  0.00000000E+00  0.00000000E+00
  0.00000000E+00  0.00000000E+00  0.00000000E+00
  0.00000000E+00  0.00000000E+00  0.00000000E+00
  0.00000000E+00  0.00000000E+00  0.00000000E+00
  0.00000000E+00  0.00000000E+00  0.00000000E+00
  0.00000000E+00  0.00000000E+00  0.00000000E+00
  0.00000000E+00  0.00000000E+00  0.00000000E+00
  0.00000000E+00  0.00000000E+00  0.00000000E+00
  0.00000000E+00  0.00000000E+00  0.00000000E+00
  0.00000000E+00  0.00000000E+00  0.00000000E+00
  0.00000000E+00  0.00000000E+00  0.00000000E+00
  0.00000000E+00  0.00000000E+00  0.00000000E+00
  0.00000000E+00  0.00000000E+00  0.00000000E+00
  0.00000000E+00  0.00000000E+00  0.00000000E+00
  0.00000000E+00  0.00000000E+00  0.00000000E+00
  0.00000000E+00  0.00000000E+00  0.00000000E+00
  0.00000000E+00  0.00000000E+00  0.00000000E+00
  0.00000000E+00  0.00000000E+00  0.00000000E+00
  0.00000000E+00  0.00000000E+00  0.00000000E+00
  0.00000000E+00  0.00000000E+00  0.00000000E+00
  0.00000000E+00  0.00000000E+00  0.00000000E+00
  0.00000000E+00  0.00000000E+00  0.00000000E+00
  0.00000000E+00  0.00000000E+00  0.00000000E+00
  0.00000000E+00  0.00000000E+00  0.00000000E+00
  0.00000000E+00  0.00000000E+00  0.00000000E+00
  0.00000000E+00  0.00000000E+00  0.00000000E+00
  0.00000000E+00  0.00000000E+00  0.00000000E+00
  0.00000000E+00  0.00000000E+00  0.00000000E+00
  0.00000000E+00  0.00000000E+00  0.00000000E+00
  0.00000000E+00  0.00000000E+00  0.00000000E+00
  0.00000000E+00  0.00000000E+00  0.00000000E+00
  0.00000000E+00  0.00000000E+00  0.00000000E+00
  0.00000000E+00  0.00000000E+00  0.00000000E+00
  0.00000000E+00  0.00000000E+00  0.00000000E+00
  0.00000000E+00  0.00000000E+00  0.00000000E+00
  0.00000000E+00  0.00000000E+00  0.00000000E+00
  0.00000000E+00  0.00000000E+00  0.00000000E+00
  0.00000000E+00  0.00000000E+00  0.00000000E+00
  0.00000000E+00  0.00000000E+00  0.00000000E+00
  0.00000000E+00  0.00000000E+00  0.00000000E+00
  0.00000000E+00  0.00000000E+00  0.00000000E+00
  0.00000000E+00  0.00000000E+00  0.00000000E+00
  0.00000000E+00  0.00000000E+00  0.00000000E+00
  0.00000000E+00  0.00000000E+00  0.00000000E+00
  0.00000000E+00  0.00000000E+00  0.00000000E+00
  0.00000000E+00  0.00000000E+00  0.00000000E+00
  0.00000000E+00  0.00000000E+00  0.00000000E+00
  0.00000000E+00  0.00000000E+00  0.00000000E+00
  0.00000000E+00  0.00000000E+00  0.00000000E+00
  0.00000000E+00  0.00000000E+00  0.00000000E+00
  0.00000000E+00  0.00000000E+00  0.00000000E+00
  0.00000000E+00  0.00000000E+00  0.00000000E+00
  0.00000000E+00  0.00000000E+00  0.00000000E+00
  0.00000000E+00  0.00000000E+00  0.00000000E+00
  0.00000000E+00  0.00000000E+00  0.00000000E+00
  0.00000000E+00  0.00000000E+00  0.00000000E+00
  0.00000000E+00  0.00000000E+00  0.00000000E+00
  0.00000000E+00  0.00000000E+00  0.00000000E+00
  0.00000000E+00  0.00000000E+00  0.00000000E+00
  0.00000000E+00  0.00000000E+00  0.00000000E+00
  0.00000000E+00  0.00000000E+00  0.00000000E+00
  0.00000000E+00  0.00000000E+00  0.00000000E+00
  0.00000000E+00  0.00000000E+00  0.00000000E+00
  0.00000000E+00  0.00000000E+00  0.00000000E+00
  0.00000000E+00  0.00000000E+00  0.00000000E+00
  0.00000000E+00  0.00000000E+00  0.00000000E+00
  0.00000000E+00  0.00000000E+00  0.00000000E+00
  0.00000000E+00  0.00000000E+00  0.00000000E+00
  0.00000000E+00  0.00000000E+00  0.00000000E+00
  0.00000000E+00  0.00000000E+00  0.00000000E+00
  0.00000000E+00  0.00000000E+00  0.00000000E+00
  0.00000000E+00  0.00000000E+00  0.00000000E+00
  0.00000000E+00  0.00000000E+00  0.00000000E+00
  0.00000000E+00  0.00000000E+00  0.00000000E+00
  0.00000000E+00  0.00000000E+00  0.00000000E+00
  0.00000000E+00  0.00000000E+00  0.00000000E+00
  0.00000000E+00  0.00000000E+00  0.00000000E+00
  0.00000000E+00  0.00000000E+00  0.00000000E+00
  0.00000000E+00  0.00000000E+00  0.00000000E+00
  0.00000000E+00  0.00000000E+00  0.00000000E+00
  0.00000000E+00  0.00000000E+00  0.00000000E+00
  0.00000000E+00  0.00000000E+00  0.00000000E+00
  0.00000000E+00  0.00000000E+00  0.00000000E+00
  0.00000000E+00  0.00000000E+00  0.00000000E+00
  0.00000000E+00  0.00000000E+00  0.00000000E+00
  0.00000000E+00  0.00000000E+00  0.00000000E+00
  0.00000000E+00  0.00000000E+00  0.00000000E+00
  0.00000000E+00  0.00000000E+00  0.00000000E+00
  0.00000000E+00  0.00000000E+00  0.00000000E+00
  0.00000000E+00  0.00000000E+00  0.00000000E+00
  0.00000000E+00  0.00000000E+00  0.00000000E+00
  0.00000000E+00  0.00000000E+00  0.00000000E+00
  0.00000000E+00  0.00000000E+00  0.00000000E+00
  0.00000000E+00  0.00000000E+00  0.00000000E+00
  0.00000000E+00  0.00000000E+00  0.00000000E+00
  0.00000000E+00  0.00000000E+00  0.00000000E+00
  0.00000000E+00  0.00000000E+00  0.00000000E+00
  0.00000000E+00  0.00000000E+00  0.00000000E+00
  0.00000000E+00  0.00000000E+00  0.00000000E+00
  0.00000000E+00  0.00000000E+00  0.00000000E+00
  0.00000000E+00  0.00000000E+00  0.00000000E+00
  0.00000000E+00  0.00000000E+00  0.00000000E+00
  0.00000000E+00  0.00000000E+00  0.00000000E+00
  0.00000000E+00  0.00000000E+00  0.00000000E+00
  0.00000000E+00  0.00000000E+00  0.00000000E+00
  0.00000000E+00  0.00000000E+00  0.00000000E+00
  0.00000000E+00  0.00000000E+00  0.00000000E+00
  0.00000000E+00  0.00000000E+00  0.00000000E+00
  0.00000000E+00  0.00000000E+00  0.00000000E+00
  0.00000000E+00  0.00000000E+00  0.00000000E+00
  0.00000000E+00  0.00000000E+00  0.00000000E+00
  0.00000000E+00  0.00000000E+00  0.00000000E+00
  0.00000000E+00  0.00000000E+00  0.00000000E+00
  0.00000000E+00  0.00000000E+00  0.00000000E+00
  0.00000000E+00  0.00000000E+00  0.00000000E+00
  0.00000000E+00  0.00000000E+00  0.00000000E+00
  0.00000000E+00  0.00000000E+00  0.00000000E+00
  0.00000000E+00  0.00000000E+00  0.00000000E+00
  0.00000000E+00  0.00000000E+00  0.00000000E+00
  0.00000000E+00  0.00000000E+00  0.00000000E+00
  0.00000000E+00  0.00000000E+00  0.00000000E+00
  0.00000000E+00  0.00000000E+00  0.00000000E+00
  0.00000000E+00  0.00000000E+00  0.00000000E+00
  0.00000000E+00  0.00000000E+00  0.00000000E+00
  0.00000000E+00  0.00000000E+00  0.00000000E+00
  0.00000000E+00  0.00000000E+00  0.00000000E+00
  0.00000000E+00  0.00000000E+00  0.00000000E+00
  0.00000000E+00  0.00000000E+00  0.00000000E+00
  0.00000000E+00  0.00000000E+00  0.00000000E+00
  0.00000000E+00  0.00000000E+00  0.00000000E+00
  0.00000000E+00  0.00000000E+00  0.00000000E+00
  0.00000000E+00  0.00000000E+00  0.00000000E+00
  0.00000000E+00  0.00000000E+00  0.00000000E+00
  0.00000000E+00  0.00000000E+00  0.00000000E+00
  0.00000000E+00  0.00000000E+00  0.00000000E+00
  0.00000000E+00  0.00000000E+00  0.00000000E+00
  0.00000000E+00  0.00000000E+00  0.00000000E+00
  0.00000000E+00  0.00000000E+00  0.00000000E+00
  0.00000000E+00  0.00000000E+00  0.00000000E+00
  0.00000000E+00  0.00000000E+00  0.00000000E+00
  0.00000000E+00  0.00000000E+00  0.00000000E+00
  0.00000000E+00  0.00000000E+00  0.00000000E+00
  0.00000000E+00  0.00000000E+00  0.00000000E+00
  0.00000000E+00  0.00000000E+00  0.00000000E+00
  0.00000000E+00  0.00000000E+00  0.00000000E+00
  0.00000000E+00  0.00000000E+00  0.00000000E+00
  0.00000000E+00  0.00000000E+00  0.00000000E+00
  0.00000000E+00  0.00000000E+00  0.00000000E+00
  0.00000000E+00  0.00000000E+00  0.00000000E+00
  0.00000000E+00  0.00000000E+00  0.00000000E+00
  0.00000000E+00  0.00000000E+00  0.00000000E+00
  0.00000000E+00  0.00000000E+00  0.00000000E+00
  0.00000000E+00  0.00000000E+00  0.00000000E+00
  0.00000000E+00  0.00000000E+00  0.00000000E+00
  0.00000000E+00  0.00000000E+00  0.00000000E+00
  0.00000000E+00  0.00000000E+00  0.00000000E+00
  0.00000000E+00  0.00000000E+00  0.00000000E+00
  0.00000000E+00  0.00000000E+00  0.00000000E+00
  0.00000000E+00  0.00000000E+00  0.00000000E+00
  0.00000000E+00  0.00000000E+00  0.00000000E+00
  0.00000000E+00  0.00000000E+00  0.00000000E+00
  0.00000000E+00  0.00000000E+00  0.00000000E+00
  0.00000000E+00  0.00000000E+00  0.00000000E+00
  0.00000000E+00  0.00000000E+00  0.00000000E+00
  0.00000000E+00  0.00000000E+00  0.00000000E+00
  0.00000000E+00  0.00000000E+00  0.00000000E+00
  0.00000000E+00  0.00000000E+00  0.00000000E+00
  0.00000000E+00  0.00000000E+00  0.00000000E+00
  0.00000000E+00  0.00000000E+00  0.00000000E+00
  0.00000000E+00  0.00000000E+00  0.00000000E+00
  0.00000000E+00  0.00000000E+00  0.00000000E+00
  0.00000000E+00  0.00000000E+00  0.00000000E+00
  0.00000000E+00  0.00000000E+00  0.00000000E+00
  0.00000000E+00  0.00000000E+00  0.00000000E+00
  0.00000000E+00  0.00000000E+00  0.00000000E+00
  0.00000000E+00  0.00000000E+00  0.00000000E+00
  0.00000000E+00  0.00000000E+00  0.00000000E+00
  0.00000000E+00  0.00000000E+00  0.00000000E+00
  0.00000000E+00  0.00000000E+00  0.00000000E+00
  0.00000000E+00  0.00000000E+00  0.00000000E+00
  0.00000000E+00  0.00000000E+00  0.00000000E+00
  0.00000000E+00  0.00000000E+00  0.00000000E+00
  0.00000000E+00  0.00000000E+00  0.00000000E+00
  0.00000000E+00  0.00000000E+00  0.00000000E+00
  0.00000000E+00  0.00000000E+00  0.00000000E+00
  0.00000000E+00  0.00000000E+00  0.00000000E+00
  0.00000000E+00  0.00000000E+00  0.00000000E+00
  0.00000000E+00  0.00000000E+00  0.00000000E+00
  0.00000000E+00  0.00000000E+00  0.00000000E+00
  0.00000000E+00  0.00000000E+00  0.00000000E+00
  0.00000000E+00  0.00000000E+00  0.00000000E+00
  0.00000000E+00  0.00000000E+00  0.00000000E+00
  0.00000000E+00  0.00000000E+00  0.00000000E+00
  0.00000000E+00  0.00000000E+00  0.00000000E+00
  0.00000000E+00  0.00000000E+00  0.00000000E+00
  0.00000000E+00  0.00000000E+00  0.00000000E+00
  0.00000000E+00  0.00000000E+00  0.00000000E+00
  0.00000000E+00  0.00000000E+00  0.00000000E+00
