       N       E                     dE             d eps       ncg     rms          rms(c)
DAV:   1     0.114851505028E+05    0.11485E+05   -0.28832E+05149136   0.181E+03
DAV:   2     0.149778479531E+04   -0.99874E+04   -0.93720E+04203344   0.818E+02
DAV:   3    -0.325272834326E+03   -0.18231E+04   -0.16903E+04247696   0.366E+02
DAV:   4    -0.599475638197E+03   -0.27420E+03   -0.26015E+03278592   0.182E+02
DAV:   5    -0.633138934202E+03   -0.33663E+02   -0.32157E+02280760   0.772E+01
DAV:   6    -0.639740663720E+03   -0.66017E+01   -0.64285E+01280768   0.318E+01
DAV:   7    -0.641048507219E+03   -0.13078E+01   -0.12888E+01280760   0.162E+01
DAV:   8    -0.641303505047E+03   -0.25500E+00   -0.25281E+00280768   0.677E+00
DAV:   9    -0.641350890769E+03   -0.47386E-01   -0.47142E-01280760   0.313E+00
DAV:  10    -0.641359842233E+03   -0.89515E-02   -0.89207E-02280768   0.122E+00
DAV:  11    -0.641361590555E+03   -0.17483E-02   -0.17440E-02280768   0.544E-01
DAV:  12    -0.641361946774E+03   -0.35622E-03   -0.35559E-03280768   0.218E-01
DAV:  13    -0.641362021960E+03   -0.75186E-04   -0.75090E-04280768   0.979E-02
DAV:  14    -0.641362038302E+03   -0.16342E-04   -0.16328E-04280744   0.404E-02
DAV:  15    -0.641362041938E+03   -0.36353E-05   -0.36327E-05256408   0.184E-02
DAV:  16    -0.641362042758E+03   -0.82029E-06   -0.82003E-06207808   0.775E-03
DAV:  17    -0.641362042943E+03   -0.18545E-06   -0.18601E-06159320   0.365E-03
DAV:  18    -0.641362042987E+03   -0.43699E-07   -0.44012E-07144928   0.199E-03
   1 F= -.64136204E+03 E0= -.64136204E+03  d E =0.000000E+00
