POSCAR                                  
   1.00000000000000     
    10.2996777213488695    0.0385188487524343    0.0527825980632747
     0.0386537881495579   10.3232596012586253   -0.0919302729803653
     0.0351486787091255   -0.0611705534126338    6.8811584571862117
   Y    K    Sc   Zr   H 
     9     9     9     9   216
Direct
  0.1716842485572737  0.1688223708247845  0.2540833191824657
  0.1678697174955437  0.8262241934154945  0.2537340661717317
  0.3293555745601069  0.6681484951803621  0.4931348301068217
  0.8304729126786613  0.1689685559963470  0.7527171446917014
  0.8348634902529635  0.4972155338953125  0.2449942893164105
  0.4925827900085267  0.8366268664607094  0.7469004328616891
  0.3349928044878458  0.9984312959066477  0.9987609978791219
  0.6702216125223189  0.9986768114463488  0.4977380057304701
  0.6704439614964379  0.9958770099461152  0.0023676281715686
  0.1553588589938320  0.1830493343940714  0.7616137005337029
  0.1557322921889975  0.8436501313548378  0.7636356396310447
  0.4884206697345871  0.5121947220839853  0.7674053513935365
  0.3439623332479401  0.6610673648280446  0.9881661448651587
  0.6710833338610100  0.3333432866874568  0.0028234732182350
  0.6761955700779155  0.6665758261897939  0.0122300461171632
  0.0124696490594125  0.3214524515926475  0.9810887676402293
  0.8230535470201396  0.8259640816701185  0.2399705768753454
  0.0138142791372283  0.9823873715055056  0.9838870144588501
  0.1633015475530218  0.5006640988032567  0.2520533432368868
  0.3304064020707999  0.3387629727674840  0.5063527633970442
  0.1703749831334282  0.5058145336763877  0.7408987888742041
  0.5060408012221078  0.4883753359457115  0.2626396539234140
  0.4978607805817979  0.8427568210137903  0.2587707709516702
  0.3289663809996466  0.0065867948734720  0.5064602170366841
  0.0023703351318700  0.3390504158167833  0.4917350594634404
  0.8375115922807156  0.8291846423202586  0.7452766099923197
  0.0024095270485546  0.6598009952438169  0.9963533329506852
  0.4934212489074712  0.1694648859348643  0.2561164891307397
  0.4993054233040203  0.1705595869448049  0.7495251631505636
  0.3362140241176454  0.3412953789129207  0.0043783529041333
  0.8415305291339882  0.1645930446049620  0.2380618274110794
  0.6608335611076464  0.3341685239913121  0.5050438154679223
  0.6602874792798961  0.6668159212694332  0.5041274836112057
  0.8299311875839597  0.4960579111148573  0.7512810419697402
  0.0010967281265539  0.6608146734258283  0.4978540881845305
  0.9938003790560104  0.0059094737757528  0.4893920791399579
  0.1652962887104577  0.0882075138410199  0.9921104660257869
  0.1714212692781852  0.0931265460445816  0.5113293187642777
  0.1649352615792412  0.4192811488747984  0.0246437885688493
  0.5006406639604564  0.0852960485645592  0.9954104069545976
  0.3335103020373481  0.2563349422364250  0.2576564880117081
  0.1653911939755661  0.4209427056240674  0.4911776635479414
  0.4948605008810244  0.0871145190136381  0.5045869081480436
  0.3260891678107439  0.2551883281233261  0.7435402875870492
  0.1619046176574656  0.7386837937055113  0.9959025468259567
  0.4994451205760165  0.4124129497075801  0.0079716759703364
  0.3537658391823723  0.5838123563844486  0.2410792157017948
  0.1603347375331370  0.7528871468750865  0.5135430297227855
  0.8461604351366043  0.0748552319519851  0.9968609065499134
  0.6680547623753399  0.2476004893761044  0.2514334223383657
  0.4944663147197823  0.4199808584528601  0.5124468286020682
  0.3195285969403441  0.5875222034251937  0.7371230663239033
  0.8329886239287312  0.0885842534419529  0.4930292506815694
  0.6639889938358565  0.2573168209629588  0.7507836744233939
  0.5048346849299027  0.7452780655122242  0.0390859796236730
  0.3348560520561332  0.9180866079320713  0.2634725750492318
  0.8451259623198647  0.4039009266263613  0.0052513014976059
  0.6509690137196392  0.5791782499459189  0.2485539544617169
  0.4973463145712097  0.7505548638233502  0.4758356164714242
  0.3241824115081700  0.9234302937896280  0.7303617046197226
  0.0013145146372524  0.2516459634504898  0.2522912965241457
  0.8363848601861973  0.4137884226720251  0.4942486980543920
  0.6641694425427392  0.5871208923665798  0.7498564099997019
  0.9898340747047752  0.2562691081130912  0.7151431701822782
  0.8447410408960323  0.7492687093186009  0.9790269280178229
  0.6578262224039924  0.9133414446727460  0.2540473612053097
  0.0068959667193684  0.5774262394217556  0.2325853618587567
  0.8376518677291721  0.7471954523683412  0.5004260972029778
  0.6721838321778572  0.9109912610397463  0.7451160283568025
  0.9940989579726230  0.5768906245285911  0.7596722265991515
  0.9929310235379977  0.9105017637411295  0.2454522222816029
  0.9844721604812388  0.9138661669390756  0.7196260358307269
  0.0905846816236435  0.1481500730123260  0.0177106767892419
  0.0832308565052023  0.1667968270706036  0.5039016151679009
  0.0831955309432866  0.4946069161017455  0.9764964403669445
  0.4189920961894096  0.1693926507743796  0.0040876882102123
  0.2504518693570318  0.3440898767628459  0.2626713194008912
  0.0820892945021046  0.4931930620234768  0.5123628731157701
  0.4120749373562380  0.1758938658831277  0.5044308706323617
  0.2478814926749133  0.3415043323991319  0.7361999391550224
  0.0854629359129093  0.8103293063082302  0.0115501678102987
  0.4246202290082054  0.4980916752705046  0.0382145141285140
  0.2527422728134843  0.6555485310044542  0.2346752870830737
  0.0846370675579916  0.8457450647864554  0.5096698877557637
  0.7478503585839514  0.1630165024574566  0.0088987736921825
  0.5861816022701934  0.3288691266144471  0.2530366708566395
  0.4158792134109103  0.4957481169033880  0.4965581254976545
  0.2407233589563788  0.6697318106639715  0.7472984126935076
  0.7519486232773898  0.1718381516563863  0.4898714653970350
  0.5754297499660628  0.3398740353466755  0.7574457795580757
  0.4216557750564497  0.8322634489917395  0.0172264348269905
  0.2507978844708256  0.9986516568502495  0.2650416147631994
  0.7563423287657346  0.4999477713194310  0.9927201873567788
  0.5824183057135209  0.6415024919414497  0.2541214990054810
  0.4121464331927877  0.8381239936521534  0.4935298987085310
  0.2414791856582863  0.0116152463159088  0.7429998466103499
  0.9262502913398926  0.3314484331856247  0.2449784834316958
  0.7489221199784600  0.4971789847818049  0.5064952178378047
  0.5802062342162618  0.6719348284124833  0.7779221307364032
  0.9205519337399540  0.3373091880308519  0.7372630937047286
  0.7535072207801693  0.8296875261396196  0.9715978418882070
  0.5836332978419102  0.0102161226091055  0.2524994010972557
  0.9152899864965773  0.6663326110076232  0.2630617664949441
  0.7501959636944782  0.8259360303094413  0.5091127392982955
  0.5841444113520888  0.0020528728587940  0.7493588011516696
  0.9148695643248643  0.6641410495360579  0.7350814603817908
  0.9244912091122424  0.9890565151283415  0.2366611871212963
  0.9153200555615282  0.9869830351749810  0.7488911763877193
  0.1706138536482226  0.9930495039863380  0.1320078461283616
  0.1684017818648915  0.0098632663443158  0.6279040040437435
  0.1666047635648844  0.3461974653427775  0.1249100134646854
  0.5010413096682084  0.9998076226600124  0.1311641400964556
  0.3354305844364414  0.1729611925094878  0.3896086011830064
  0.1696232914597762  0.3430450642761985  0.6265450054981859
  0.4940817608084954  0.0037662413338061  0.6169641022460763
  0.3300810084361870  0.1723458183871572  0.8719351296563430
  0.1673704338497576  0.6557866253579483  0.1183861318457726
  0.5029670503828891  0.3310242736921761  0.1293861940688628
  0.3252054865214768  0.4968599707125771  0.3683151547961938
  0.1611308791432644  0.6733672794707047  0.6360340378410557
  0.8446330890915987  0.9894255442041248  0.1097067162293300
  0.6637034415074515  0.1675300259038911  0.3779389944452484
  0.4893121523523200  0.3404680971961509  0.6308151654795848
  0.3148242052929360  0.4916627850189138  0.8743104476411927
  0.8352152784416508  0.0016022068244128  0.6224905319595697
  0.6606628213576113  0.1656499908761329  0.8798453616685855
  0.5067500716048765  0.6881640355388801  0.1272030788891351
  0.3365113757644819  0.8449224283728977  0.3756841218890682
  0.8442273172362170  0.3359291089999899  0.1074940735439471
  0.6699581982673325  0.5001899320378795  0.3835036757588856
  0.4969328713267684  0.6699071727157578  0.6243159780252435
  0.3247849506013880  0.8273294308792593  0.8754329344437531
  0.0001042901736228  0.1751618692033064  0.3690426248373403
  0.8341495225048704  0.3340348490290858  0.6185389153585981
  0.6506058243909643  0.4979828892844717  0.8925714663321609
  0.9881446887624289  0.1460592671344192  0.8726947070228900
  0.8504060581663569  0.6580598069828225  0.1138001731955949
  0.6591707154516478  0.8288589426708716  0.3722603001015498
  0.0029455189543674  0.4966589929686598  0.3719343923507718
  0.8360379092221988  0.6666289641772147  0.6344497265151630
  0.6564812816389978  0.8249444200672931  0.8829513650469137
  0.0188574055691781  0.4971318144208098  0.8808003355489982
  0.9927831937925684  0.8227119537349571  0.3769801645742153
  0.9881821419338518  0.8119742837332251  0.8690929080999099
  0.0866771603233058  0.0021050994790064  0.2478987743793396
  0.0792072167388773  0.0151767466349973  0.7190079065056770
  0.0888225341872031  0.3370553167946078  0.2477066075618683
  0.4172399395099659  0.0010543593205469  0.2561113306344088
  0.2463619742162503  0.1667290898191257  0.5134461290764853
  0.0851204951223461  0.3569018090690140  0.7244564043168930
  0.4168093868857914  0.0097256739048259  0.7456502612761456
  0.2570604839044475  0.1698120639786741  0.9971687581395405
  0.0831594386000710  0.6593975437589096  0.2460408197665749
  0.4121445728296880  0.3434919117712664  0.2615925007292304
  0.2483623283352642  0.4972378448007198  0.4933945424473676
  0.0792234130851894  0.6660586976593321  0.7462025206917571
  0.7556379217986182  0.0037764123466984  0.2497289695970699
  0.5831450672260418  0.1680845276632495  0.4907714463051551
  0.4146210882936977  0.3409283368713302  0.7412355085940359
  0.2473833256309698  0.5093760853570271  0.0199884006862741
  0.7506432030788074  0.9964823594499170  0.7476493834383540
  0.5867700485279058  0.1691531563665759  0.0171479313036998
  0.4193163565309697  0.6416083800351366  0.2452502331088031
  0.2465334864908488  0.8402649922112381  0.5116375814561235
  0.7499529169911967  0.3271154505100729  0.2588292007224747
  0.5780517110995819  0.4994363950964340  0.5168406996796141
  0.4090661078097913  0.6756436443377842  0.7310633896368613
  0.2547974659624386  0.8302605609887561  0.0005575251422179
  0.9157674909090786  0.1727152376558515  0.4983836141027496
  0.7402077827081144  0.3335505953370638  0.7440913335520556
  0.5910888820033560  0.5044355626027598  0.9969119229177685
  0.9287109636276174  0.1527652652168339  0.9845601446209300
  0.7471370598960103  0.6598644945760008  0.2705976558236289
  0.5797511490675508  0.8352732874440468  0.5023284418575130
  0.9149333611902712  0.4943242697999174  0.5053790547862672
  0.7506912107314161  0.6727385679224517  0.7478658599684795
  0.5904106678811258  0.8291805429488732  0.9842592300899967
  0.9249509747763930  0.4953930440141887  0.9873815476890792
  0.9115536586662697  0.8307847292349499  0.4901973926380976
  0.9127206482179402  0.8238611834529742  0.9911284855276963
  0.0067949394438660  0.1558090042844961  0.1194771240044203
  0.9955192755319177  0.1747995673395428  0.6135229207338389
  0.0075308425090767  0.4935701618370319  0.1230235944249368
  0.3390121272959721  0.1691523048960778  0.1183981904117562
  0.1745228546325276  0.3442311050324663  0.3774306511790534
  0.0040995327246644  0.5003254645748533  0.6214392669002181
  0.3286969845782169  0.1743527622755083  0.6341280694129300
  0.1810040615190845  0.3596501638328659  0.8718059943129229
  0.9979085203538532  0.8175911901204261  0.1296649672919142
  0.3156019459804180  0.5027774682621584  0.1236492235909644
  0.1601801352351422  0.6581849669204609  0.3685224603989012
  0.9977110057119325  0.8151644193807422  0.6223882986266210
  0.6605698264066547  0.1678646423820146  0.1242895491985348
  0.4886936611302458  0.3298067714131452  0.3799447265642286
  0.3285850019574117  0.4960157919641374  0.6225213909511944
  0.1681684738664078  0.6647810884149831  0.8778787446442626
  0.6639397626143335  0.1667673121843061  0.6249977820172011
  0.5028695775563362  0.3408568256155253  0.8800600247790812
  0.3455928639308893  0.8256661975388285  0.1264528285433402
  0.1727693339535869  0.9981562158829189  0.3842283781933308
  0.6609545827354280  0.4987791536987118  0.1379780256999553
  0.4967626060308494  0.6834020813041116  0.3653528627577844
  0.3198439835611326  0.8478102338442861  0.6241085948077957
  0.1798025538921523  0.0187825715749083  0.8728410954632382
  0.8411959131213761  0.3309913648254760  0.3751927960309437
  0.6556760393912004  0.5006060690695207  0.6298073300386130
  0.5176546137834562  0.6807112643874009  0.8775204136731736
  0.8412269927758029  0.3402221460856459  0.8680699387091813
  0.6473850805219157  0.8313100000801569  0.1297913826033144
  0.4942860439214118  0.0029358214432091  0.3769650436876389
  0.8402831049235052  0.6655437627695769  0.3714305400619405
  0.6701282572192382  0.8333504736556688  0.6329204595902542
  0.5029918668895206  0.0038250538408954  0.8816545514826791
  0.8399544313914512  0.6632094612571986  0.8739537503674444
  0.8351375095827124  0.9962663513432349  0.3631598801554660
  0.8458908530275423  0.9968963454851846  0.8684907598950175
  0.0027635017479449  0.0749936922662510  0.2354390831165823
  0.0020204268438230  0.0802824969004827  0.7426600069022046
  0.0030607188366215  0.4122348624438464  0.2337875104382579
  0.3354305765380073  0.0806871321122348  0.2605409942486187
  0.1667367335330826  0.2580547362571957  0.5053751645311811
  0.9965651992190062  0.4189248571141831  0.7413571740635284
  0.3274264226325452  0.0934039688646642  0.7440109327392195
  0.1838997566810705  0.2565177994982561  0.0143585706194354
  0.9948822872512091  0.7486095900911018  0.2399321033054289
  0.3404121321288578  0.4182887782274159  0.2546859199064886
  0.1657015548553175  0.5807709859688485  0.4975225308134322
  0.9983646439170875  0.7478119916577376  0.7616764149896180
  0.6655843427548207  0.0857061753901142  0.2537803154704426
  0.4929782608079212  0.2519315468383457  0.5113849771525413
  0.3303265216150278  0.4196745805140252  0.7411062151096157
  0.1731325552087526  0.5779572805325093  0.9999176581344720
  0.6663958996249288  0.0810419140023163  0.7504000704239070
  0.5013427662177797  0.2494019055379838  0.9995601402771987
  0.3444354396863208  0.7510041297275696  0.2392815015884186
  0.1502250155475729  0.9128472610360382  0.5064509829579014
  0.6660770576310090  0.4076358947226718  0.2598388611310204
  0.4996775476450498  0.5804003909358735  0.4889922986388953
  0.3244786706654106  0.7569846255225023  0.7480672567433890
  0.1796966677883017  0.9091125850520614  0.0204054839141927
  0.8399122603958956  0.2527869577827475  0.4903495640540343
  0.6585877759629933  0.4229563112834925  0.7526610369738942
  0.5085310269368233  0.5760686559892496  0.0469616053529442
  0.8413522735443880  0.2447322913583500  0.0071160557704541
  0.6458585731601605  0.7493892744470421  0.2592643060744680
  0.4963026339866627  0.9268626314999826  0.4998622662310848
  0.8277417000797855  0.5838813762049115  0.5039885263354194
  0.6680656970725647  0.7485433022497313  0.7534646923521040
  0.5034357365245216  0.9201663034774239  0.0061286017958333
  0.8433522605549796  0.5846427053209997  0.9928890263083379
  0.8426064142354976  0.9051839043350388  0.5012031892850923
  0.8446857469844123  0.9134787935716850  0.9971398121086348
 
  0.00000000E+00  0.00000000E+00  0.00000000E+00
  0.00000000E+00  0.00000000E+00  0.00000000E+00
  0.00000000E+00  0.00000000E+00  0.00000000E+00
  0.00000000E+00  0.00000000E+00  0.00000000E+00
  0.00000000E+00  0.00000000E+00  0.00000000E+00
  0.00000000E+00  0.00000000E+00  0.00000000E+00
  0.00000000E+00  0.00000000E+00  0.00000000E+00
  0.00000000E+00  0.00000000E+00  0.00000000E+00
  0.00000000E+00  0.00000000E+00  0.00000000E+00
  0.00000000E+00  0.00000000E+00  0.00000000E+00
  0.00000000E+00  0.00000000E+00  0.00000000E+00
  0.00000000E+00  0.00000000E+00  0.00000000E+00
  0.00000000E+00  0.00000000E+00  0.00000000E+00
  0.00000000E+00  0.00000000E+00  0.00000000E+00
  0.00000000E+00  0.00000000E+00  0.00000000E+00
  0.00000000E+00  0.00000000E+00  0.00000000E+00
  0.00000000E+00  0.00000000E+00  0.00000000E+00
  0.00000000E+00  0.00000000E+00  0.00000000E+00
  0.00000000E+00  0.00000000E+00  0.00000000E+00
  0.00000000E+00  0.00000000E+00  0.00000000E+00
  0.00000000E+00  0.00000000E+00  0.00000000E+00
  0.00000000E+00  0.00000000E+00  0.00000000E+00
  0.00000000E+00  0.00000000E+00  0.00000000E+00
  0.00000000E+00  0.00000000E+00  0.00000000E+00
  0.00000000E+00  0.00000000E+00  0.00000000E+00
  0.00000000E+00  0.00000000E+00  0.00000000E+00
  0.00000000E+00  0.00000000E+00  0.00000000E+00
  0.00000000E+00  0.00000000E+00  0.00000000E+00
  0.00000000E+00  0.00000000E+00  0.00000000E+00
  0.00000000E+00  0.00000000E+00  0.00000000E+00
  0.00000000E+00  0.00000000E+00  0.00000000E+00
  0.00000000E+00  0.00000000E+00  0.00000000E+00
  0.00000000E+00  0.00000000E+00  0.00000000E+00
  0.00000000E+00  0.00000000E+00  0.00000000E+00
  0.00000000E+00  0.00000000E+00  0.00000000E+00
  0.00000000E+00  0.00000000E+00  0.00000000E+00
  0.00000000E+00  0.00000000E+00  0.00000000E+00
  0.00000000E+00  0.00000000E+00  0.00000000E+00
  0.00000000E+00  0.00000000E+00  0.00000000E+00
  0.00000000E+00  0.00000000E+00  0.00000000E+00
  0.00000000E+00  0.00000000E+00  0.00000000E+00
  0.00000000E+00  0.00000000E+00  0.00000000E+00
  0.00000000E+00  0.00000000E+00  0.00000000E+00
  0.00000000E+00  0.00000000E+00  0.00000000E+00
  0.00000000E+00  0.00000000E+00  0.00000000E+00
  0.00000000E+00  0.00000000E+00  0.00000000E+00
  0.00000000E+00  0.00000000E+00  0.00000000E+00
  0.00000000E+00  0.00000000E+00  0.00000000E+00
  0.00000000E+00  0.00000000E+00  0.00000000E+00
  0.00000000E+00  0.00000000E+00  0.00000000E+00
  0.00000000E+00  0.00000000E+00  0.00000000E+00
  0.00000000E+00  0.00000000E+00  0.00000000E+00
  0.00000000E+00  0.00000000E+00  0.00000000E+00
  0.00000000E+00  0.00000000E+00  0.00000000E+00
  0.00000000E+00  0.00000000E+00  0.00000000E+00
  0.00000000E+00  0.00000000E+00  0.00000000E+00
  0.00000000E+00  0.00000000E+00  0.00000000E+00
  0.00000000E+00  0.00000000E+00  0.00000000E+00
  0.00000000E+00  0.00000000E+00  0.00000000E+00
  0.00000000E+00  0.00000000E+00  0.00000000E+00
  0.00000000E+00  0.00000000E+00  0.00000000E+00
  0.00000000E+00  0.00000000E+00  0.00000000E+00
  0.00000000E+00  0.00000000E+00  0.00000000E+00
  0.00000000E+00  0.00000000E+00  0.00000000E+00
  0.00000000E+00  0.00000000E+00  0.00000000E+00
  0.00000000E+00  0.00000000E+00  0.00000000E+00
  0.00000000E+00  0.00000000E+00  0.00000000E+00
  0.00000000E+00  0.00000000E+00  0.00000000E+00
  0.00000000E+00  0.00000000E+00  0.00000000E+00
  0.00000000E+00  0.00000000E+00  0.00000000E+00
  0.00000000E+00  0.00000000E+00  0.00000000E+00
  0.00000000E+00  0.00000000E+00  0.00000000E+00
  0.00000000E+00  0.00000000E+00  0.00000000E+00
  0.00000000E+00  0.00000000E+00  0.00000000E+00
  0.00000000E+00  0.00000000E+00  0.00000000E+00
  0.00000000E+00  0.00000000E+00  0.00000000E+00
  0.00000000E+00  0.00000000E+00  0.00000000E+00
  0.00000000E+00  0.00000000E+00  0.00000000E+00
  0.00000000E+00  0.00000000E+00  0.00000000E+00
  0.00000000E+00  0.00000000E+00  0.00000000E+00
  0.00000000E+00  0.00000000E+00  0.00000000E+00
  0.00000000E+00  0.00000000E+00  0.00000000E+00
  0.00000000E+00  0.00000000E+00  0.00000000E+00
  0.00000000E+00  0.00000000E+00  0.00000000E+00
  0.00000000E+00  0.00000000E+00  0.00000000E+00
  0.00000000E+00  0.00000000E+00  0.00000000E+00
  0.00000000E+00  0.00000000E+00  0.00000000E+00
  0.00000000E+00  0.00000000E+00  0.00000000E+00
  0.00000000E+00  0.00000000E+00  0.00000000E+00
  0.00000000E+00  0.00000000E+00  0.00000000E+00
  0.00000000E+00  0.00000000E+00  0.00000000E+00
  0.00000000E+00  0.00000000E+00  0.00000000E+00
  0.00000000E+00  0.00000000E+00  0.00000000E+00
  0.00000000E+00  0.00000000E+00  0.00000000E+00
  0.00000000E+00  0.00000000E+00  0.00000000E+00
  0.00000000E+00  0.00000000E+00  0.00000000E+00
  0.00000000E+00  0.00000000E+00  0.00000000E+00
  0.00000000E+00  0.00000000E+00  0.00000000E+00
  0.00000000E+00  0.00000000E+00  0.00000000E+00
  0.00000000E+00  0.00000000E+00  0.00000000E+00
  0.00000000E+00  0.00000000E+00  0.00000000E+00
  0.00000000E+00  0.00000000E+00  0.00000000E+00
  0.00000000E+00  0.00000000E+00  0.00000000E+00
  0.00000000E+00  0.00000000E+00  0.00000000E+00
  0.00000000E+00  0.00000000E+00  0.00000000E+00
  0.00000000E+00  0.00000000E+00  0.00000000E+00
  0.00000000E+00  0.00000000E+00  0.00000000E+00
  0.00000000E+00  0.00000000E+00  0.00000000E+00
  0.00000000E+00  0.00000000E+00  0.00000000E+00
  0.00000000E+00  0.00000000E+00  0.00000000E+00
  0.00000000E+00  0.00000000E+00  0.00000000E+00
  0.00000000E+00  0.00000000E+00  0.00000000E+00
  0.00000000E+00  0.00000000E+00  0.00000000E+00
  0.00000000E+00  0.00000000E+00  0.00000000E+00
  0.00000000E+00  0.00000000E+00  0.00000000E+00
  0.00000000E+00  0.00000000E+00  0.00000000E+00
  0.00000000E+00  0.00000000E+00  0.00000000E+00
  0.00000000E+00  0.00000000E+00  0.00000000E+00
  0.00000000E+00  0.00000000E+00  0.00000000E+00
  0.00000000E+00  0.00000000E+00  0.00000000E+00
  0.00000000E+00  0.00000000E+00  0.00000000E+00
  0.00000000E+00  0.00000000E+00  0.00000000E+00
  0.00000000E+00  0.00000000E+00  0.00000000E+00
  0.00000000E+00  0.00000000E+00  0.00000000E+00
  0.00000000E+00  0.00000000E+00  0.00000000E+00
  0.00000000E+00  0.00000000E+00  0.00000000E+00
  0.00000000E+00  0.00000000E+00  0.00000000E+00
  0.00000000E+00  0.00000000E+00  0.00000000E+00
  0.00000000E+00  0.00000000E+00  0.00000000E+00
  0.00000000E+00  0.00000000E+00  0.00000000E+00
  0.00000000E+00  0.00000000E+00  0.00000000E+00
  0.00000000E+00  0.00000000E+00  0.00000000E+00
  0.00000000E+00  0.00000000E+00  0.00000000E+00
  0.00000000E+00  0.00000000E+00  0.00000000E+00
  0.00000000E+00  0.00000000E+00  0.00000000E+00
  0.00000000E+00  0.00000000E+00  0.00000000E+00
  0.00000000E+00  0.00000000E+00  0.00000000E+00
  0.00000000E+00  0.00000000E+00  0.00000000E+00
  0.00000000E+00  0.00000000E+00  0.00000000E+00
  0.00000000E+00  0.00000000E+00  0.00000000E+00
  0.00000000E+00  0.00000000E+00  0.00000000E+00
  0.00000000E+00  0.00000000E+00  0.00000000E+00
  0.00000000E+00  0.00000000E+00  0.00000000E+00
  0.00000000E+00  0.00000000E+00  0.00000000E+00
  0.00000000E+00  0.00000000E+00  0.00000000E+00
  0.00000000E+00  0.00000000E+00  0.00000000E+00
  0.00000000E+00  0.00000000E+00  0.00000000E+00
  0.00000000E+00  0.00000000E+00  0.00000000E+00
  0.00000000E+00  0.00000000E+00  0.00000000E+00
  0.00000000E+00  0.00000000E+00  0.00000000E+00
  0.00000000E+00  0.00000000E+00  0.00000000E+00
  0.00000000E+00  0.00000000E+00  0.00000000E+00
  0.00000000E+00  0.00000000E+00  0.00000000E+00
  0.00000000E+00  0.00000000E+00  0.00000000E+00
  0.00000000E+00  0.00000000E+00  0.00000000E+00
  0.00000000E+00  0.00000000E+00  0.00000000E+00
  0.00000000E+00  0.00000000E+00  0.00000000E+00
  0.00000000E+00  0.00000000E+00  0.00000000E+00
  0.00000000E+00  0.00000000E+00  0.00000000E+00
  0.00000000E+00  0.00000000E+00  0.00000000E+00
  0.00000000E+00  0.00000000E+00  0.00000000E+00
  0.00000000E+00  0.00000000E+00  0.00000000E+00
  0.00000000E+00  0.00000000E+00  0.00000000E+00
  0.00000000E+00  0.00000000E+00  0.00000000E+00
  0.00000000E+00  0.00000000E+00  0.00000000E+00
  0.00000000E+00  0.00000000E+00  0.00000000E+00
  0.00000000E+00  0.00000000E+00  0.00000000E+00
  0.00000000E+00  0.00000000E+00  0.00000000E+00
  0.00000000E+00  0.00000000E+00  0.00000000E+00
  0.00000000E+00  0.00000000E+00  0.00000000E+00
  0.00000000E+00  0.00000000E+00  0.00000000E+00
  0.00000000E+00  0.00000000E+00  0.00000000E+00
  0.00000000E+00  0.00000000E+00  0.00000000E+00
  0.00000000E+00  0.00000000E+00  0.00000000E+00
  0.00000000E+00  0.00000000E+00  0.00000000E+00
  0.00000000E+00  0.00000000E+00  0.00000000E+00
  0.00000000E+00  0.00000000E+00  0.00000000E+00
  0.00000000E+00  0.00000000E+00  0.00000000E+00
  0.00000000E+00  0.00000000E+00  0.00000000E+00
  0.00000000E+00  0.00000000E+00  0.00000000E+00
  0.00000000E+00  0.00000000E+00  0.00000000E+00
  0.00000000E+00  0.00000000E+00  0.00000000E+00
  0.00000000E+00  0.00000000E+00  0.00000000E+00
  0.00000000E+00  0.00000000E+00  0.00000000E+00
  0.00000000E+00  0.00000000E+00  0.00000000E+00
  0.00000000E+00  0.00000000E+00  0.00000000E+00
  0.00000000E+00  0.00000000E+00  0.00000000E+00
  0.00000000E+00  0.00000000E+00  0.00000000E+00
  0.00000000E+00  0.00000000E+00  0.00000000E+00
  0.00000000E+00  0.00000000E+00  0.00000000E+00
  0.00000000E+00  0.00000000E+00  0.00000000E+00
  0.00000000E+00  0.00000000E+00  0.00000000E+00
  0.00000000E+00  0.00000000E+00  0.00000000E+00
  0.00000000E+00  0.00000000E+00  0.00000000E+00
  0.00000000E+00  0.00000000E+00  0.00000000E+00
  0.00000000E+00  0.00000000E+00  0.00000000E+00
  0.00000000E+00  0.00000000E+00  0.00000000E+00
  0.00000000E+00  0.00000000E+00  0.00000000E+00
  0.00000000E+00  0.00000000E+00  0.00000000E+00
  0.00000000E+00  0.00000000E+00  0.00000000E+00
  0.00000000E+00  0.00000000E+00  0.00000000E+00
  0.00000000E+00  0.00000000E+00  0.00000000E+00
  0.00000000E+00  0.00000000E+00  0.00000000E+00
  0.00000000E+00  0.00000000E+00  0.00000000E+00
  0.00000000E+00  0.00000000E+00  0.00000000E+00
  0.00000000E+00  0.00000000E+00  0.00000000E+00
  0.00000000E+00  0.00000000E+00  0.00000000E+00
  0.00000000E+00  0.00000000E+00  0.00000000E+00
  0.00000000E+00  0.00000000E+00  0.00000000E+00
  0.00000000E+00  0.00000000E+00  0.00000000E+00
  0.00000000E+00  0.00000000E+00  0.00000000E+00
  0.00000000E+00  0.00000000E+00  0.00000000E+00
  0.00000000E+00  0.00000000E+00  0.00000000E+00
  0.00000000E+00  0.00000000E+00  0.00000000E+00
  0.00000000E+00  0.00000000E+00  0.00000000E+00
  0.00000000E+00  0.00000000E+00  0.00000000E+00
  0.00000000E+00  0.00000000E+00  0.00000000E+00
  0.00000000E+00  0.00000000E+00  0.00000000E+00
  0.00000000E+00  0.00000000E+00  0.00000000E+00
  0.00000000E+00  0.00000000E+00  0.00000000E+00
  0.00000000E+00  0.00000000E+00  0.00000000E+00
  0.00000000E+00  0.00000000E+00  0.00000000E+00
  0.00000000E+00  0.00000000E+00  0.00000000E+00
  0.00000000E+00  0.00000000E+00  0.00000000E+00
  0.00000000E+00  0.00000000E+00  0.00000000E+00
  0.00000000E+00  0.00000000E+00  0.00000000E+00
  0.00000000E+00  0.00000000E+00  0.00000000E+00
  0.00000000E+00  0.00000000E+00  0.00000000E+00
  0.00000000E+00  0.00000000E+00  0.00000000E+00
  0.00000000E+00  0.00000000E+00  0.00000000E+00
  0.00000000E+00  0.00000000E+00  0.00000000E+00
  0.00000000E+00  0.00000000E+00  0.00000000E+00
  0.00000000E+00  0.00000000E+00  0.00000000E+00
  0.00000000E+00  0.00000000E+00  0.00000000E+00
  0.00000000E+00  0.00000000E+00  0.00000000E+00
  0.00000000E+00  0.00000000E+00  0.00000000E+00
  0.00000000E+00  0.00000000E+00  0.00000000E+00
  0.00000000E+00  0.00000000E+00  0.00000000E+00
  0.00000000E+00  0.00000000E+00  0.00000000E+00
  0.00000000E+00  0.00000000E+00  0.00000000E+00
  0.00000000E+00  0.00000000E+00  0.00000000E+00
  0.00000000E+00  0.00000000E+00  0.00000000E+00
  0.00000000E+00  0.00000000E+00  0.00000000E+00
  0.00000000E+00  0.00000000E+00  0.00000000E+00
  0.00000000E+00  0.00000000E+00  0.00000000E+00
  0.00000000E+00  0.00000000E+00  0.00000000E+00
  0.00000000E+00  0.00000000E+00  0.00000000E+00
  0.00000000E+00  0.00000000E+00  0.00000000E+00
  0.00000000E+00  0.00000000E+00  0.00000000E+00
  0.00000000E+00  0.00000000E+00  0.00000000E+00
  0.00000000E+00  0.00000000E+00  0.00000000E+00
  0.00000000E+00  0.00000000E+00  0.00000000E+00
