all                                     
           1
    10.299678    0.038519    0.052783
     0.038654   10.323260   -0.091930
     0.035149   -0.061171    6.881158
   Y    K    Sc   Zr   H 
   9   9   9   9 216
Direct configuration=     1
   0.17168425  0.16882237  0.25408332
   0.16786972  0.82622419  0.25373407
   0.32935557  0.66814850  0.49313483
   0.83047291  0.16896856  0.75271714
   0.83486349  0.49721553  0.24499429
   0.49258279  0.83662687  0.74690043
   0.33499280  0.99843130  0.99876100
   0.67022161  0.99867681  0.49773801
   0.67044396  0.99587701  0.00236763
   0.15535886  0.18304933  0.76161370
   0.15573229  0.84365013  0.76363564
   0.48842067  0.51219472  0.76740535
   0.34396233  0.66106736  0.98816614
   0.67108333  0.33334329  0.00282347
   0.67619557  0.66657583  0.01223005
   0.01246965  0.32145245  0.98108877
   0.82305355  0.82596408  0.23997058
   0.01381428  0.98238737  0.98388701
   0.16330155  0.50066410  0.25205334
   0.33040640  0.33876297  0.50635276
   0.17037498  0.50581453  0.74089879
   0.50604080  0.48837534  0.26263965
   0.49786078  0.84275682  0.25877077
   0.32896638  0.00658679  0.50646022
   0.00237034  0.33905042  0.49173506
   0.83751159  0.82918464  0.74527661
   0.00240953  0.65980100  0.99635333
   0.49342125  0.16946489  0.25611649
   0.49930542  0.17055959  0.74952516
   0.33621402  0.34129538  0.00437835
   0.84153053  0.16459304  0.23806183
   0.66083356  0.33416852  0.50504382
   0.66028748  0.66681592  0.50412748
   0.82993119  0.49605791  0.75128104
   0.00109673  0.66081467  0.49785409
   0.99380038  0.00590947  0.48939208
   0.16529629  0.08820751  0.99211047
   0.17142127  0.09312655  0.51132932
   0.16493526  0.41928115  0.02464379
   0.50064066  0.08529605  0.99541041
   0.33351030  0.25633494  0.25765649
   0.16539119  0.42094271  0.49117766
   0.49486050  0.08711452  0.50458691
   0.32608917  0.25518833  0.74354029
   0.16190462  0.73868379  0.99590255
   0.49944512  0.41241295  0.00797168
   0.35376584  0.58381236  0.24107922
   0.16033474  0.75288715  0.51354303
   0.84616044  0.07485523  0.99686091
   0.66805476  0.24760049  0.25143342
   0.49446631  0.41998086  0.51244683
   0.31952860  0.58752220  0.73712307
   0.83298862  0.08858425  0.49302925
   0.66398899  0.25731682  0.75078367
   0.50483468  0.74527807  0.03908598
   0.33485605  0.91808661  0.26347258
   0.84512596  0.40390093  0.00525130
   0.65096901  0.57917825  0.24855395
   0.49734631  0.75055486  0.47583562
   0.32418241  0.92343029  0.73036170
   0.00131451  0.25164596  0.25229130
   0.83638486  0.41378842  0.49424870
   0.66416944  0.58712089  0.74985641
   0.98983407  0.25626911  0.71514317
   0.84474104  0.74926871  0.97902693
   0.65782622  0.91334144  0.25404736
   0.00689597  0.57742624  0.23258536
   0.83765187  0.74719545  0.50042610
   0.67218383  0.91099126  0.74511603
   0.99409896  0.57689062  0.75967223
   0.99293102  0.91050176  0.24545222
   0.98447216  0.91386617  0.71962604
   0.09058468  0.14815007  0.01771068
   0.08323086  0.16679683  0.50390162
   0.08319553  0.49460692  0.97649644
   0.41899210  0.16939265  0.00408769
   0.25045187  0.34408988  0.26267132
   0.08208929  0.49319306  0.51236287
   0.41207494  0.17589387  0.50443087
   0.24788149  0.34150433  0.73619994
   0.08546294  0.81032931  0.01155017
   0.42462023  0.49809168  0.03821451
   0.25274227  0.65554853  0.23467529
   0.08463707  0.84574506  0.50966989
   0.74785036  0.16301650  0.00889877
   0.58618160  0.32886913  0.25303667
   0.41587921  0.49574812  0.49655813
   0.24072336  0.66973181  0.74729841
   0.75194862  0.17183815  0.48987147
   0.57542975  0.33987404  0.75744578
   0.42165578  0.83226345  0.01722643
   0.25079788  0.99865166  0.26504161
   0.75634233  0.49994777  0.99272019
   0.58241831  0.64150249  0.25412150
   0.41214643  0.83812399  0.49352990
   0.24147919  0.01161525  0.74299985
   0.92625029  0.33144843  0.24497848
   0.74892212  0.49717898  0.50649522
   0.58020623  0.67193483  0.77792213
   0.92055193  0.33730919  0.73726309
   0.75350722  0.82968753  0.97159784
   0.58363330  0.01021612  0.25249940
   0.91528999  0.66633261  0.26306177
   0.75019596  0.82593603  0.50911274
   0.58414441  0.00205287  0.74935880
   0.91486956  0.66414105  0.73508146
   0.92449121  0.98905652  0.23666119
   0.91532006  0.98698304  0.74889118
   0.17061385  0.99304950  0.13200785
   0.16840178  0.00986327  0.62790400
   0.16660476  0.34619747  0.12491001
   0.50104131  0.99980762  0.13116414
   0.33543058  0.17296119  0.38960860
   0.16962329  0.34304506  0.62654501
   0.49408176  0.00376624  0.61696410
   0.33008101  0.17234582  0.87193513
   0.16737043  0.65578663  0.11838613
   0.50296705  0.33102427  0.12938619
   0.32520549  0.49685997  0.36831515
   0.16113088  0.67336728  0.63603404
   0.84463309  0.98942554  0.10970672
   0.66370344  0.16753003  0.37793899
   0.48931215  0.34046810  0.63081517
   0.31482421  0.49166279  0.87431045
   0.83521528  0.00160221  0.62249053
   0.66066282  0.16564999  0.87984536
   0.50675007  0.68816404  0.12720308
   0.33651138  0.84492243  0.37568412
   0.84422732  0.33592911  0.10749407
   0.66995820  0.50018993  0.38350368
   0.49693287  0.66990717  0.62431598
   0.32478495  0.82732943  0.87543293
   0.00010429  0.17516187  0.36904262
   0.83414952  0.33403485  0.61853892
   0.65060582  0.49798289  0.89257147
   0.98814469  0.14605927  0.87269471
   0.85040606  0.65805981  0.11380017
   0.65917072  0.82885894  0.37226030
   0.00294552  0.49665899  0.37193439
   0.83603791  0.66662896  0.63444973
   0.65648128  0.82494442  0.88295137
   0.01885741  0.49713181  0.88080034
   0.99278319  0.82271195  0.37698016
   0.98818214  0.81197428  0.86909291
   0.08667716  0.00210510  0.24789877
   0.07920722  0.01517675  0.71900791
   0.08882253  0.33705532  0.24770661
   0.41723994  0.00105436  0.25611133
   0.24636197  0.16672909  0.51344613
   0.08512050  0.35690181  0.72445640
   0.41680939  0.00972567  0.74565026
   0.25706048  0.16981206  0.99716876
   0.08315944  0.65939754  0.24604082
   0.41214457  0.34349191  0.26159250
   0.24836233  0.49723784  0.49339454
   0.07922341  0.66605870  0.74620252
   0.75563792  0.00377641  0.24972897
   0.58314507  0.16808453  0.49077145
   0.41462109  0.34092834  0.74123551
   0.24738333  0.50937609  0.01998840
   0.75064320  0.99648236  0.74764938
   0.58677005  0.16915316  0.01714793
   0.41931636  0.64160838  0.24525023
   0.24653349  0.84026499  0.51163758
   0.74995292  0.32711545  0.25882920
   0.57805171  0.49943640  0.51684070
   0.40906611  0.67564364  0.73106339
   0.25479747  0.83026056  0.00055753
   0.91576749  0.17271524  0.49838361
   0.74020778  0.33355060  0.74409133
   0.59108888  0.50443556  0.99691192
   0.92871096  0.15276527  0.98456014
   0.74713706  0.65986449  0.27059766
   0.57975115  0.83527329  0.50232844
   0.91493336  0.49432427  0.50537905
   0.75069121  0.67273857  0.74786586
   0.59041067  0.82918054  0.98425923
   0.92495097  0.49539304  0.98738155
   0.91155366  0.83078473  0.49019739
   0.91272065  0.82386118  0.99112849
   0.00679494  0.15580900  0.11947712
   0.99551928  0.17479957  0.61352292
   0.00753084  0.49357016  0.12302359
   0.33901213  0.16915230  0.11839819
   0.17452285  0.34423111  0.37743065
   0.00409953  0.50032546  0.62143927
   0.32869698  0.17435276  0.63412807
   0.18100406  0.35965016  0.87180599
   0.99790852  0.81759119  0.12966497
   0.31560195  0.50277747  0.12364922
   0.16018014  0.65818497  0.36852246
   0.99771101  0.81516442  0.62238830
   0.66056983  0.16786464  0.12428955
   0.48869366  0.32980677  0.37994473
   0.32858500  0.49601579  0.62252139
   0.16816847  0.66478109  0.87787874
   0.66393976  0.16676731  0.62499778
   0.50286958  0.34085683  0.88006002
   0.34559286  0.82566620  0.12645283
   0.17276933  0.99815622  0.38422838
   0.66095458  0.49877915  0.13797803
   0.49676261  0.68340208  0.36535286
   0.31984398  0.84781023  0.62410859
   0.17980255  0.01878257  0.87284110
   0.84119591  0.33099136  0.37519280
   0.65567604  0.50060607  0.62980733
   0.51765461  0.68071126  0.87752041
   0.84122699  0.34022215  0.86806994
   0.64738508  0.83131000  0.12979138
   0.49428604  0.00293582  0.37696504
   0.84028310  0.66554376  0.37143054
   0.67012826  0.83335047  0.63292046
   0.50299187  0.00382505  0.88165455
   0.83995443  0.66320946  0.87395375
   0.83513751  0.99626635  0.36315988
   0.84589085  0.99689635  0.86849076
   0.00276350  0.07499369  0.23543908
   0.00202043  0.08028250  0.74266001
   0.00306072  0.41223486  0.23378751
   0.33543058  0.08068713  0.26054099
   0.16673673  0.25805474  0.50537516
   0.99656520  0.41892486  0.74135717
   0.32742642  0.09340397  0.74401093
   0.18389976  0.25651780  0.01435857
   0.99488229  0.74860959  0.23993210
   0.34041213  0.41828878  0.25468592
   0.16570155  0.58077099  0.49752253
   0.99836464  0.74781199  0.76167641
   0.66558434  0.08570618  0.25378032
   0.49297826  0.25193155  0.51138498
   0.33032652  0.41967458  0.74110622
   0.17313256  0.57795728  0.99991766
   0.66639590  0.08104191  0.75040007
   0.50134277  0.24940191  0.99956014
   0.34443544  0.75100413  0.23928150
   0.15022502  0.91284726  0.50645098
   0.66607706  0.40763589  0.25983886
   0.49967755  0.58040039  0.48899230
   0.32447867  0.75698463  0.74806726
   0.17969667  0.90911259  0.02040548
   0.83991226  0.25278696  0.49034956
   0.65858778  0.42295631  0.75266104
   0.50853103  0.57606866  0.04696161
   0.84135227  0.24473229  0.00711606
   0.64585857  0.74938927  0.25926431
   0.49630263  0.92686263  0.49986227
   0.82774170  0.58388138  0.50398853
   0.66806570  0.74854330  0.75346469
   0.50343574  0.92016630  0.00612860
   0.84335226  0.58464271  0.99288903
   0.84260641  0.90518390  0.50120319
   0.84468575  0.91347879  0.99713981
