POSCAR                                  
   1.00000000000000     
     9.9217210981278825   -0.0109957349342606    0.0102582122012127
    -0.0109541515008901    9.9454453440011097    0.0096741931245575
     0.0067934663995600    0.0063996053999851    6.6427987329765061
   Y    Sc   Mg   Zr   H 
     9     9     9     9   216
Direct
  0.1716671293048151  0.1732226446003580  0.2515462191296365
  0.1663672257417090  0.8331214405639926  0.7480142243631036
  0.8284411183459639  0.1625516010630932  0.2543529613752966
  0.6631875748962557  0.3283026994212577  0.4995593696039080
  0.5016852772747313  0.8391208041279725  0.7504808037734918
  0.0048029651013337  0.3339951544777477  0.0034496900477237
  0.8294013806650824  0.8328552931716970  0.7456566788697430
  0.9960813272965368  0.6637061462824718  0.0049054107084245
  0.9956693848943345  0.0003454171398047  0.9962778118314830
  0.1724648099604948  0.1713665422360933  0.7439450971060140
  0.1690452571358279  0.4969686787384973  0.7431402648778374
  0.4986536936910966  0.1670627171871004  0.7473747409219413
  0.3328183187588962  0.3348107962844935  0.0031455333259771
  0.3369326990380728  0.6665230821735193  0.4987313573805068
  0.8320535336514894  0.1625599279110759  0.7424607097529972
  0.3334749144298499  0.0031025458258043  0.4971551641876317
  0.6657309707873651  0.6722761880342460  0.4937188641053396
  0.0036507031666915  0.3317848961762451  0.4990678697857618
  0.1677345087906588  0.4998339385285391  0.2527401617175400
  0.4987605892230391  0.1688652054355799  0.2569845673896936
  0.3343066007455562  0.3344049998361953  0.5003963068371462
  0.5018466219672888  0.8307069476496451  0.2518665276408640
  0.8327563456195293  0.4997122418205748  0.2483247006357274
  0.6651839502665098  0.6673127944083959  0.0020843447371064
  0.8297792340128041  0.8334302834704914  0.2517928677673638
  0.6614020028933467  0.9970949720205553  0.4948765679273777
  0.0032488327788229  0.0010484619436966  0.5008737317008709
  0.1683449697384418  0.8317031328681708  0.2525441548692626
  0.5018543207279578  0.5038483752847185  0.2516399412069390
  0.4980834162061640  0.4962568550061377  0.7465564162644256
  0.3357668886467451  0.6616815372496205  0.0000196975210898
  0.6655233584413836  0.3338914805433362  0.0031584511259339
  0.3371086670417185  0.0069035352760949  0.0034549872071494
  0.8362787393274473  0.4985251913040685  0.7487915899640143
  0.9969552806625330  0.6657271576675114  0.4905429037538980
  0.6622224440021753  0.9923986100721933  0.0090199021032262
  0.1677984808788722  0.0862088603358373  0.9934840826222029
  0.1633095188530049  0.0845860750594269  0.5032098485423759
  0.1744184711748673  0.4188760445053603  0.9926376787577453
  0.5023853204058568  0.0903441830758140  0.0292580660712218
  0.3442075658050925  0.2535634710254939  0.2653259017583380
  0.1672067901250500  0.4200398462772839  0.5001947926094985
  0.4976141798336542  0.0806166160061892  0.4778314585163557
  0.3342226081040209  0.2511243933003158  0.7374948825225616
  0.1702317011701027  0.7486365472515573  0.0037219950900749
  0.4965422858737867  0.4133778603795193  0.0054058463829918
  0.3283447607301255  0.5828368802699799  0.2575420035926967
  0.1701083667717143  0.7467577648646682  0.4974968410709124
  0.8242390459714599  0.0847485764689893  0.9925217696560509
  0.6544446463909210  0.2458743811499460  0.2475655361284979
  0.4903249134672905  0.4153187508342668  0.4951328595173194
  0.3296156059242037  0.5799956048550996  0.7411414473340585
  0.8518955068041336  0.0791543277062985  0.5026889754758272
  0.6680145379077018  0.2445567256347516  0.7551368991101768
  0.5057440400639592  0.7492348984174200  0.0071741922492805
  0.3454561933205582  0.9138721456472965  0.2560939534394606
  0.8316052396237765  0.4174232866501768  0.0099668863250599
  0.6744091416605684  0.5861112010954272  0.2414596771483843
  0.5006363453357920  0.7521096558472493  0.4912995267869391
  0.3329512673742698  0.9223268894478807  0.7457726235198550
  0.9969438420036596  0.2521050878960480  0.2624306781818504
  0.8377760407311357  0.4168915506389155  0.4921040903987119
  0.6668358258651068  0.5820063049424107  0.7536512920019547
  0.0026928332991503  0.2508593021923389  0.7417948543684574
  0.8202231769188302  0.7473952850501675  0.0107230884515843
  0.6651874968085494  0.9104248474752481  0.2611878880558365
  0.9905519388482418  0.5784284941356077  0.2537853515395696
  0.8287268330306574  0.7520041284407952  0.4806131349905272
  0.6668567877450400  0.9249162270514546  0.7422634080045967
  0.0063237322301219  0.5802744070955157  0.7429632825958166
  0.9948967526981747  0.9181078021397511  0.2648390093795356
  0.9979326600890985  0.9205107021950454  0.7292085525254208
  0.0873737957575997  0.1649789788842781  0.9868150073640436
  0.0855127316243127  0.1660646250955438  0.5082903300421933
  0.0904352325248112  0.5002416838473565  0.0135442087873585
  0.4197732114977839  0.1732209188672655  0.9904069413033341
  0.2540489625248341  0.3446514230079956  0.2673395516076269
  0.0856946758825643  0.4955416138547974  0.4829190007873834
  0.4168101823502184  0.1612269358137866  0.5070876440065746
  0.2515875428041383  0.3344553561087622  0.7371967696614021
  0.0831464824018013  0.8334119844727113  0.0076383438344010
  0.4158744874244462  0.4942404572096137  0.0026528272110511
  0.2527109427906566  0.6631817031670693  0.2586077806695286
  0.0810963381229968  0.8416210516855998  0.4946084511685029
  0.7465938614040084  0.1637104325981724  0.9910810027034600
  0.5779434436106214  0.3333833700745075  0.2486548760312886
  0.4127650541859680  0.5033594469018325  0.4977003661457218
  0.2496916087545316  0.6596585112066080  0.7411267789989537
  0.7481304334024657  0.1510289333628663  0.5092729918803443
  0.5813547806350101  0.3263713117919949  0.7555135758901343
  0.4189907411228475  0.8295657482417553  0.0168904039667694
  0.2533917379065258  0.9965784408838658  0.2588897839805924
  0.7473241444910883  0.5043010146998483  0.0065643812893725
  0.5836811206067694  0.6769436726163178  0.2451412284011667
  0.4169683160403537  0.8379778031167930  0.4864241652451327
  0.2507905897170914  0.0082865776665884  0.7407086773920142
  0.9163514983241967  0.3429079379177935  0.2572915509612699
  0.7507289386491038  0.5025195626832897  0.4903340307106916
  0.5851069888644886  0.6650536692984659  0.7490584683017616
  0.9202490032791886  0.3266040865192679  0.7448224306142777
  0.7487213239252100  0.8240732924666219  0.0141219494928109
  0.5784714068232191  0.9828794958764320  0.2624470133236585
  0.9058588299770491  0.6714427262824785  0.2488185206829741
  0.7493891142398041  0.8381915727338125  0.4825135515265160
  0.5838838041000045  0.0107362397871285  0.7294797556504378
  0.9162566854684471  0.6636499198958319  0.7458116476481536
  0.9149256737797415  0.9882315739549341  0.2675126417187172
  0.9160121429738552  0.0051179803809660  0.7294127458303379
  0.1656609482749261  0.0025848459617919  0.1256927565812305
  0.1704612142090909  0.0054210117507836  0.6229094423257280
  0.1762908480642906  0.3475133885883679  0.1303481180149788
  0.4991476619150390  0.0142203714174229  0.1363962659239988
  0.3436630521233681  0.1728783371246152  0.3786928577104476
  0.1724000918502995  0.3361607301716418  0.6203648339238086
  0.5040357839749490  0.0090449244185180  0.6223397303884042
  0.3378765086209228  0.1752473586452155  0.8706491849623532
  0.1701344211619187  0.6555572947257673  0.1301115007749445
  0.4924158337386331  0.3232821932291259  0.1282744454301863
  0.3280201441488870  0.4977388507320981  0.3775619219165662
  0.1711099468066521  0.6589984897568257  0.6199540019829612
  0.8288355841656738  0.9905201043503311  0.1294992271062299
  0.6539823363872657  0.1529908246728269  0.3756053146061689
  0.4886278623409694  0.3277705151100818  0.6250251716516075
  0.3285457228585713  0.4928287573406465  0.8744984280853316
  0.8185894398820395  0.0031921172749207  0.6186332834149439
  0.6626954847225619  0.1608618124161083  0.8764336491205000
  0.5056327891364845  0.6709177850828922  0.1277124233609968
  0.3410370140863463  0.8336061198416829  0.3745548341345639
  0.8338097274387621  0.3380066146828753  0.1284276223060559
  0.6767866221114716  0.5051737479988958  0.3753045065512097
  0.5033751320916835  0.6669321892913374  0.6228421988393933
  0.3336415089064673  0.8345630195434950  0.8794495942122680
  0.0006985860132147  0.1632332472264153  0.3836372221157944
  0.8366460029675551  0.3311422912475450  0.6249746487240699
  0.6672375572837481  0.5107225803387436  0.8780819479943034
  0.0008273021393634  0.1680932487326317  0.8643176748110406
  0.8242660470844569  0.6623530176260886  0.1308558032111264
  0.6658148199193121  0.8334878260099714  0.3716670536553721
  0.0036567513765462  0.4963224381181419  0.3797704727276354
  0.8254353268866623  0.6610241373940653  0.6184374516931399
  0.6663884921678829  0.8232718571717044  0.8808199638033472
  0.0080696911460834  0.4986694262272380  0.8695787974278488
  0.9921088759764061  0.8391220173872114  0.3746347370642340
  0.9977187182155802  0.8312679060792050  0.8749672717990791
  0.0837613108718216  0.9992256179007910  0.2609682692088100
  0.0846782280991718  0.0093972196758187  0.7368522590005142
  0.0865405079359221  0.3472362124451820  0.2624866266341712
  0.4197294699382468  0.9878691261062400  0.2590227675794381
  0.2529826270523969  0.1722855256283466  0.5059184345313739
  0.0851324571657557  0.3329710017955989  0.7401788755116172
  0.4167020710308975  0.0100581273684739  0.7364983624945509
  0.2531614436670040  0.1715668417644594  0.9892897952791344
  0.0869054152682693  0.6605599841401002  0.2516557580031034
  0.4155198127906203  0.3376412384610532  0.2478642263852890
  0.2505922675813324  0.4945262599273832  0.4927305279604823
  0.0853255205020815  0.6577668597475537  0.7453549490462734
  0.7482026025424204  0.9876071726255091  0.2773751348194367
  0.5799663950478546  0.1560152475060335  0.5095543235190974
  0.4138301592483558  0.3284171858190845  0.7570161806209299
  0.2516143938774604  0.4953692399908221  0.0056645888731808
  0.7480817437172149  0.0054819009153206  0.7172281295192704
  0.5802435157631010  0.1658450088801331  0.9921778442981406
  0.4177854737111417  0.6750226089793685  0.2545774460157801
  0.2536931565933926  0.8350979763117863  0.4959289213061169
  0.7518522709011606  0.3413849976540249  0.2520211074924816
  0.5882096581028549  0.5074270106230188  0.4993964657635388
  0.4171151531656605  0.6660997882132449  0.7446055979796853
  0.2527436554884304  0.8358336300151947  0.0057419514969013
  0.9221282989620576  0.1643597136972659  0.5066389602787140
  0.7539511127686040  0.3276098616103411  0.7494994352328135
  0.5857807061603637  0.5058739967087789  0.0006780594931399
  0.9123890174755118  0.1677830259800785  0.9888609679003224
  0.7456515068136724  0.6742182074911511  0.2494275781423525
  0.5807243115118368  0.8387958641433286  0.4833320216644026
  0.9153667937402119  0.4962698621984742  0.4848867978614990
  0.7452319507579332  0.6630189241343558  0.7492688261140472
  0.5824040299081616  0.8226616044985136  0.0204121532625052
  0.9127894162149914  0.4967875759742171  0.0132433063135906
  0.9149367632559233  0.8454180546418826  0.4838408423657370
  0.9105739637417187  0.8319388351473265  0.0175279836916715
  0.9991221369267436  0.1646421446244091  0.1269978992542846
  0.0015543369309157  0.1677862657687683  0.6243643189050516
  0.0051552034287141  0.4990690293930484  0.1347883789960136
  0.3455461099315826  0.1744275953318208  0.1294440547099072
  0.1745471767433173  0.3419675597590413  0.3796181610876062
  0.0044539155933734  0.4954755734667273  0.6197220013816747
  0.3382930911121989  0.1717221730331815  0.6219942321078804
  0.1754336643797174  0.3367074418807618  0.8680759632448130
  0.9900821848003076  0.8346611823828880  0.1325920064456341
  0.3227759893884894  0.4938973974815326  0.1292617940392233
  0.1735033099991483  0.6562608201206004  0.3766607831290614
  0.9984940636934070  0.8368029968167647  0.6161058653110132
  0.6540119159304822  0.1618240623442588  0.1274713209982892
  0.4903139235426153  0.3259489529118582  0.3750551098452277
  0.3300270928269171  0.4951245357784373  0.6209752181748982
  0.1669400762276751  0.6579616784711249  0.8733386205213378
  0.6637887129358901  0.1527435371243939  0.6256848357578306
  0.4937177939182149  0.3258441279106634  0.8791809268354456
  0.3399574015327573  0.8327642569500853  0.1324883554666272
  0.1637494971450977  0.0029665138738011  0.3793570724310058
  0.6733324073888625  0.5093870789777384  0.1276888909520082
  0.5012848758535569  0.6742539362795839  0.3775399531600812
  0.3343501787824010  0.8349260534823273  0.6198502469719358
  0.1706799944099018  0.0065521979066361  0.8714914568146384
  0.8360487029323735  0.3396070761818990  0.3767685090611366
  0.6706459295662484  0.5076748820401775  0.6205043846019720
  0.5098129701396630  0.6649392675118762  0.8747072229543207
  0.8347564864682084  0.3284709946012185  0.8725349186855951
  0.6698687252733961  0.8272552008943563  0.1346077065771141
  0.5007241626655414  0.0110633235579911  0.3768482131194730
  0.8261708849030640  0.6619957559861902  0.3705581390708019
  0.6652621349465164  0.8352519413284227  0.6147384344436588
  0.5019554238276385  0.0125082640422036  0.8737107602641530
  0.8200533127800185  0.6627675468565144  0.8752865153412444
  0.8241714776623894  0.9945421323529899  0.3796157363442205
  0.8219074470527445  0.0032442371534671  0.8712314682650728
  0.0016382135603337  0.0810237618132561  0.2701588876610117
  0.0003989347126137  0.0881501945820631  0.7312256499023562
  0.9957538961355397  0.4175754609033362  0.2594157953737124
  0.3445642574239898  0.0853553434920897  0.2591085227547154
  0.1714375066049882  0.2548771042115305  0.5065912218862891
  0.0065235840817124  0.4143259815589886  0.7389757590325061
  0.3346526944089803  0.0887779347773474  0.7416504666661581
  0.1752181603858673  0.2516353588280964  0.9879471833000508
  0.9879095152645192  0.7553880517772811  0.2531047447579837
  0.3344532572772607  0.4184720765018994  0.2615450303739806
  0.1712627450215862  0.5813566173151727  0.4914976487047298
  0.9982791645530540  0.7462326740650269  0.7421757880032160
  0.6540641252984400  0.0790953052493819  0.2546869931165006
  0.4882830561186324  0.2489167094180047  0.4890877182176965
  0.3300473846513512  0.4133595418696601  0.7439485422590266
  0.1697547114432965  0.5799945202993726  0.0054923550259858
  0.6655400300603702  0.0856626404414556  0.7602850090126054
  0.4966248332951508  0.2499819144791573  0.0183133536803410
  0.3414691535814640  0.7514575765784954  0.2560991992851456
  0.1646850833820679  0.9208125535720200  0.4987051941817242
  0.6721929556400852  0.4209282584394742  0.2503541689430691
  0.5011829465913991  0.5889332407596726  0.4988626441369277
  0.3352146080549829  0.7492153748184336  0.7437440335264682
  0.1714816631910807  0.9187275714910825  0.0022602975506132
  0.8419729550210562  0.2496880308888407  0.5070076751074168
  0.6690496492158928  0.4151539093294687  0.7522154482219037
  0.5078770445614396  0.5828235503145578  0.0012916891675800
  0.8321908394187219  0.2477651864943056  0.9912572069402970
  0.6690126674228551  0.7480023543843188  0.2455336347337038
  0.5028811245650076  0.9167030362573243  0.4872980788929198
  0.8294352992076455  0.5819668438953443  0.4764533999899214
  0.6648196401329542  0.7435056088903522  0.7530165294998170
  0.4965156127569372  0.9142195662829096  0.0232437125904070
  0.8196301904113241  0.5836983461366430  0.0185161684772766
  0.8360703210468401  0.9173376161610136  0.4946083765182010
  0.8258730952339377  0.9116282686039412  0.0122402021573720
 
  0.00000000E+00  0.00000000E+00  0.00000000E+00
  0.00000000E+00  0.00000000E+00  0.00000000E+00
  0.00000000E+00  0.00000000E+00  0.00000000E+00
  0.00000000E+00  0.00000000E+00  0.00000000E+00
  0.00000000E+00  0.00000000E+00  0.00000000E+00
  0.00000000E+00  0.00000000E+00  0.00000000E+00
  0.00000000E+00  0.00000000E+00  0.00000000E+00
  0.00000000E+00  0.00000000E+00  0.00000000E+00
  0.00000000E+00  0.00000000E+00  0.00000000E+00
  0.00000000E+00  0.00000000E+00  0.00000000E+00
  0.00000000E+00  0.00000000E+00  0.00000000E+00
  0.00000000E+00  0.00000000E+00  0.00000000E+00
  0.00000000E+00  0.00000000E+00  0.00000000E+00
  0.00000000E+00  0.00000000E+00  0.00000000E+00
  0.00000000E+00  0.00000000E+00  0.00000000E+00
  0.00000000E+00  0.00000000E+00  0.00000000E+00
  0.00000000E+00  0.00000000E+00  0.00000000E+00
  0.00000000E+00  0.00000000E+00  0.00000000E+00
  0.00000000E+00  0.00000000E+00  0.00000000E+00
  0.00000000E+00  0.00000000E+00  0.00000000E+00
  0.00000000E+00  0.00000000E+00  0.00000000E+00
  0.00000000E+00  0.00000000E+00  0.00000000E+00
  0.00000000E+00  0.00000000E+00  0.00000000E+00
  0.00000000E+00  0.00000000E+00  0.00000000E+00
  0.00000000E+00  0.00000000E+00  0.00000000E+00
  0.00000000E+00  0.00000000E+00  0.00000000E+00
  0.00000000E+00  0.00000000E+00  0.00000000E+00
  0.00000000E+00  0.00000000E+00  0.00000000E+00
  0.00000000E+00  0.00000000E+00  0.00000000E+00
  0.00000000E+00  0.00000000E+00  0.00000000E+00
  0.00000000E+00  0.00000000E+00  0.00000000E+00
  0.00000000E+00  0.00000000E+00  0.00000000E+00
  0.00000000E+00  0.00000000E+00  0.00000000E+00
  0.00000000E+00  0.00000000E+00  0.00000000E+00
  0.00000000E+00  0.00000000E+00  0.00000000E+00
  0.00000000E+00  0.00000000E+00  0.00000000E+00
  0.00000000E+00  0.00000000E+00  0.00000000E+00
  0.00000000E+00  0.00000000E+00  0.00000000E+00
  0.00000000E+00  0.00000000E+00  0.00000000E+00
  0.00000000E+00  0.00000000E+00  0.00000000E+00
  0.00000000E+00  0.00000000E+00  0.00000000E+00
  0.00000000E+00  0.00000000E+00  0.00000000E+00
  0.00000000E+00  0.00000000E+00  0.00000000E+00
  0.00000000E+00  0.00000000E+00  0.00000000E+00
  0.00000000E+00  0.00000000E+00  0.00000000E+00
  0.00000000E+00  0.00000000E+00  0.00000000E+00
  0.00000000E+00  0.00000000E+00  0.00000000E+00
  0.00000000E+00  0.00000000E+00  0.00000000E+00
  0.00000000E+00  0.00000000E+00  0.00000000E+00
  0.00000000E+00  0.00000000E+00  0.00000000E+00
  0.00000000E+00  0.00000000E+00  0.00000000E+00
  0.00000000E+00  0.00000000E+00  0.00000000E+00
  0.00000000E+00  0.00000000E+00  0.00000000E+00
  0.00000000E+00  0.00000000E+00  0.00000000E+00
  0.00000000E+00  0.00000000E+00  0.00000000E+00
  0.00000000E+00  0.00000000E+00  0.00000000E+00
  0.00000000E+00  0.00000000E+00  0.00000000E+00
  0.00000000E+00  0.00000000E+00  0.00000000E+00
  0.00000000E+00  0.00000000E+00  0.00000000E+00
  0.00000000E+00  0.00000000E+00  0.00000000E+00
  0.00000000E+00  0.00000000E+00  0.00000000E+00
  0.00000000E+00  0.00000000E+00  0.00000000E+00
  0.00000000E+00  0.00000000E+00  0.00000000E+00
  0.00000000E+00  0.00000000E+00  0.00000000E+00
  0.00000000E+00  0.00000000E+00  0.00000000E+00
  0.00000000E+00  0.00000000E+00  0.00000000E+00
  0.00000000E+00  0.00000000E+00  0.00000000E+00
  0.00000000E+00  0.00000000E+00  0.00000000E+00
  0.00000000E+00  0.00000000E+00  0.00000000E+00
  0.00000000E+00  0.00000000E+00  0.00000000E+00
  0.00000000E+00  0.00000000E+00  0.00000000E+00
  0.00000000E+00  0.00000000E+00  0.00000000E+00
  0.00000000E+00  0.00000000E+00  0.00000000E+00
  0.00000000E+00  0.00000000E+00  0.00000000E+00
  0.00000000E+00  0.00000000E+00  0.00000000E+00
  0.00000000E+00  0.00000000E+00  0.00000000E+00
  0.00000000E+00  0.00000000E+00  0.00000000E+00
  0.00000000E+00  0.00000000E+00  0.00000000E+00
  0.00000000E+00  0.00000000E+00  0.00000000E+00
  0.00000000E+00  0.00000000E+00  0.00000000E+00
  0.00000000E+00  0.00000000E+00  0.00000000E+00
  0.00000000E+00  0.00000000E+00  0.00000000E+00
  0.00000000E+00  0.00000000E+00  0.00000000E+00
  0.00000000E+00  0.00000000E+00  0.00000000E+00
  0.00000000E+00  0.00000000E+00  0.00000000E+00
  0.00000000E+00  0.00000000E+00  0.00000000E+00
  0.00000000E+00  0.00000000E+00  0.00000000E+00
  0.00000000E+00  0.00000000E+00  0.00000000E+00
  0.00000000E+00  0.00000000E+00  0.00000000E+00
  0.00000000E+00  0.00000000E+00  0.00000000E+00
  0.00000000E+00  0.00000000E+00  0.00000000E+00
  0.00000000E+00  0.00000000E+00  0.00000000E+00
  0.00000000E+00  0.00000000E+00  0.00000000E+00
  0.00000000E+00  0.00000000E+00  0.00000000E+00
  0.00000000E+00  0.00000000E+00  0.00000000E+00
  0.00000000E+00  0.00000000E+00  0.00000000E+00
  0.00000000E+00  0.00000000E+00  0.00000000E+00
  0.00000000E+00  0.00000000E+00  0.00000000E+00
  0.00000000E+00  0.00000000E+00  0.00000000E+00
  0.00000000E+00  0.00000000E+00  0.00000000E+00
  0.00000000E+00  0.00000000E+00  0.00000000E+00
  0.00000000E+00  0.00000000E+00  0.00000000E+00
  0.00000000E+00  0.00000000E+00  0.00000000E+00
  0.00000000E+00  0.00000000E+00  0.00000000E+00
  0.00000000E+00  0.00000000E+00  0.00000000E+00
  0.00000000E+00  0.00000000E+00  0.00000000E+00
  0.00000000E+00  0.00000000E+00  0.00000000E+00
  0.00000000E+00  0.00000000E+00  0.00000000E+00
  0.00000000E+00  0.00000000E+00  0.00000000E+00
  0.00000000E+00  0.00000000E+00  0.00000000E+00
  0.00000000E+00  0.00000000E+00  0.00000000E+00
  0.00000000E+00  0.00000000E+00  0.00000000E+00
  0.00000000E+00  0.00000000E+00  0.00000000E+00
  0.00000000E+00  0.00000000E+00  0.00000000E+00
  0.00000000E+00  0.00000000E+00  0.00000000E+00
  0.00000000E+00  0.00000000E+00  0.00000000E+00
  0.00000000E+00  0.00000000E+00  0.00000000E+00
  0.00000000E+00  0.00000000E+00  0.00000000E+00
  0.00000000E+00  0.00000000E+00  0.00000000E+00
  0.00000000E+00  0.00000000E+00  0.00000000E+00
  0.00000000E+00  0.00000000E+00  0.00000000E+00
  0.00000000E+00  0.00000000E+00  0.00000000E+00
  0.00000000E+00  0.00000000E+00  0.00000000E+00
  0.00000000E+00  0.00000000E+00  0.00000000E+00
  0.00000000E+00  0.00000000E+00  0.00000000E+00
  0.00000000E+00  0.00000000E+00  0.00000000E+00
  0.00000000E+00  0.00000000E+00  0.00000000E+00
  0.00000000E+00  0.00000000E+00  0.00000000E+00
  0.00000000E+00  0.00000000E+00  0.00000000E+00
  0.00000000E+00  0.00000000E+00  0.00000000E+00
  0.00000000E+00  0.00000000E+00  0.00000000E+00
  0.00000000E+00  0.00000000E+00  0.00000000E+00
  0.00000000E+00  0.00000000E+00  0.00000000E+00
  0.00000000E+00  0.00000000E+00  0.00000000E+00
  0.00000000E+00  0.00000000E+00  0.00000000E+00
  0.00000000E+00  0.00000000E+00  0.00000000E+00
  0.00000000E+00  0.00000000E+00  0.00000000E+00
  0.00000000E+00  0.00000000E+00  0.00000000E+00
  0.00000000E+00  0.00000000E+00  0.00000000E+00
  0.00000000E+00  0.00000000E+00  0.00000000E+00
  0.00000000E+00  0.00000000E+00  0.00000000E+00
  0.00000000E+00  0.00000000E+00  0.00000000E+00
  0.00000000E+00  0.00000000E+00  0.00000000E+00
  0.00000000E+00  0.00000000E+00  0.00000000E+00
  0.00000000E+00  0.00000000E+00  0.00000000E+00
  0.00000000E+00  0.00000000E+00  0.00000000E+00
  0.00000000E+00  0.00000000E+00  0.00000000E+00
  0.00000000E+00  0.00000000E+00  0.00000000E+00
  0.00000000E+00  0.00000000E+00  0.00000000E+00
  0.00000000E+00  0.00000000E+00  0.00000000E+00
  0.00000000E+00  0.00000000E+00  0.00000000E+00
  0.00000000E+00  0.00000000E+00  0.00000000E+00
  0.00000000E+00  0.00000000E+00  0.00000000E+00
  0.00000000E+00  0.00000000E+00  0.00000000E+00
  0.00000000E+00  0.00000000E+00  0.00000000E+00
  0.00000000E+00  0.00000000E+00  0.00000000E+00
  0.00000000E+00  0.00000000E+00  0.00000000E+00
  0.00000000E+00  0.00000000E+00  0.00000000E+00
  0.00000000E+00  0.00000000E+00  0.00000000E+00
  0.00000000E+00  0.00000000E+00  0.00000000E+00
  0.00000000E+00  0.00000000E+00  0.00000000E+00
  0.00000000E+00  0.00000000E+00  0.00000000E+00
  0.00000000E+00  0.00000000E+00  0.00000000E+00
  0.00000000E+00  0.00000000E+00  0.00000000E+00
  0.00000000E+00  0.00000000E+00  0.00000000E+00
  0.00000000E+00  0.00000000E+00  0.00000000E+00
  0.00000000E+00  0.00000000E+00  0.00000000E+00
  0.00000000E+00  0.00000000E+00  0.00000000E+00
  0.00000000E+00  0.00000000E+00  0.00000000E+00
  0.00000000E+00  0.00000000E+00  0.00000000E+00
  0.00000000E+00  0.00000000E+00  0.00000000E+00
  0.00000000E+00  0.00000000E+00  0.00000000E+00
  0.00000000E+00  0.00000000E+00  0.00000000E+00
  0.00000000E+00  0.00000000E+00  0.00000000E+00
  0.00000000E+00  0.00000000E+00  0.00000000E+00
  0.00000000E+00  0.00000000E+00  0.00000000E+00
  0.00000000E+00  0.00000000E+00  0.00000000E+00
  0.00000000E+00  0.00000000E+00  0.00000000E+00
  0.00000000E+00  0.00000000E+00  0.00000000E+00
  0.00000000E+00  0.00000000E+00  0.00000000E+00
  0.00000000E+00  0.00000000E+00  0.00000000E+00
  0.00000000E+00  0.00000000E+00  0.00000000E+00
  0.00000000E+00  0.00000000E+00  0.00000000E+00
  0.00000000E+00  0.00000000E+00  0.00000000E+00
  0.00000000E+00  0.00000000E+00  0.00000000E+00
  0.00000000E+00  0.00000000E+00  0.00000000E+00
  0.00000000E+00  0.00000000E+00  0.00000000E+00
  0.00000000E+00  0.00000000E+00  0.00000000E+00
  0.00000000E+00  0.00000000E+00  0.00000000E+00
  0.00000000E+00  0.00000000E+00  0.00000000E+00
  0.00000000E+00  0.00000000E+00  0.00000000E+00
  0.00000000E+00  0.00000000E+00  0.00000000E+00
  0.00000000E+00  0.00000000E+00  0.00000000E+00
  0.00000000E+00  0.00000000E+00  0.00000000E+00
  0.00000000E+00  0.00000000E+00  0.00000000E+00
  0.00000000E+00  0.00000000E+00  0.00000000E+00
  0.00000000E+00  0.00000000E+00  0.00000000E+00
  0.00000000E+00  0.00000000E+00  0.00000000E+00
  0.00000000E+00  0.00000000E+00  0.00000000E+00
  0.00000000E+00  0.00000000E+00  0.00000000E+00
  0.00000000E+00  0.00000000E+00  0.00000000E+00
  0.00000000E+00  0.00000000E+00  0.00000000E+00
  0.00000000E+00  0.00000000E+00  0.00000000E+00
  0.00000000E+00  0.00000000E+00  0.00000000E+00
  0.00000000E+00  0.00000000E+00  0.00000000E+00
  0.00000000E+00  0.00000000E+00  0.00000000E+00
  0.00000000E+00  0.00000000E+00  0.00000000E+00
  0.00000000E+00  0.00000000E+00  0.00000000E+00
  0.00000000E+00  0.00000000E+00  0.00000000E+00
  0.00000000E+00  0.00000000E+00  0.00000000E+00
  0.00000000E+00  0.00000000E+00  0.00000000E+00
  0.00000000E+00  0.00000000E+00  0.00000000E+00
  0.00000000E+00  0.00000000E+00  0.00000000E+00
  0.00000000E+00  0.00000000E+00  0.00000000E+00
  0.00000000E+00  0.00000000E+00  0.00000000E+00
  0.00000000E+00  0.00000000E+00  0.00000000E+00
  0.00000000E+00  0.00000000E+00  0.00000000E+00
  0.00000000E+00  0.00000000E+00  0.00000000E+00
  0.00000000E+00  0.00000000E+00  0.00000000E+00
  0.00000000E+00  0.00000000E+00  0.00000000E+00
  0.00000000E+00  0.00000000E+00  0.00000000E+00
  0.00000000E+00  0.00000000E+00  0.00000000E+00
  0.00000000E+00  0.00000000E+00  0.00000000E+00
  0.00000000E+00  0.00000000E+00  0.00000000E+00
  0.00000000E+00  0.00000000E+00  0.00000000E+00
  0.00000000E+00  0.00000000E+00  0.00000000E+00
  0.00000000E+00  0.00000000E+00  0.00000000E+00
  0.00000000E+00  0.00000000E+00  0.00000000E+00
  0.00000000E+00  0.00000000E+00  0.00000000E+00
  0.00000000E+00  0.00000000E+00  0.00000000E+00
  0.00000000E+00  0.00000000E+00  0.00000000E+00
  0.00000000E+00  0.00000000E+00  0.00000000E+00
  0.00000000E+00  0.00000000E+00  0.00000000E+00
  0.00000000E+00  0.00000000E+00  0.00000000E+00
  0.00000000E+00  0.00000000E+00  0.00000000E+00
  0.00000000E+00  0.00000000E+00  0.00000000E+00
  0.00000000E+00  0.00000000E+00  0.00000000E+00
  0.00000000E+00  0.00000000E+00  0.00000000E+00
  0.00000000E+00  0.00000000E+00  0.00000000E+00
  0.00000000E+00  0.00000000E+00  0.00000000E+00
  0.00000000E+00  0.00000000E+00  0.00000000E+00
  0.00000000E+00  0.00000000E+00  0.00000000E+00
  0.00000000E+00  0.00000000E+00  0.00000000E+00
  0.00000000E+00  0.00000000E+00  0.00000000E+00
  0.00000000E+00  0.00000000E+00  0.00000000E+00
  0.00000000E+00  0.00000000E+00  0.00000000E+00
  0.00000000E+00  0.00000000E+00  0.00000000E+00
  0.00000000E+00  0.00000000E+00  0.00000000E+00
  0.00000000E+00  0.00000000E+00  0.00000000E+00
  0.00000000E+00  0.00000000E+00  0.00000000E+00
  0.00000000E+00  0.00000000E+00  0.00000000E+00
  0.00000000E+00  0.00000000E+00  0.00000000E+00
