POSCAR                                  
   1.00000000000000     
     9.9145368533954681   -0.0056756965334494   -0.0010503305731710
    -0.0057294393258654    9.8999294398339472   -0.0035838821835471
    -0.0007514396421942   -0.0023507403851963    6.5886940349882241
   Na   Sc   Mg   Ca   H 
     9     9     9     9   216
Direct
  0.1667793030532039  0.1707875402181216  0.2510480069399890
  0.1672840274375389  0.4964824609829108  0.2516115714341041
  0.4948878904717802  0.1661632019061798  0.2492712065572462
  0.5011048799784987  0.1694387247026796  0.7513675882050279
  0.6670219287748154  0.3353900147234228  0.0055209231750055
  0.3335487906470931  0.0017526334576559  0.4965722015541942
  0.9987325834952046  0.3295972423369307  0.0006719921507994
  0.8337991959783722  0.8330477430994634  0.2492041571041455
  0.0038220175678063  0.0024272757872197  0.0000992369906712
  0.1715245805569054  0.1615654908983686  0.7489331328181876
  0.1689846582387631  0.4991631667937497  0.7506708705095164
  0.8292945134562757  0.1724090809209500  0.7529501476888925
  0.8348628490196859  0.4987313260497359  0.2494782262265716
  0.4952853575081093  0.8360611229413593  0.7481133361658578
  0.9997900434473692  0.6649492414776290  0.4963711646603031
  0.8375076004539537  0.8325193213626534  0.7487750269927389
  0.6701498715572569  0.0021641077814323  0.0019300060249847
  0.0016200304875156  0.6680777776220026  0.0056401836041147
  0.3339953924701931  0.3285275950565207  0.4998351732732260
  0.1652333697036212  0.8334856433933737  0.2500908312341608
  0.4946053645454924  0.4978633835896531  0.2493584193790994
  0.3343839443438412  0.6698085324222802  0.5006941584852953
  0.6657878704334905  0.3317572216562752  0.4970282889734818
  0.6651828563230140  0.6670815666949608  0.4988230494775934
  0.3243865356337494  0.0022836578118017  0.0012044673593081
  0.8312794407739332  0.4981754226299628  0.7511742586866887
  0.0021683846582121  0.0011868748292301  0.4986754991995426
  0.3377003907791050  0.3298605558042453  0.9984838899175230
  0.1656179200772456  0.8360754250179241  0.7476695611910387
  0.8353818361757916  0.1653133148348616  0.2486591377575493
  0.5055919577641532  0.4952282023608774  0.7429848732555797
  0.3327639047355291  0.6675596546094624  0.0059061312394917
  0.4991707224285520  0.8352671297127259  0.2498508878981127
  0.0020511262224758  0.3324477500605454  0.5003388708502001
  0.6658248408071330  0.6624227738064121  0.9994863341256561
  0.6625589775763672  0.0017445414943182  0.4985404824350042
  0.1642756592702881  0.0853900520882007  0.0069790698726351
  0.1744359144993268  0.0842410216708345  0.4892800321999502
  0.1593639214435996  0.4178266096265517  0.9996160065786839
  0.5080219450826604  0.0826859202187507  0.9950257022203246
  0.3347408088965480  0.2458449959616544  0.2594113874533051
  0.1754052145381095  0.4162590274712983  0.4993700158913938
  0.4909037984610407  0.0817969636464539  0.5119060421560491
  0.3341669169968924  0.2494044060255121  0.7417735706228044
  0.1647016038479450  0.7496534625522955  0.0081821123092354
  0.5054830310278859  0.4133242341531229  0.0099563037134303
  0.3311096139931422  0.5840796876241257  0.2661681002045739
  0.1705809506538358  0.7492967974487001  0.4933704279313744
  0.8365318870969105  0.0820302667724064  0.9930439003900347
  0.6551743406948987  0.2510090212761540  0.2451715027262296
  0.5024997057145910  0.4136622950323527  0.4850816133840326
  0.3366661115135230  0.5831552527768267  0.7408451282124133
  0.8361019190827434  0.0817159426851362  0.5088164886104067
  0.6643962389948683  0.2495382133857902  0.7632268975448966
  0.5007933218635472  0.7513827603548435  0.9965344657846700
  0.3235186417617726  0.9132107006089001  0.2658440298990143
  0.8373022263415422  0.4175531093204015  0.9917440467883196
  0.6610573627059040  0.5833621850407553  0.2625004689164001
  0.4999698778971791  0.7492278139528281  0.4981127492823845
  0.3305425062599738  0.9171601832219736  0.7336031103288434
  0.0092645373926317  0.2523501805264203  0.2434337809138682
  0.8268752347879769  0.4179225151533572  0.5103328230388229
  0.6723278384543789  0.5836200784896306  0.7336574136688441
  0.0045767769226472  0.2505004003766729  0.7592564614548678
  0.8336797444913486  0.7510954398504452  0.0055409244358700
  0.6764057482198567  0.9160066740205295  0.2459875425733458
  0.0051997333526401  0.5821714046534083  0.2497326945274239
  0.8315525538638653  0.7503814718448751  0.4931032795599677
  0.6695675984646314  0.9171991525525129  0.7532061109304422
  0.9979244834579504  0.5822442106028518  0.7534411411028543
  0.0046320757139924  0.9132044452808046  0.2563239428169766
  0.9984008397540549  0.9179665440702465  0.7451437613149352
  0.0836841267488424  0.1630044285589207  0.0083879309300627
  0.0821786497036001  0.1611573828435482  0.4945589898059666
  0.0839684949441875  0.4910454810866582  0.0028588386902015
  0.4149450583802334  0.1559139865348271  0.9916337509289903
  0.2432551563749143  0.3319703255725273  0.2488349960282008
  0.0845152013203858  0.5026782174793354  0.4958816510635273
  0.4167026594288430  0.1719372892653865  0.5054951100145146
  0.2492568625697658  0.3317328591905664  0.7458969587117679
  0.0832109691122511  0.8438858031986527  0.0034940041021798
  0.4157915803182846  0.4978523828784915  0.9959864297526195
  0.2477379703346756  0.6640037568450339  0.2625260883699099
  0.0817045229212070  0.8323311642932509  0.4936160491989057
  0.7481905969223988  0.1733035895376887  0.0013577845134805
  0.5867960408066892  0.3293979793248312  0.2576078271297746
  0.4143376872644424  0.5017657178062862  0.4959688078072020
  0.2495169018106367  0.6669861236933556  0.7403310887373706
  0.7486949213168046  0.1704000493069344  0.4995250049072268
  0.5832829015284560  0.3282405333409315  0.7468891422326394
  0.4146731229352838  0.8482393508328059  0.9992744419500141
  0.2515428360968244  0.0131002117791468  0.2550316822368401
  0.7507108548117145  0.4950767797233411  0.0011718218851939
  0.5836800699004598  0.6568536269332412  0.2608367352516368
  0.4155179720322337  0.8329027432696776  0.5005931581013314
  0.2532321407465616  0.0002997013930255  0.7430496071863857
  0.9162257442016042  0.3344421713894761  0.2439075226462393
  0.7507784066977479  0.5046219477467631  0.4943187433224310
  0.5843219136740174  0.6690659009601134  0.7361967394779114
  0.9182784137971538  0.3355329358001455  0.7556759428049844
  0.7536667065055482  0.8321207239359794  0.9997190058832501
  0.5829336004625532  0.0101281739192700  0.2415256188161479
  0.9146804249566713  0.6706489710552930  0.2523587577402466
  0.7523999454583077  0.8298160355796469  0.5001074885495456
  0.5842258965754752  0.0038371779898796  0.7585447704238817
  0.9156823148216375  0.6604953389033668  0.7471813303921166
  0.9131851425521518  0.9956722464184864  0.2364169635480664
  0.9145700280680700  0.0058103095260549  0.7605946990198902
  0.1655287716047980  0.9995453494149444  0.1304760758367394
  0.1681611973139141  0.0011036628551793  0.6194192790018249
  0.1699479001339199  0.3327443804802854  0.1281822463282012
  0.4799435434845734  0.0057816400114277  0.1232689253703256
  0.3297528561122149  0.1698348759590118  0.3716711555208931
  0.1735153112550449  0.3302700121823605  0.6255715310309640
  0.4933443491767022  0.0124548059609779  0.6228190443387547
  0.3426754173042070  0.1587228059074803  0.8765982296257206
  0.1649409885148430  0.6616064781509081  0.1273619916389777
  0.5015055773443748  0.3379475149041440  0.1271054070189734
  0.3308711142591321  0.4853626432212650  0.3724104541750819
  0.1653997256472692  0.6667097165434370  0.6245681297159038
  0.8511164364910115  0.9954881633391608  0.1296721818100650
  0.6633178831773989  0.1683388531138519  0.3732199671253298
  0.5043895248094614  0.3279352835659850  0.6225046840691846
  0.3377877857921234  0.4996088767641069  0.8750617781232535
  0.8353063833835179  0.0031762742566457  0.6258747475899185
  0.6640856299063387  0.1772314403432631  0.8755714839000390
  0.4997245503554240  0.6570346793232886  0.1268391413430834
  0.3283511361657503  0.8457785389365355  0.3691517340280654
  0.8345008545089669  0.3350652096032718  0.1257097845621757
  0.6663772941613928  0.5005200850567846  0.3738835235856257
  0.4999574896926973  0.6660493008272326  0.6235844984980048
  0.3305814741427966  0.8410572345727658  0.8790506981127564
  0.0069891696879765  0.1615178191648283  0.3777682823354098
  0.8254656567584888  0.3394954950434510  0.6254628981161616
  0.6755770019479428  0.4915715697780598  0.8753372505542245
  0.9977233243684367  0.1673623442314991  0.8755082062173898
  0.8354372074616450  0.6690840829241722  0.1274487602382308
  0.6714414645693125  0.8293761067473042  0.3740030370845915
  0.0053443323905711  0.5012807593326798  0.3754556730207241
  0.8316414710391484  0.6603448250757324  0.6251685827288398
  0.6649994151927174  0.8332275830658133  0.8749709628166329
  0.9942125008648830  0.4973077580143155  0.8770151790829814
  0.9960257249308526  0.8419366954799443  0.3706861384441495
  0.0007003604717610  0.8364273720031505  0.8782520764241326
  0.0809216363103218  0.0110337017094793  0.2478220661526223
  0.0787308132672351  0.0048603620610805  0.7501289854186766
  0.0795692018638761  0.3311997506457232  0.2414796059290154
  0.4181560850019892  0.0057895675447455  0.2274170877937749
  0.2484946262963916  0.1599469122510513  0.4902604127739636
  0.0827378461078041  0.3305441176242070  0.7585189978099791
  0.4198268142182329  0.0055450958004926  0.7703528661532317
  0.2503120157237859  0.1627547028112772  0.0153760876400284
  0.0835753555414129  0.6619243031047759  0.2555390628041039
  0.4193229822026225  0.3276857855791633  0.2611314796586655
  0.2487314981034032  0.5136263009719357  0.4929477816578967
  0.0829050849717703  0.6637762102249383  0.7490079063744801
  0.7501767717645507  0.9937752773528317  0.2492707339745621
  0.5813900838219581  0.1790608532335085  0.4979028047799687
  0.4184044103458078  0.3265660337894047  0.7314386424365225
  0.2496149510779517  0.4970467012436259  0.0122957446012464
  0.7502702502447178  0.9966286891790759  0.7485913944766054
  0.5775395048510177  0.1705500711163452  0.0023783614412238
  0.4140894564412534  0.6609150902046252  0.2663472345906683
  0.2464029614252965  0.8283499681143454  0.4937550503581676
  0.7509888947489145  0.3374890215573529  0.2493797260266462
  0.5845892469870009  0.4958940763562580  0.4851848416794553
  0.4158135704702843  0.6631538211799040  0.7386565555262976
  0.2492213760250266  0.8383973672800096  0.0042348228628200
  0.9183468740718155  0.1623412748806032  0.5094041856404132
  0.7501001602108630  0.3357321383620260  0.7564179606097525
  0.5850672789130584  0.4929384233384226  0.0108570034684448
  0.9213224123510315  0.1647188102054074  0.9910928049506467
  0.7514550071260828  0.6647814034214790  0.2578453069506637
  0.5846433579201928  0.8259738291595013  0.5068087782722515
  0.9165273646150993  0.5003986616650238  0.5148754786655090
  0.7509485310175208  0.6707152320620864  0.7427114836237720
  0.5829970151642812  0.8386929591503645  0.9909083490803567
  0.9201210960247579  0.4947999960798271  0.9887500286150654
  0.9165030729456376  0.8333298882512352  0.4891346065361759
  0.9182479146684059  0.8423380740007573  0.0092336536460067
  0.0085226677983599  0.1669190642213891  0.1209031381968018
  0.9971986478447263  0.1613335812218892  0.6269997404393877
  0.0044677531581314  0.4940124970327062  0.1245821420653357
  0.3267076657741796  0.1645890283385825  0.1238172368554231
  0.1789624052428991  0.3345824776620034  0.3764738037067303
  0.9934869473487637  0.5017076595029977  0.6280968805887142
  0.3420183094574725  0.1604779776611736  0.6248091084801004
  0.1625927615446301  0.3257991338648409  0.8811815707475361
  0.9998918653560835  0.8401298974390485  0.1281574476458971
  0.3288419650382792  0.4960588613523171  0.1260988880119882
  0.1657016374685867  0.6649003531795898  0.3732145933032953
  0.9995436524002130  0.8339689711289608  0.6204617516602084
  0.6642568357449861  0.1708037371410427  0.1251592759299385
  0.4910755005316858  0.3329173635911076  0.3724754928642113
  0.3364739792711902  0.4926811178948256  0.6198483598479356
  0.1629638765836745  0.6665136202108997  0.8771447740565748
  0.6627186022521556  0.1740072025459654  0.6259250060550201
  0.5119755917884561  0.3299197573064774  0.8757996680449978
  0.3266629417205138  0.8435663801821889  0.1254875007927083
  0.1676848652360619  0.0001731039590354  0.3732364135489448
  0.6606347796020628  0.4942855582972996  0.1271492897721700
  0.4994798696544507  0.6662381699991400  0.3773518504455353
  0.3340007835795404  0.8427295234818288  0.6234033693312071
  0.1667748026083942  0.0025865505308502  0.8768235532263802
  0.8271686437173571  0.3335261547666448  0.3746749118353989
  0.6727450473014684  0.4939472425920286  0.6208032931929282
  0.4987648881094771  0.6615968187673857  0.8749256695802785
  0.8285321487295434  0.3403157135906980  0.8787119818656279
  0.6720546422703961  0.8338978284952532  0.1261204660519653
  0.4933883710435936  0.0056599818952421  0.3743012822691156
  0.8303806792354678  0.6704623214615353  0.3746300669202185
  0.6671300858271678  0.8306546690280925  0.6258906996978624
  0.4838769674085270  0.0080533130782285  0.8742131914910445
  0.8358861171134890  0.6558029387114104  0.8758556866639822
  0.8409508505105450  0.9946858580468643  0.3765651627520157
  0.8455610568966065  0.0045572889274226  0.8751106218932492
  0.0130049799262508  0.0796251595495292  0.2494840381315555
  0.0019636689632279  0.0830128646237469  0.7515580580736483
  0.0059672987825081  0.4173352661529321  0.2389955161572246
  0.3219373332269200  0.0807442189836678  0.2549371391576543
  0.1735020009397488  0.2497515146466824  0.5043233461782322
  0.9988291976109025  0.4162156161354886  0.7600606033174699
  0.3350732963468630  0.0866686500707416  0.7359102011543328
  0.1643860395678800  0.2532774597818417  0.9946082906174851
  0.9993782862227931  0.7506957898798277  0.2534714989550650
  0.3307107195421324  0.4185041563080532  0.2676135860579976
  0.1802024348578399  0.5812762588206724  0.4906443462989145
  0.9991323001154555  0.7493863318908467  0.7472299766204671
  0.6547291808721027  0.0847456857273841  0.2446563575541347
  0.5013738232631439  0.2447869748955043  0.4949853188208735
  0.3309747731051260  0.4169443941671389  0.7339726928522907
  0.1643669827020631  0.5823706399534316  0.0127417264189518
  0.6607444428879106  0.0836250320143037  0.7557532179932309
  0.5101058369262574  0.2479091928045349  0.0047414634202312
  0.3285385376309549  0.7495556370723691  0.2621322122894156
  0.1642467664183513  0.9190247130225231  0.4862391988567722
  0.6599143674463193  0.4173068768431420  0.2582496229445468
  0.4954515259937438  0.5833176554209913  0.4920645320827930
  0.3324523609971806  0.7497795567917436  0.7457285363262827
  0.1595805106401045  0.9171705930394438  0.0105285001188449
  0.8273615583772411  0.2508193847679152  0.5008459281519038
  0.6736685889181118  0.4154597199403227  0.7401405659640403
  0.4983943208804860  0.5843395728973491  0.0004245355141492
  0.8285185073631638  0.2527653077774374  0.9995792562467685
  0.6692834958665514  0.7508340282868460  0.2535269896033512
  0.4919098009677185  0.9183062231930208  0.5022230531446610
  0.8241356476263135  0.5838225821104288  0.5101147391465091
  0.6696130913632388  0.7512415935799410  0.7484347735467338
  0.5048822678246836  0.9187884534862576  0.9970365011529552
  0.8353380778036055  0.5835165301106500  0.9917997842030672
  0.8393320786358203  0.9166965713965567  0.4961652836724681
  0.8412998697577265  0.9141817919830828  0.9994512619701084
 
  0.00000000E+00  0.00000000E+00  0.00000000E+00
  0.00000000E+00  0.00000000E+00  0.00000000E+00
  0.00000000E+00  0.00000000E+00  0.00000000E+00
  0.00000000E+00  0.00000000E+00  0.00000000E+00
  0.00000000E+00  0.00000000E+00  0.00000000E+00
  0.00000000E+00  0.00000000E+00  0.00000000E+00
  0.00000000E+00  0.00000000E+00  0.00000000E+00
  0.00000000E+00  0.00000000E+00  0.00000000E+00
  0.00000000E+00  0.00000000E+00  0.00000000E+00
  0.00000000E+00  0.00000000E+00  0.00000000E+00
  0.00000000E+00  0.00000000E+00  0.00000000E+00
  0.00000000E+00  0.00000000E+00  0.00000000E+00
  0.00000000E+00  0.00000000E+00  0.00000000E+00
  0.00000000E+00  0.00000000E+00  0.00000000E+00
  0.00000000E+00  0.00000000E+00  0.00000000E+00
  0.00000000E+00  0.00000000E+00  0.00000000E+00
  0.00000000E+00  0.00000000E+00  0.00000000E+00
  0.00000000E+00  0.00000000E+00  0.00000000E+00
  0.00000000E+00  0.00000000E+00  0.00000000E+00
  0.00000000E+00  0.00000000E+00  0.00000000E+00
  0.00000000E+00  0.00000000E+00  0.00000000E+00
  0.00000000E+00  0.00000000E+00  0.00000000E+00
  0.00000000E+00  0.00000000E+00  0.00000000E+00
  0.00000000E+00  0.00000000E+00  0.00000000E+00
  0.00000000E+00  0.00000000E+00  0.00000000E+00
  0.00000000E+00  0.00000000E+00  0.00000000E+00
  0.00000000E+00  0.00000000E+00  0.00000000E+00
  0.00000000E+00  0.00000000E+00  0.00000000E+00
  0.00000000E+00  0.00000000E+00  0.00000000E+00
  0.00000000E+00  0.00000000E+00  0.00000000E+00
  0.00000000E+00  0.00000000E+00  0.00000000E+00
  0.00000000E+00  0.00000000E+00  0.00000000E+00
  0.00000000E+00  0.00000000E+00  0.00000000E+00
  0.00000000E+00  0.00000000E+00  0.00000000E+00
  0.00000000E+00  0.00000000E+00  0.00000000E+00
  0.00000000E+00  0.00000000E+00  0.00000000E+00
  0.00000000E+00  0.00000000E+00  0.00000000E+00
  0.00000000E+00  0.00000000E+00  0.00000000E+00
  0.00000000E+00  0.00000000E+00  0.00000000E+00
  0.00000000E+00  0.00000000E+00  0.00000000E+00
  0.00000000E+00  0.00000000E+00  0.00000000E+00
  0.00000000E+00  0.00000000E+00  0.00000000E+00
  0.00000000E+00  0.00000000E+00  0.00000000E+00
  0.00000000E+00  0.00000000E+00  0.00000000E+00
  0.00000000E+00  0.00000000E+00  0.00000000E+00
  0.00000000E+00  0.00000000E+00  0.00000000E+00
  0.00000000E+00  0.00000000E+00  0.00000000E+00
  0.00000000E+00  0.00000000E+00  0.00000000E+00
  0.00000000E+00  0.00000000E+00  0.00000000E+00
  0.00000000E+00  0.00000000E+00  0.00000000E+00
  0.00000000E+00  0.00000000E+00  0.00000000E+00
  0.00000000E+00  0.00000000E+00  0.00000000E+00
  0.00000000E+00  0.00000000E+00  0.00000000E+00
  0.00000000E+00  0.00000000E+00  0.00000000E+00
  0.00000000E+00  0.00000000E+00  0.00000000E+00
  0.00000000E+00  0.00000000E+00  0.00000000E+00
  0.00000000E+00  0.00000000E+00  0.00000000E+00
  0.00000000E+00  0.00000000E+00  0.00000000E+00
  0.00000000E+00  0.00000000E+00  0.00000000E+00
  0.00000000E+00  0.00000000E+00  0.00000000E+00
  0.00000000E+00  0.00000000E+00  0.00000000E+00
  0.00000000E+00  0.00000000E+00  0.00000000E+00
  0.00000000E+00  0.00000000E+00  0.00000000E+00
  0.00000000E+00  0.00000000E+00  0.00000000E+00
  0.00000000E+00  0.00000000E+00  0.00000000E+00
  0.00000000E+00  0.00000000E+00  0.00000000E+00
  0.00000000E+00  0.00000000E+00  0.00000000E+00
  0.00000000E+00  0.00000000E+00  0.00000000E+00
  0.00000000E+00  0.00000000E+00  0.00000000E+00
  0.00000000E+00  0.00000000E+00  0.00000000E+00
  0.00000000E+00  0.00000000E+00  0.00000000E+00
  0.00000000E+00  0.00000000E+00  0.00000000E+00
  0.00000000E+00  0.00000000E+00  0.00000000E+00
  0.00000000E+00  0.00000000E+00  0.00000000E+00
  0.00000000E+00  0.00000000E+00  0.00000000E+00
  0.00000000E+00  0.00000000E+00  0.00000000E+00
  0.00000000E+00  0.00000000E+00  0.00000000E+00
  0.00000000E+00  0.00000000E+00  0.00000000E+00
  0.00000000E+00  0.00000000E+00  0.00000000E+00
  0.00000000E+00  0.00000000E+00  0.00000000E+00
  0.00000000E+00  0.00000000E+00  0.00000000E+00
  0.00000000E+00  0.00000000E+00  0.00000000E+00
  0.00000000E+00  0.00000000E+00  0.00000000E+00
  0.00000000E+00  0.00000000E+00  0.00000000E+00
  0.00000000E+00  0.00000000E+00  0.00000000E+00
  0.00000000E+00  0.00000000E+00  0.00000000E+00
  0.00000000E+00  0.00000000E+00  0.00000000E+00
  0.00000000E+00  0.00000000E+00  0.00000000E+00
  0.00000000E+00  0.00000000E+00  0.00000000E+00
  0.00000000E+00  0.00000000E+00  0.00000000E+00
  0.00000000E+00  0.00000000E+00  0.00000000E+00
  0.00000000E+00  0.00000000E+00  0.00000000E+00
  0.00000000E+00  0.00000000E+00  0.00000000E+00
  0.00000000E+00  0.00000000E+00  0.00000000E+00
  0.00000000E+00  0.00000000E+00  0.00000000E+00
  0.00000000E+00  0.00000000E+00  0.00000000E+00
  0.00000000E+00  0.00000000E+00  0.00000000E+00
  0.00000000E+00  0.00000000E+00  0.00000000E+00
  0.00000000E+00  0.00000000E+00  0.00000000E+00
  0.00000000E+00  0.00000000E+00  0.00000000E+00
  0.00000000E+00  0.00000000E+00  0.00000000E+00
  0.00000000E+00  0.00000000E+00  0.00000000E+00
  0.00000000E+00  0.00000000E+00  0.00000000E+00
  0.00000000E+00  0.00000000E+00  0.00000000E+00
  0.00000000E+00  0.00000000E+00  0.00000000E+00
  0.00000000E+00  0.00000000E+00  0.00000000E+00
  0.00000000E+00  0.00000000E+00  0.00000000E+00
  0.00000000E+00  0.00000000E+00  0.00000000E+00
  0.00000000E+00  0.00000000E+00  0.00000000E+00
  0.00000000E+00  0.00000000E+00  0.00000000E+00
  0.00000000E+00  0.00000000E+00  0.00000000E+00
  0.00000000E+00  0.00000000E+00  0.00000000E+00
  0.00000000E+00  0.00000000E+00  0.00000000E+00
  0.00000000E+00  0.00000000E+00  0.00000000E+00
  0.00000000E+00  0.00000000E+00  0.00000000E+00
  0.00000000E+00  0.00000000E+00  0.00000000E+00
  0.00000000E+00  0.00000000E+00  0.00000000E+00
  0.00000000E+00  0.00000000E+00  0.00000000E+00
  0.00000000E+00  0.00000000E+00  0.00000000E+00
  0.00000000E+00  0.00000000E+00  0.00000000E+00
  0.00000000E+00  0.00000000E+00  0.00000000E+00
  0.00000000E+00  0.00000000E+00  0.00000000E+00
  0.00000000E+00  0.00000000E+00  0.00000000E+00
  0.00000000E+00  0.00000000E+00  0.00000000E+00
  0.00000000E+00  0.00000000E+00  0.00000000E+00
  0.00000000E+00  0.00000000E+00  0.00000000E+00
  0.00000000E+00  0.00000000E+00  0.00000000E+00
  0.00000000E+00  0.00000000E+00  0.00000000E+00
  0.00000000E+00  0.00000000E+00  0.00000000E+00
  0.00000000E+00  0.00000000E+00  0.00000000E+00
  0.00000000E+00  0.00000000E+00  0.00000000E+00
  0.00000000E+00  0.00000000E+00  0.00000000E+00
  0.00000000E+00  0.00000000E+00  0.00000000E+00
  0.00000000E+00  0.00000000E+00  0.00000000E+00
  0.00000000E+00  0.00000000E+00  0.00000000E+00
  0.00000000E+00  0.00000000E+00  0.00000000E+00
  0.00000000E+00  0.00000000E+00  0.00000000E+00
  0.00000000E+00  0.00000000E+00  0.00000000E+00
  0.00000000E+00  0.00000000E+00  0.00000000E+00
  0.00000000E+00  0.00000000E+00  0.00000000E+00
  0.00000000E+00  0.00000000E+00  0.00000000E+00
  0.00000000E+00  0.00000000E+00  0.00000000E+00
  0.00000000E+00  0.00000000E+00  0.00000000E+00
  0.00000000E+00  0.00000000E+00  0.00000000E+00
  0.00000000E+00  0.00000000E+00  0.00000000E+00
  0.00000000E+00  0.00000000E+00  0.00000000E+00
  0.00000000E+00  0.00000000E+00  0.00000000E+00
  0.00000000E+00  0.00000000E+00  0.00000000E+00
  0.00000000E+00  0.00000000E+00  0.00000000E+00
  0.00000000E+00  0.00000000E+00  0.00000000E+00
  0.00000000E+00  0.00000000E+00  0.00000000E+00
  0.00000000E+00  0.00000000E+00  0.00000000E+00
  0.00000000E+00  0.00000000E+00  0.00000000E+00
  0.00000000E+00  0.00000000E+00  0.00000000E+00
  0.00000000E+00  0.00000000E+00  0.00000000E+00
  0.00000000E+00  0.00000000E+00  0.00000000E+00
  0.00000000E+00  0.00000000E+00  0.00000000E+00
  0.00000000E+00  0.00000000E+00  0.00000000E+00
  0.00000000E+00  0.00000000E+00  0.00000000E+00
  0.00000000E+00  0.00000000E+00  0.00000000E+00
  0.00000000E+00  0.00000000E+00  0.00000000E+00
  0.00000000E+00  0.00000000E+00  0.00000000E+00
  0.00000000E+00  0.00000000E+00  0.00000000E+00
  0.00000000E+00  0.00000000E+00  0.00000000E+00
  0.00000000E+00  0.00000000E+00  0.00000000E+00
  0.00000000E+00  0.00000000E+00  0.00000000E+00
  0.00000000E+00  0.00000000E+00  0.00000000E+00
  0.00000000E+00  0.00000000E+00  0.00000000E+00
  0.00000000E+00  0.00000000E+00  0.00000000E+00
  0.00000000E+00  0.00000000E+00  0.00000000E+00
  0.00000000E+00  0.00000000E+00  0.00000000E+00
  0.00000000E+00  0.00000000E+00  0.00000000E+00
  0.00000000E+00  0.00000000E+00  0.00000000E+00
  0.00000000E+00  0.00000000E+00  0.00000000E+00
  0.00000000E+00  0.00000000E+00  0.00000000E+00
  0.00000000E+00  0.00000000E+00  0.00000000E+00
  0.00000000E+00  0.00000000E+00  0.00000000E+00
  0.00000000E+00  0.00000000E+00  0.00000000E+00
  0.00000000E+00  0.00000000E+00  0.00000000E+00
  0.00000000E+00  0.00000000E+00  0.00000000E+00
  0.00000000E+00  0.00000000E+00  0.00000000E+00
  0.00000000E+00  0.00000000E+00  0.00000000E+00
  0.00000000E+00  0.00000000E+00  0.00000000E+00
  0.00000000E+00  0.00000000E+00  0.00000000E+00
  0.00000000E+00  0.00000000E+00  0.00000000E+00
  0.00000000E+00  0.00000000E+00  0.00000000E+00
  0.00000000E+00  0.00000000E+00  0.00000000E+00
  0.00000000E+00  0.00000000E+00  0.00000000E+00
  0.00000000E+00  0.00000000E+00  0.00000000E+00
  0.00000000E+00  0.00000000E+00  0.00000000E+00
  0.00000000E+00  0.00000000E+00  0.00000000E+00
  0.00000000E+00  0.00000000E+00  0.00000000E+00
  0.00000000E+00  0.00000000E+00  0.00000000E+00
  0.00000000E+00  0.00000000E+00  0.00000000E+00
  0.00000000E+00  0.00000000E+00  0.00000000E+00
  0.00000000E+00  0.00000000E+00  0.00000000E+00
  0.00000000E+00  0.00000000E+00  0.00000000E+00
  0.00000000E+00  0.00000000E+00  0.00000000E+00
  0.00000000E+00  0.00000000E+00  0.00000000E+00
  0.00000000E+00  0.00000000E+00  0.00000000E+00
  0.00000000E+00  0.00000000E+00  0.00000000E+00
  0.00000000E+00  0.00000000E+00  0.00000000E+00
  0.00000000E+00  0.00000000E+00  0.00000000E+00
  0.00000000E+00  0.00000000E+00  0.00000000E+00
  0.00000000E+00  0.00000000E+00  0.00000000E+00
  0.00000000E+00  0.00000000E+00  0.00000000E+00
  0.00000000E+00  0.00000000E+00  0.00000000E+00
  0.00000000E+00  0.00000000E+00  0.00000000E+00
  0.00000000E+00  0.00000000E+00  0.00000000E+00
  0.00000000E+00  0.00000000E+00  0.00000000E+00
  0.00000000E+00  0.00000000E+00  0.00000000E+00
  0.00000000E+00  0.00000000E+00  0.00000000E+00
  0.00000000E+00  0.00000000E+00  0.00000000E+00
  0.00000000E+00  0.00000000E+00  0.00000000E+00
  0.00000000E+00  0.00000000E+00  0.00000000E+00
  0.00000000E+00  0.00000000E+00  0.00000000E+00
  0.00000000E+00  0.00000000E+00  0.00000000E+00
  0.00000000E+00  0.00000000E+00  0.00000000E+00
  0.00000000E+00  0.00000000E+00  0.00000000E+00
  0.00000000E+00  0.00000000E+00  0.00000000E+00
  0.00000000E+00  0.00000000E+00  0.00000000E+00
  0.00000000E+00  0.00000000E+00  0.00000000E+00
  0.00000000E+00  0.00000000E+00  0.00000000E+00
  0.00000000E+00  0.00000000E+00  0.00000000E+00
  0.00000000E+00  0.00000000E+00  0.00000000E+00
  0.00000000E+00  0.00000000E+00  0.00000000E+00
  0.00000000E+00  0.00000000E+00  0.00000000E+00
  0.00000000E+00  0.00000000E+00  0.00000000E+00
  0.00000000E+00  0.00000000E+00  0.00000000E+00
  0.00000000E+00  0.00000000E+00  0.00000000E+00
  0.00000000E+00  0.00000000E+00  0.00000000E+00
  0.00000000E+00  0.00000000E+00  0.00000000E+00
  0.00000000E+00  0.00000000E+00  0.00000000E+00
  0.00000000E+00  0.00000000E+00  0.00000000E+00
  0.00000000E+00  0.00000000E+00  0.00000000E+00
  0.00000000E+00  0.00000000E+00  0.00000000E+00
  0.00000000E+00  0.00000000E+00  0.00000000E+00
  0.00000000E+00  0.00000000E+00  0.00000000E+00
  0.00000000E+00  0.00000000E+00  0.00000000E+00
  0.00000000E+00  0.00000000E+00  0.00000000E+00
  0.00000000E+00  0.00000000E+00  0.00000000E+00
  0.00000000E+00  0.00000000E+00  0.00000000E+00
  0.00000000E+00  0.00000000E+00  0.00000000E+00
  0.00000000E+00  0.00000000E+00  0.00000000E+00
  0.00000000E+00  0.00000000E+00  0.00000000E+00
  0.00000000E+00  0.00000000E+00  0.00000000E+00
  0.00000000E+00  0.00000000E+00  0.00000000E+00
  0.00000000E+00  0.00000000E+00  0.00000000E+00
  0.00000000E+00  0.00000000E+00  0.00000000E+00
  0.00000000E+00  0.00000000E+00  0.00000000E+00
  0.00000000E+00  0.00000000E+00  0.00000000E+00
  0.00000000E+00  0.00000000E+00  0.00000000E+00
