generated by phonopy                    
   1.00000000000000     
     0.0000000000000000    3.2847277637216514    3.2847277637217576
     3.2847277637216972    0.0000000000000000    3.2847277637217576
     3.2847277637216972    3.2847277637216514    0.0000000000000000
   Na   Zr   K    Sc   H 
     1     1     1     1    24
Direct
  0.2500000000000000  0.2500000000000000  0.2500000000000000
  0.7500000000000000  0.7500000000000000  0.7500000000000000
  0.0000000000000000  0.0000000000000000  0.0000000000000000
  0.5000000000000000  0.5000000000000000  0.5000000000000000
  0.1404100019747503  0.8849727182784903  0.6126950927403243
  0.8849727182784903  0.1404100019747503  0.3619221870064351
  0.6126950927403243  0.3619221870064351  0.1404100019747503
  0.3619221870064351  0.6126950927403243  0.8849727182784903
  0.6126950927403243  0.1404100019747503  0.8849727182784903
  0.3619221870064351  0.8849727182784903  0.1404100019747503
  0.1404100019747503  0.6126950927403243  0.3619221870064351
  0.8849727182784903  0.3619221870064351  0.6126950927403243
  0.8849727182784903  0.6126950927403243  0.1404100019747503
  0.1404100019747503  0.3619221870064351  0.8849727182784903
  0.3619221870064351  0.1404100019747503  0.6126950927403243
  0.6126950927403243  0.8849727182784903  0.3619221870064351
  0.1404100019747503  0.3619221870064351  0.6126950927403243
  0.3619221870064351  0.1404100019747503  0.8849727182784903
  0.6126950927403243  0.8849727182784903  0.1404100019747503
  0.8849727182784903  0.6126950927403243  0.3619221870064351
  0.6126950927403243  0.1404100019747503  0.3619221870064351
  0.8849727182784903  0.3619221870064351  0.1404100019747503
  0.1404100019747503  0.6126950927403243  0.8849727182784903
  0.3619221870064351  0.8849727182784903  0.6126950927403243
  0.3619221870064351  0.6126950927403243  0.1404100019747503
  0.1404100019747503  0.8849727182784903  0.3619221870064351
  0.8849727182784903  0.1404100019747503  0.6126950927403243
  0.6126950927403243  0.3619221870064351  0.8849727182784903
 
  0.00000000E+00  0.00000000E+00  0.00000000E+00
  0.00000000E+00  0.00000000E+00  0.00000000E+00
  0.00000000E+00  0.00000000E+00  0.00000000E+00
  0.00000000E+00  0.00000000E+00  0.00000000E+00
  0.00000000E+00  0.00000000E+00  0.00000000E+00
  0.00000000E+00  0.00000000E+00  0.00000000E+00
  0.00000000E+00  0.00000000E+00  0.00000000E+00
  0.00000000E+00  0.00000000E+00  0.00000000E+00
  0.00000000E+00  0.00000000E+00  0.00000000E+00
  0.00000000E+00  0.00000000E+00  0.00000000E+00
  0.00000000E+00  0.00000000E+00  0.00000000E+00
  0.00000000E+00  0.00000000E+00  0.00000000E+00
  0.00000000E+00  0.00000000E+00  0.00000000E+00
  0.00000000E+00  0.00000000E+00  0.00000000E+00
  0.00000000E+00  0.00000000E+00  0.00000000E+00
  0.00000000E+00  0.00000000E+00  0.00000000E+00
  0.00000000E+00  0.00000000E+00  0.00000000E+00
  0.00000000E+00  0.00000000E+00  0.00000000E+00
  0.00000000E+00  0.00000000E+00  0.00000000E+00
  0.00000000E+00  0.00000000E+00  0.00000000E+00
  0.00000000E+00  0.00000000E+00  0.00000000E+00
  0.00000000E+00  0.00000000E+00  0.00000000E+00
  0.00000000E+00  0.00000000E+00  0.00000000E+00
  0.00000000E+00  0.00000000E+00  0.00000000E+00
  0.00000000E+00  0.00000000E+00  0.00000000E+00
  0.00000000E+00  0.00000000E+00  0.00000000E+00
  0.00000000E+00  0.00000000E+00  0.00000000E+00
  0.00000000E+00  0.00000000E+00  0.00000000E+00
