POSCAR                                  
   1.00000000000000     
    10.0472947046568120    0.0063498110051348   -0.0030622088415430
     0.0063501703015254   10.0136529209003680   -0.0101853378542440
    -0.0020272312598656   -0.0067500489311540    6.6459382132237810
   Zr   Na   Mg   Ca   H 
     9     9     9     9   216
Direct
  0.1689997174321269  0.1768200566890011  0.2448247942054661
  0.1718191489294194  0.8298311881359297  0.2444591716499553
  0.3399867863117497  0.6542448682867291  0.5017176858789694
  0.3317134833216001  0.0087403831973897  0.5067953545345989
  0.8283033033215096  0.4971844019753279  0.2441475434445460
 -0.0057689982372062  0.3283459309682762  0.5033521801794892
  0.8265585522786365  0.4952467444729496  0.7591233806358031
  0.6694973976586774  0.0000172886689688  0.5011675890405195
  0.9988957139313852  0.6694182387234219  0.5000444115185533
  0.1733184251291295  0.1736058096403325  0.7515135571701049
  0.1693571049469593  0.5037585035278095  0.2593668718047619
  0.5005400848054831  0.1652475067933841  0.7534552304970300
  0.3314020829383492  0.3312611602746598  0.9954161117112269
  0.3351488893962787  0.6657211102188627  0.9943185636035570
  0.8283729650506410  0.1686590786857423  0.7508921144312120
  0.3352876309017837  0.0006541889427472  0.9989745159715988
  0.6646343375462208  0.6600452267545663  0.0003608338451728
  0.0112439618558593  0.3349573388657787  0.9972477123598003
  0.5023081645781325  0.1680906968918518  0.2506208026463440
  0.3445479291188905  0.3350196631677295  0.4967362447934954
  0.1705971692591559  0.4863016929968376  0.7583152827276752
  0.1677395049226462  0.8485288479663691  0.7579373154604617
  0.6544217080661749  0.3340024040554000  0.5002769456900581
  0.4982631992048523  0.4992472113109780  0.7548412649746450
  0.6507355720685394  0.3311947669084282  0.9935300331876153
  0.6637730539927053  0.6642217909896732  0.5006784394842732
  0.8308488794305205  0.8363604940350490  0.2466322067714707
  0.4971108022212544  0.4933999673582953  0.2477639018138560
  0.8305064168928060  0.1660452217568212  0.2449294698190508
  0.5043425290925718  0.8318526900534035  0.2459096425520141
  0.4970735825004264  0.8291444794942860  0.7528888752549854
  0.8388228598761520  0.8321369913436611  0.7504605054067094
  0.6631265924038785  0.0028421838935654  0.9981012810803414
  0.0037280835021091  0.6647550473430552  0.9981761434104471
  0.0000694436168641  0.0036032841570162  0.5015909878394873
  0.0004909978519565  0.0029927906498234  0.9969427391268441
  0.1716073764568132  0.0857108223851658  0.9912553919633644
  0.1649826291969868  0.0894398581004837  0.5117326232329400
  0.1801567519175104  0.4199851600008468  0.0206168504507129
  0.4955041276790578  0.0795942049869976  0.9826613482640650
  0.3382646421192457  0.2513215139249851  0.2483906385383129
  0.1648670333879380  0.4175357068325538  0.5007566370137848
  0.5032446945347430  0.0839002832759375  0.5185007224495691
  0.3450519756557693  0.2469412553594487  0.7457888539241522
  0.1758149894880401  0.7488820889393518  0.9715584987361282
  0.4820309103542366  0.4209618555256065  0.9913361180832797
  0.3295810663218622  0.5791552392713416  0.2270480113336490
  0.1739326973235951  0.7543580982869397  0.5311700473968561
  0.8309285309334306  0.0843699622249577  0.9873539397164949
  0.6655883140450772  0.2488296222444612  0.2687673211994492
  0.4995539921490106  0.4178335575679837  0.5159311116023438
  0.3150256340123905  0.5821652824051331  0.7638330272607592
  0.8347354339736532  0.0874392257968569  0.5089026638029833
  0.6585359179255785  0.2492734259401818  0.7299434517663406
  0.5076879366971123  0.7473758054458511  0.9991047279182939
  0.3366400652223184  0.9182646377255121  0.2462843039033959
  0.8557508363101867  0.4112100563312469  0.0001105772574468
  0.6635373843977863  0.5838611429326395  0.2476914812576477
  0.5051875049823602  0.7476691158326942  0.4990985276281479
  0.3298173416381140  0.9190142564454470  0.7553971260954839
  0.9941518158198350  0.2529753114166821  0.2273196616464415
  0.8213013609251506  0.4141595736476329  0.5001445060787323
  0.6565707673778058  0.5817032133743817  0.7508209554899798
 -0.0104576582100247  0.2505912542681112  0.7611474683549384
  0.8231422546266265  0.7491322665516557  0.0074763845457630
  0.6702231431557496  0.9149490809371973  0.2479891629099976
  0.0044467384283424  0.5838296049692948  0.2507713886584869
  0.8214632149736942  0.7498986633648204  0.4881755022148678
  0.6683197578184398  0.9135048180678657  0.7534407639981783
  0.0283338529961725  0.5826767620913824  0.7485838901521821
  0.0007385006785779  0.9176940282590181  0.2498003747207484
  0.0078796087696256  0.9192764218160870  0.7470937879059886
  0.0820688681788618  0.1714003464948893  0.9754963541225112
  0.0850984480314215  0.1690665167962152  0.5235066221064109
  0.0843952843996572  0.4977045422302688  0.0014892812161538
  0.4181605003879195  0.1700067584710692  0.0205540175668575
  0.2510004958754232  0.3428962162629381  0.2663797169105308
  0.0847907988529865  0.4968368996144237  0.5080621071385790
  0.4185467863016374  0.1704024990981792  0.4879126929291266
  0.2512585116164009  0.3374253154620744  0.7307494174816574
  0.0829197288772591  0.8342901488274751  0.9978834819056586
  0.4161378897097628  0.4883205245185387  0.9878546377155714
  0.2514977120954135  0.6625455626744030  0.2430732753131628
  0.0857811927719603  0.8372463903886829  0.4993734627165863
  0.7454732559383023  0.1790957962983652  0.9909812724936723
  0.5839335991388828  0.3321774842358644  0.2362171822786556
  0.4240247429904933  0.4882758290857501  0.5146976026558391
  0.2471767723570401  0.6419399520121393  0.7510440475904945
  0.7472075064901413  0.1714844407232191  0.5024103150936270
  0.5761863802038212  0.3429490536474650  0.7579515605544027
  0.4161991879721437  0.8380437280550446  0.0011910197035142
  0.2519500295102999  0.0057668798059834  0.2330193303690234
  0.7435619223638378  0.4848252557116955  0.0003977524426363
  0.5854235150959686  0.6602143409288098  0.2563794705128596
  0.4148299595328350  0.8338490423130454  0.4972717893460295
  0.2510517254674376  0.0095683654830673  0.7587386505044931
  0.9181653879063858  0.3309300394858529  0.2326562953650773
  0.7458605080903883  0.5079517053542242  0.4994785303478397
  0.5851342650746920  0.6580930775223869  0.7487945688956918
  0.9189118319800745  0.3227085663320909  0.7656903814805840
  0.7501255473818421  0.8283492267033545  0.0010566192150888
  0.5780479450307372  0.0064995675547711  0.2499284427240168
  0.9161654760288886  0.6758560675678359  0.2471074606285491
  0.7514025396617615  0.8257731034828476  0.4956487720983681
  0.5820974989317649 -0.0019034597069241  0.7462542098909200
  0.9182546073689367  0.6583536186737968  0.7525558748115840
  0.9183137606077006  0.9960968303426636  0.2496653651200014
  0.9168379072076265  0.0114778771678038  0.7487423650965745
  0.1768007259781229  0.0040144835449966  0.1234902877041695
  0.1645859974259254  0.0072573660242306  0.6303984250438908
  0.1709814318170266  0.3481654490038618  0.1246726973563615
  0.4962205624754791  0.0061517116930634  0.1297965485170097
  0.3435523951891025  0.1785267189534442  0.3701652823858523
  0.1938038592616206  0.3308634103852072  0.6281090019749979
  0.5016670287988740  0.0117212466946061  0.6285564030968390
  0.3324173787435677  0.1657155665077382  0.8735420106112726
  0.1762708309698910  0.6531967656894202  0.1142473371044193
  0.4959565176710516  0.3264391073904079  0.1279144244842549
  0.3312575927058150  0.4883091819763103  0.3757274197619395
  0.1638004978291674  0.6974096709447855  0.6379209669976954
  0.8285268688871489  0.9936685702985812  0.1227453386858493
  0.6608910151446448  0.1852520243318763  0.3706108146194858
  0.4978329153900347  0.3167010617487093  0.6265529983394615
  0.3291576653209887  0.4996219169701403  0.8801801934334497
  0.8349526317858308  0.0048093564115525  0.6302817304384843
  0.6659147372641573  0.1742490698158809  0.8749677690583111
  0.4952002149861325  0.6591590235743384  0.1191038970699496
  0.3382788674075652  0.8285422206348866  0.3762177712084810
  0.8105436800728001  0.3256091353180471  0.1076144601857025
  0.6624293233338192  0.4922503848440822  0.3766071143584383
  0.5062655634200438  0.6569330606894456  0.6276943136825239
  0.3257903079281728  0.8306328279950452  0.8715360331816624
  0.9996254511663741  0.1683814708580154  0.3724946745298048
  0.8103923890318563  0.3313185342774675  0.6262434294901006
  0.6552539135193948  0.4974246595632913  0.8744028907759732
  0.0136266337296839  0.1732918691225440  0.8780615996845172
  0.8278491430221258  0.6762337332482824  0.1244337099659961
  0.6710983996842388  0.8226449742861117  0.3730467826313995
  0.0033081050908108  0.4975286364338433  0.3737862459850884
  0.8226925492347307  0.6618558424262938  0.6234835872532617
  0.6681458048448762  0.8276259206209799  0.8752701394691207
  0.0092511968419944  0.4931925695784958  0.8775862253103920
 -0.0009435971081933  0.8381342578304960  0.3697898722463693
  0.0124835260585694  0.8310168774702319  0.8772920242343354
  0.0821557283426051  0.9999918974062890  0.2500661335754419
  0.0830765614076691  0.0174514862908234  0.7488037800676273
  0.0834643485971959  0.3432945952026891  0.2545400103578013
  0.4165640302608927  0.0076442932999728  0.2420601780955071
  0.2540249990146154  0.1797742022762619  0.5065088425948535
  0.0833078052722333  0.3353479799547544  0.7430676554749057
  0.4152569314100632  0.0035678325602781  0.7571470173780473
  0.2537445614917316  0.1697902025865058  0.9940491998052441
  0.0847070664387219  0.6615269133173820  0.2475912031109400
  0.4162538443077672  0.3248855919757653  0.2312197816247589
  0.2484609780122329  0.4885819155412504  0.5170136352361352
  0.0925403254986754  0.6426859547763257  0.7532196482010770
  0.7515095436786908  0.9973398215368328  0.2449315686195819
  0.5800522584092316  0.1667378636767765  0.4916362471628851
  0.4090637536852009  0.3406274436097184  0.7511292994506605
  0.2485627989657864  0.4936571421278360 -0.0042771631992725
  0.7530360255611105 -0.0008218822376536  0.7537506060381590
  0.5790117845451561  0.1720688412757399  0.0117916670225543
  0.4183476908794053  0.6646788992501337  0.2376947474595404
  0.2514431592435669  0.8302066123019505  0.5078064888872917
  0.7477325094370195  0.3275153591378761  0.2027968660589923
  0.5859881456328312  0.5030280386114482  0.5025311710918962
  0.4163817414065278  0.6547306098967665  0.7596416450627604
  0.2529987731067114  0.8349637013611968  0.9944646744926442
  0.9089981929784068  0.1646371126053152  0.5102790141048265
  0.7501423948960152  0.3293167004066897  0.7830783892093368
  0.5835187422671995  0.4943233071665643  0.9934372895855583
  0.9158433363544825  0.1784110075405786  0.9919396997029998
  0.7502032298526653  0.6694524360042206  0.2517033920531594
  0.5837138989116775  0.8252722050749399  0.5015052416098194
  0.9125288257863879  0.5007068455341881  0.4995289451150117
  0.7463836977620185  0.6683523562119460  0.7498377327631689
  0.5827790730575532  0.8191766968929508  0.9959486523377844
  0.9226922790721922  0.4921370329562226  0.0011507720530502
  0.9156591074031252  0.8368154333326578  0.4834426263891965
  0.9175559130056455  0.8355940824760911  0.0122596435939519
  0.9994868023466476  0.1759336673347165  0.1242866148110741
  0.0055235475948442  0.1677287291867234  0.6318102734035743
  0.0117514487603294  0.4946213021354569  0.1241347291026552
  0.3505757297301254  0.1664150544108918  0.1157763148338179
  0.1890273240499402  0.3431807932787290  0.3768322452873817
  0.9950104674358393  0.5017010824950559  0.6256969008012394
  0.3351798608395124  0.1845915518872225  0.6299439603641330
  0.1712353239270325  0.3280796515223331  0.8771682138955446
  0.9915539418180863  0.8322166759204633  0.1214444589309105
  0.3268903276145780  0.5026604241476690  0.1287951082069477
  0.1694414437037428  0.6684485429720339  0.3804181492394486
  0.0097900605323827  0.8371824615657932  0.6282235141246962
  0.6532066106325677  0.1727728784782784  0.1208749928074598
  0.4985260725407064  0.3233522523334106  0.3717319572894255
  0.3368667364890882  0.4935771622954931  0.6293434226520659
  0.1730997200527457  0.6880702832557695  0.8687846748595427
  0.6631660897683928  0.1880298849737211  0.6338061020324376
  0.4958816972710343  0.3184347997674764  0.8786144339830689
  0.3384411277617251  0.8269494840748067  0.1186867748974510
  0.1670835666108170  0.0002747081371060  0.3724868322179728
  0.6605885155832699  0.4940997628881577  0.1177127091939892
  0.5099222378867801  0.6632758908455827  0.3686638124349636
  0.3253735098315541  0.8297153136210741  0.6268563220745333
  0.1731632848713782  0.0091902176694983  0.8830475599459862
  0.8076328501645234  0.3335585145096185  0.3739036467371699
  0.6622046633622138  0.4870924356073479  0.6278543347734444
  0.4973397650995577  0.6537194160806427  0.8766787094868790
  0.8178432733862983  0.3261574135576077  0.8830612068521837
  0.6736138687341620  0.8257052036267979  0.1237925830649181
  0.4979670029457650  0.0073242953953099  0.3735686762374943
  0.8230375779654605  0.6676011552422206  0.3719028176354660
  0.6685972986581884  0.8208139929959442  0.6261472725576008
  0.4924091353112109  0.0140440654711001  0.8829048792404978
  0.8265175892265735  0.6667888781167367  0.8780238626638752
  0.8329384715504455  0.9977486071196511  0.3707427573433131
  0.8306464425092366  0.0087121927340442  0.8775238055864507
  0.0021789933897592  0.0828204174311623  0.2495587933205733
  0.0022814952613893  0.0849818880356470  0.7499084783046993
  0.0093392232617631  0.4183882040368954  0.2494495831067708
  0.3344107763213133  0.0835539744613175  0.2413725217756763
  0.1661916871656083  0.2567884505067437  0.5113646485995140
  0.0047906790533333  0.4182817470819078  0.7542087556664597
  0.3342041687618368  0.0873837428210767  0.7692973995902763
  0.1730874316431904  0.2562501541976290  0.9834204829730806
  0.9908933793330675  0.7516855934420965  0.2455009733992135
  0.3318185679667419  0.4164894775417702  0.2389351660792770
  0.1672447420833486  0.5825087161881545  0.5226125127061726
  0.0105661818963379  0.7524069277296271  0.7531752483311464
  0.6640333011406602  0.0853152784603798  0.2507514183085657
  0.4994893307928578  0.2516301248029901  0.5292363965079124
  0.3500259993764357  0.4142874451163399  0.7535884278288525
  0.1749267042083067  0.5838138465654051  0.0025116027653912
  0.6653080743043684  0.0883231321987967  0.7483150072254955
  0.4910616526032560  0.2521439519038706  0.9751838955674842
  0.3386729169269719  0.7478261475295902  0.2402334174476567
  0.1659956466767790  0.9180386037023369  0.5159039933815972
  0.6596598430712213  0.4111927140157889  0.2685795548194577
  0.5098001023768323  0.5813299416283619  0.5061827504501036
  0.3250411641950485  0.7516527475880612  0.7543959505034351
  0.1728066454602218  0.9219348425924221  0.9940357457268044
  0.8137883745450768  0.2496002461431354  0.5044914711125716
  0.6490462270751322  0.4102802468322086  0.7355622912357577
  0.4988798635544146  0.5867535526334660  0.9979842497711516
  0.8513310046764516  0.2467904672956411  0.9922165812156000
  0.6745182793767316  0.7510653416013046  0.2464784844805192
  0.4970340363122689  0.9113256036107706  0.5011352100828386
  0.8291375111452896  0.5877799442062251  0.4979434631254636
  0.6691737950803187  0.7475452396780745  0.7483171682686799
  0.4924144409777708  0.9125898059144396 -0.0005689671768935
  0.8313906642203893  0.5869258919813792  0.0025751024593945
  0.8341350383917561  0.9124616012784481  0.4922321305257321
  0.8302521802987864  0.9152654991348805  0.0051032395428262
 
  0.00000000E+00  0.00000000E+00  0.00000000E+00
  0.00000000E+00  0.00000000E+00  0.00000000E+00
  0.00000000E+00  0.00000000E+00  0.00000000E+00
  0.00000000E+00  0.00000000E+00  0.00000000E+00
  0.00000000E+00  0.00000000E+00  0.00000000E+00
  0.00000000E+00  0.00000000E+00  0.00000000E+00
  0.00000000E+00  0.00000000E+00  0.00000000E+00
  0.00000000E+00  0.00000000E+00  0.00000000E+00
  0.00000000E+00  0.00000000E+00  0.00000000E+00
  0.00000000E+00  0.00000000E+00  0.00000000E+00
  0.00000000E+00  0.00000000E+00  0.00000000E+00
  0.00000000E+00  0.00000000E+00  0.00000000E+00
  0.00000000E+00  0.00000000E+00  0.00000000E+00
  0.00000000E+00  0.00000000E+00  0.00000000E+00
  0.00000000E+00  0.00000000E+00  0.00000000E+00
  0.00000000E+00  0.00000000E+00  0.00000000E+00
  0.00000000E+00  0.00000000E+00  0.00000000E+00
  0.00000000E+00  0.00000000E+00  0.00000000E+00
  0.00000000E+00  0.00000000E+00  0.00000000E+00
  0.00000000E+00  0.00000000E+00  0.00000000E+00
  0.00000000E+00  0.00000000E+00  0.00000000E+00
  0.00000000E+00  0.00000000E+00  0.00000000E+00
  0.00000000E+00  0.00000000E+00  0.00000000E+00
  0.00000000E+00  0.00000000E+00  0.00000000E+00
  0.00000000E+00  0.00000000E+00  0.00000000E+00
  0.00000000E+00  0.00000000E+00  0.00000000E+00
  0.00000000E+00  0.00000000E+00  0.00000000E+00
  0.00000000E+00  0.00000000E+00  0.00000000E+00
  0.00000000E+00  0.00000000E+00  0.00000000E+00
  0.00000000E+00  0.00000000E+00  0.00000000E+00
  0.00000000E+00  0.00000000E+00  0.00000000E+00
  0.00000000E+00  0.00000000E+00  0.00000000E+00
  0.00000000E+00  0.00000000E+00  0.00000000E+00
  0.00000000E+00  0.00000000E+00  0.00000000E+00
  0.00000000E+00  0.00000000E+00  0.00000000E+00
  0.00000000E+00  0.00000000E+00  0.00000000E+00
  0.00000000E+00  0.00000000E+00  0.00000000E+00
  0.00000000E+00  0.00000000E+00  0.00000000E+00
  0.00000000E+00  0.00000000E+00  0.00000000E+00
  0.00000000E+00  0.00000000E+00  0.00000000E+00
  0.00000000E+00  0.00000000E+00  0.00000000E+00
  0.00000000E+00  0.00000000E+00  0.00000000E+00
  0.00000000E+00  0.00000000E+00  0.00000000E+00
  0.00000000E+00  0.00000000E+00  0.00000000E+00
  0.00000000E+00  0.00000000E+00  0.00000000E+00
  0.00000000E+00  0.00000000E+00  0.00000000E+00
  0.00000000E+00  0.00000000E+00  0.00000000E+00
  0.00000000E+00  0.00000000E+00  0.00000000E+00
  0.00000000E+00  0.00000000E+00  0.00000000E+00
  0.00000000E+00  0.00000000E+00  0.00000000E+00
  0.00000000E+00  0.00000000E+00  0.00000000E+00
  0.00000000E+00  0.00000000E+00  0.00000000E+00
  0.00000000E+00  0.00000000E+00  0.00000000E+00
  0.00000000E+00  0.00000000E+00  0.00000000E+00
  0.00000000E+00  0.00000000E+00  0.00000000E+00
  0.00000000E+00  0.00000000E+00  0.00000000E+00
  0.00000000E+00  0.00000000E+00  0.00000000E+00
  0.00000000E+00  0.00000000E+00  0.00000000E+00
  0.00000000E+00  0.00000000E+00  0.00000000E+00
  0.00000000E+00  0.00000000E+00  0.00000000E+00
  0.00000000E+00  0.00000000E+00  0.00000000E+00
  0.00000000E+00  0.00000000E+00  0.00000000E+00
  0.00000000E+00  0.00000000E+00  0.00000000E+00
  0.00000000E+00  0.00000000E+00  0.00000000E+00
  0.00000000E+00  0.00000000E+00  0.00000000E+00
  0.00000000E+00  0.00000000E+00  0.00000000E+00
  0.00000000E+00  0.00000000E+00  0.00000000E+00
  0.00000000E+00  0.00000000E+00  0.00000000E+00
  0.00000000E+00  0.00000000E+00  0.00000000E+00
  0.00000000E+00  0.00000000E+00  0.00000000E+00
  0.00000000E+00  0.00000000E+00  0.00000000E+00
  0.00000000E+00  0.00000000E+00  0.00000000E+00
  0.00000000E+00  0.00000000E+00  0.00000000E+00
  0.00000000E+00  0.00000000E+00  0.00000000E+00
  0.00000000E+00  0.00000000E+00  0.00000000E+00
  0.00000000E+00  0.00000000E+00  0.00000000E+00
  0.00000000E+00  0.00000000E+00  0.00000000E+00
  0.00000000E+00  0.00000000E+00  0.00000000E+00
  0.00000000E+00  0.00000000E+00  0.00000000E+00
  0.00000000E+00  0.00000000E+00  0.00000000E+00
  0.00000000E+00  0.00000000E+00  0.00000000E+00
  0.00000000E+00  0.00000000E+00  0.00000000E+00
  0.00000000E+00  0.00000000E+00  0.00000000E+00
  0.00000000E+00  0.00000000E+00  0.00000000E+00
  0.00000000E+00  0.00000000E+00  0.00000000E+00
  0.00000000E+00  0.00000000E+00  0.00000000E+00
  0.00000000E+00  0.00000000E+00  0.00000000E+00
  0.00000000E+00  0.00000000E+00  0.00000000E+00
  0.00000000E+00  0.00000000E+00  0.00000000E+00
  0.00000000E+00  0.00000000E+00  0.00000000E+00
  0.00000000E+00  0.00000000E+00  0.00000000E+00
  0.00000000E+00  0.00000000E+00  0.00000000E+00
  0.00000000E+00  0.00000000E+00  0.00000000E+00
  0.00000000E+00  0.00000000E+00  0.00000000E+00
  0.00000000E+00  0.00000000E+00  0.00000000E+00
  0.00000000E+00  0.00000000E+00  0.00000000E+00
  0.00000000E+00  0.00000000E+00  0.00000000E+00
  0.00000000E+00  0.00000000E+00  0.00000000E+00
  0.00000000E+00  0.00000000E+00  0.00000000E+00
  0.00000000E+00  0.00000000E+00  0.00000000E+00
  0.00000000E+00  0.00000000E+00  0.00000000E+00
  0.00000000E+00  0.00000000E+00  0.00000000E+00
  0.00000000E+00  0.00000000E+00  0.00000000E+00
  0.00000000E+00  0.00000000E+00  0.00000000E+00
  0.00000000E+00  0.00000000E+00  0.00000000E+00
  0.00000000E+00  0.00000000E+00  0.00000000E+00
  0.00000000E+00  0.00000000E+00  0.00000000E+00
  0.00000000E+00  0.00000000E+00  0.00000000E+00
  0.00000000E+00  0.00000000E+00  0.00000000E+00
  0.00000000E+00  0.00000000E+00  0.00000000E+00
  0.00000000E+00  0.00000000E+00  0.00000000E+00
  0.00000000E+00  0.00000000E+00  0.00000000E+00
  0.00000000E+00  0.00000000E+00  0.00000000E+00
  0.00000000E+00  0.00000000E+00  0.00000000E+00
  0.00000000E+00  0.00000000E+00  0.00000000E+00
  0.00000000E+00  0.00000000E+00  0.00000000E+00
  0.00000000E+00  0.00000000E+00  0.00000000E+00
  0.00000000E+00  0.00000000E+00  0.00000000E+00
  0.00000000E+00  0.00000000E+00  0.00000000E+00
  0.00000000E+00  0.00000000E+00  0.00000000E+00
  0.00000000E+00  0.00000000E+00  0.00000000E+00
  0.00000000E+00  0.00000000E+00  0.00000000E+00
  0.00000000E+00  0.00000000E+00  0.00000000E+00
  0.00000000E+00  0.00000000E+00  0.00000000E+00
  0.00000000E+00  0.00000000E+00  0.00000000E+00
  0.00000000E+00  0.00000000E+00  0.00000000E+00
  0.00000000E+00  0.00000000E+00  0.00000000E+00
  0.00000000E+00  0.00000000E+00  0.00000000E+00
  0.00000000E+00  0.00000000E+00  0.00000000E+00
  0.00000000E+00  0.00000000E+00  0.00000000E+00
  0.00000000E+00  0.00000000E+00  0.00000000E+00
  0.00000000E+00  0.00000000E+00  0.00000000E+00
  0.00000000E+00  0.00000000E+00  0.00000000E+00
  0.00000000E+00  0.00000000E+00  0.00000000E+00
  0.00000000E+00  0.00000000E+00  0.00000000E+00
  0.00000000E+00  0.00000000E+00  0.00000000E+00
  0.00000000E+00  0.00000000E+00  0.00000000E+00
  0.00000000E+00  0.00000000E+00  0.00000000E+00
  0.00000000E+00  0.00000000E+00  0.00000000E+00
  0.00000000E+00  0.00000000E+00  0.00000000E+00
  0.00000000E+00  0.00000000E+00  0.00000000E+00
  0.00000000E+00  0.00000000E+00  0.00000000E+00
  0.00000000E+00  0.00000000E+00  0.00000000E+00
  0.00000000E+00  0.00000000E+00  0.00000000E+00
  0.00000000E+00  0.00000000E+00  0.00000000E+00
  0.00000000E+00  0.00000000E+00  0.00000000E+00
  0.00000000E+00  0.00000000E+00  0.00000000E+00
  0.00000000E+00  0.00000000E+00  0.00000000E+00
  0.00000000E+00  0.00000000E+00  0.00000000E+00
  0.00000000E+00  0.00000000E+00  0.00000000E+00
  0.00000000E+00  0.00000000E+00  0.00000000E+00
  0.00000000E+00  0.00000000E+00  0.00000000E+00
  0.00000000E+00  0.00000000E+00  0.00000000E+00
  0.00000000E+00  0.00000000E+00  0.00000000E+00
  0.00000000E+00  0.00000000E+00  0.00000000E+00
  0.00000000E+00  0.00000000E+00  0.00000000E+00
  0.00000000E+00  0.00000000E+00  0.00000000E+00
  0.00000000E+00  0.00000000E+00  0.00000000E+00
  0.00000000E+00  0.00000000E+00  0.00000000E+00
  0.00000000E+00  0.00000000E+00  0.00000000E+00
  0.00000000E+00  0.00000000E+00  0.00000000E+00
  0.00000000E+00  0.00000000E+00  0.00000000E+00
  0.00000000E+00  0.00000000E+00  0.00000000E+00
  0.00000000E+00  0.00000000E+00  0.00000000E+00
  0.00000000E+00  0.00000000E+00  0.00000000E+00
  0.00000000E+00  0.00000000E+00  0.00000000E+00
  0.00000000E+00  0.00000000E+00  0.00000000E+00
  0.00000000E+00  0.00000000E+00  0.00000000E+00
  0.00000000E+00  0.00000000E+00  0.00000000E+00
  0.00000000E+00  0.00000000E+00  0.00000000E+00
  0.00000000E+00  0.00000000E+00  0.00000000E+00
  0.00000000E+00  0.00000000E+00  0.00000000E+00
  0.00000000E+00  0.00000000E+00  0.00000000E+00
  0.00000000E+00  0.00000000E+00  0.00000000E+00
  0.00000000E+00  0.00000000E+00  0.00000000E+00
  0.00000000E+00  0.00000000E+00  0.00000000E+00
  0.00000000E+00  0.00000000E+00  0.00000000E+00
  0.00000000E+00  0.00000000E+00  0.00000000E+00
  0.00000000E+00  0.00000000E+00  0.00000000E+00
  0.00000000E+00  0.00000000E+00  0.00000000E+00
  0.00000000E+00  0.00000000E+00  0.00000000E+00
  0.00000000E+00  0.00000000E+00  0.00000000E+00
  0.00000000E+00  0.00000000E+00  0.00000000E+00
  0.00000000E+00  0.00000000E+00  0.00000000E+00
  0.00000000E+00  0.00000000E+00  0.00000000E+00
  0.00000000E+00  0.00000000E+00  0.00000000E+00
  0.00000000E+00  0.00000000E+00  0.00000000E+00
  0.00000000E+00  0.00000000E+00  0.00000000E+00
  0.00000000E+00  0.00000000E+00  0.00000000E+00
  0.00000000E+00  0.00000000E+00  0.00000000E+00
  0.00000000E+00  0.00000000E+00  0.00000000E+00
  0.00000000E+00  0.00000000E+00  0.00000000E+00
  0.00000000E+00  0.00000000E+00  0.00000000E+00
  0.00000000E+00  0.00000000E+00  0.00000000E+00
  0.00000000E+00  0.00000000E+00  0.00000000E+00
  0.00000000E+00  0.00000000E+00  0.00000000E+00
  0.00000000E+00  0.00000000E+00  0.00000000E+00
  0.00000000E+00  0.00000000E+00  0.00000000E+00
  0.00000000E+00  0.00000000E+00  0.00000000E+00
  0.00000000E+00  0.00000000E+00  0.00000000E+00
  0.00000000E+00  0.00000000E+00  0.00000000E+00
  0.00000000E+00  0.00000000E+00  0.00000000E+00
  0.00000000E+00  0.00000000E+00  0.00000000E+00
  0.00000000E+00  0.00000000E+00  0.00000000E+00
  0.00000000E+00  0.00000000E+00  0.00000000E+00
  0.00000000E+00  0.00000000E+00  0.00000000E+00
  0.00000000E+00  0.00000000E+00  0.00000000E+00
  0.00000000E+00  0.00000000E+00  0.00000000E+00
  0.00000000E+00  0.00000000E+00  0.00000000E+00
  0.00000000E+00  0.00000000E+00  0.00000000E+00
  0.00000000E+00  0.00000000E+00  0.00000000E+00
  0.00000000E+00  0.00000000E+00  0.00000000E+00
  0.00000000E+00  0.00000000E+00  0.00000000E+00
  0.00000000E+00  0.00000000E+00  0.00000000E+00
  0.00000000E+00  0.00000000E+00  0.00000000E+00
  0.00000000E+00  0.00000000E+00  0.00000000E+00
  0.00000000E+00  0.00000000E+00  0.00000000E+00
  0.00000000E+00  0.00000000E+00  0.00000000E+00
  0.00000000E+00  0.00000000E+00  0.00000000E+00
  0.00000000E+00  0.00000000E+00  0.00000000E+00
  0.00000000E+00  0.00000000E+00  0.00000000E+00
  0.00000000E+00  0.00000000E+00  0.00000000E+00
  0.00000000E+00  0.00000000E+00  0.00000000E+00
  0.00000000E+00  0.00000000E+00  0.00000000E+00
  0.00000000E+00  0.00000000E+00  0.00000000E+00
  0.00000000E+00  0.00000000E+00  0.00000000E+00
  0.00000000E+00  0.00000000E+00  0.00000000E+00
  0.00000000E+00  0.00000000E+00  0.00000000E+00
  0.00000000E+00  0.00000000E+00  0.00000000E+00
  0.00000000E+00  0.00000000E+00  0.00000000E+00
  0.00000000E+00  0.00000000E+00  0.00000000E+00
  0.00000000E+00  0.00000000E+00  0.00000000E+00
  0.00000000E+00  0.00000000E+00  0.00000000E+00
  0.00000000E+00  0.00000000E+00  0.00000000E+00
  0.00000000E+00  0.00000000E+00  0.00000000E+00
  0.00000000E+00  0.00000000E+00  0.00000000E+00
  0.00000000E+00  0.00000000E+00  0.00000000E+00
  0.00000000E+00  0.00000000E+00  0.00000000E+00
  0.00000000E+00  0.00000000E+00  0.00000000E+00
  0.00000000E+00  0.00000000E+00  0.00000000E+00
  0.00000000E+00  0.00000000E+00  0.00000000E+00
  0.00000000E+00  0.00000000E+00  0.00000000E+00
  0.00000000E+00  0.00000000E+00  0.00000000E+00
  0.00000000E+00  0.00000000E+00  0.00000000E+00
  0.00000000E+00  0.00000000E+00  0.00000000E+00
  0.00000000E+00  0.00000000E+00  0.00000000E+00
  0.00000000E+00  0.00000000E+00  0.00000000E+00
  0.00000000E+00  0.00000000E+00  0.00000000E+00
  0.00000000E+00  0.00000000E+00  0.00000000E+00
  0.00000000E+00  0.00000000E+00  0.00000000E+00
  0.00000000E+00  0.00000000E+00  0.00000000E+00
  0.00000000E+00  0.00000000E+00  0.00000000E+00
