POSCAR                                  
   1.00000000000000     
    10.0197651814332271   -0.0002353658015307    0.0015587323873954
    -0.0002358810240328   10.0135561954395982   -0.0057912727959270
     0.0010485129211894   -0.0038380800140855    6.6469654795432644
   Zr   Na   Mg   Ca   H 
     9     9     9     9   216
Direct
  0.1683552526522742  0.1748541571126087  0.2384101517029928
  0.1718195299484189  0.8281287125432280  0.2421360533534652
  0.3430336826080369  0.6557543127427810  0.5044030650504272
  0.3329622026191954  0.0102917723836104  0.5053425811553628
  0.8270560668516166  0.4973727450555378  0.2439405451828583
  0.0026223581802856  0.3282927431500334  0.5041951982815666
  0.8301220368821417  0.4951002976063548  0.7581953510287657
  0.6679403868833966  0.0040576944466915  0.5034314397068036
 -0.0011603600416116  0.6705523004587536  0.5009953772400130
  0.1712170881698397  0.1704061167427894  0.7518557494425349
  0.1694635389028257  0.5007205478074481  0.2559267508253166
  0.4984823585229153  0.1698535540838986  0.7527747084140569
  0.3333670303034023  0.3315679576290770 -0.0014238453059731
  0.3349771536184761  0.6654713376818057 -0.0032440993857687
  0.8330205366164423  0.1684951225986014  0.7515623977412728
  0.3347510459288104  0.0012020457714022 -0.0012146064954231
  0.6634426654196738  0.6637204996732408 -0.0025981467911422
  0.0018356094043035  0.3341974124144630 -0.0011077823769505
  0.5025765825511982  0.1692997843967871  0.2472754725298898
  0.3391740039170505  0.3345406056521942  0.4989895157575907
  0.1732305951399885  0.4943536026601354  0.7566737458051574
  0.1683495526130275  0.8390511611208150  0.7547797808893973
  0.6596923560471232  0.3351272262047272  0.5019786506578146
  0.4952990178392880  0.4961637077102841  0.7568675468117048
  0.6609418920013815  0.3316592148977540 -0.0031866291057028
  0.6625976360962094  0.6626906481056851  0.5007339025133364
  0.8301980937651524  0.8354389274704612  0.2468397724420057
  0.4967437415259350  0.4952723700882999  0.2454104518767670
  0.8289878048682838  0.1638949532027422  0.2467826287862606
  0.5034952442656572  0.8319489223440198  0.2465252871232259
  0.4974943312818237  0.8347370908329652  0.7542178293452025
  0.8350503283650651  0.8334588845214115  0.7525915722047991
  0.6616889567537632  0.0003233627332439 -0.0025941138467088
  0.0027875591757398  0.6633673005484281 -0.0012127901143051
 -0.0001507254125551  0.0013650370682540  0.5007895167411394
 -0.0003332456430257  0.0027659210055540 -0.0047274423893752
  0.1731146571554563  0.0824015376491743 -0.0100994501368414
  0.1636895042127559  0.0869603927432454  0.5088312766721085
  0.1787116325129685  0.4200585227099543  0.0093696874247800
  0.4976871322325599  0.0840059945771471 -0.0067607513885163
  0.3396398324543513  0.2522194994369319  0.2509071486693499
  0.1726468834279134  0.4163718053767811  0.5004061517229449
  0.5014930679923099  0.0886567450637709  0.5055089515259410
  0.3400015803453624  0.2526417785095579  0.7438439346267542
  0.1747680350926162  0.7477955115609528 -0.0209659898389340
  0.4879714988676571  0.4181676990971171 -0.0075402768260540
  0.3287871031438801  0.5775679556639223  0.2304953191771610
  0.1740522444206717  0.7526233646395452  0.5176988159689045
  0.8288662906179903  0.0851638949857352 -0.0123537547978908
  0.6640134255025525  0.2482727263841720  0.2532241964995645
  0.4985996017622089  0.4153346708802731  0.5079793438713738
  0.3291200391073663  0.5810117973545911  0.7653111785098360
  0.8341178471284486  0.0879692922630817  0.5098980023809769
  0.6608897570050001  0.2488533118255714  0.7434141135555331
  0.5057258074800417  0.7486810192267442 -0.0027072096871823
  0.3362527846008325  0.9187542509547482  0.2447845434530567
  0.8338825305929691  0.4102344018061544 -0.0001464843823587
  0.6618812027129704  0.5870468179704442  0.2418891970201941
  0.5066816853068347  0.7499245590917177  0.5034053208153449
  0.3268873235576651  0.9178061552300584  0.7552460896655400
 -0.0050395412738431  0.2506566439610785  0.2347977464300486
  0.8266834866999133  0.4148244232333018  0.5019752820980020
  0.6496572658531377  0.5836198212524789  0.7547137168795985
  0.0016522931739916  0.2499899759510764  0.7605137686493063
  0.8234809433651470  0.7498277130486622  0.0087765537986796
  0.6710445384852803  0.9140113046470265  0.2507691080474339
  0.0031559865822033  0.5815287083276438  0.2507118215218647
  0.8197155578762140  0.7501282567637745  0.4925218401719013
  0.6681853889955788  0.9146695806158323  0.7496045346691101
  0.0235098211588255  0.5832205706593090  0.7484168494929939
 -0.0004881377665150  0.9171786408956275  0.2483539682291050
  0.0074423400037438  0.9175577634192325  0.7467615358269969
  0.0830483566265129  0.1737990615597329 -0.0182345252360913
  0.0863016147107265  0.1650448639288815  0.5142833648102971
  0.0824646102630129  0.4931163079161651  0.0072395667792884
  0.4164181773895002  0.1724642174015238  0.0123932287816248
  0.2510247606485271  0.3398260401692427  0.2518526543867701
  0.0861285975413247  0.5003839994657873  0.5056419529186136
  0.4188169965182107  0.1771402754228389  0.4916927757596448
  0.2483263827955025  0.3364947562428551  0.7481032763637183
  0.0818453981289704  0.8340548600365244 -0.0073251695980249
  0.4165508767476244  0.4893695070092873 -0.0083326304132071
  0.2508770676385927  0.6599151053625814  0.2459876874452248
  0.0859365535447297  0.8350326089017386  0.5054047885361966
  0.7498351105050232  0.1743979261253086 -0.0088513585784764
  0.5821614707024328  0.3323816147863679  0.2479889084178920
  0.4229953241438272  0.4864042517329171  0.5101469679741191
  0.2498934620810962  0.6536526070297524  0.7509486533622114
  0.7485484893195004  0.1742233826358484  0.5076766288091852
  0.5815084824045728  0.3406613828214214  0.7504447568179596
  0.4136716829792181  0.8360748903064398  0.0027587618791858
  0.2518541839888972  0.0043004660397111  0.2369751807486839
  0.7431487175009106  0.4961073208740290 -0.0019834017943861
  0.5857207540210438  0.6619626896083953  0.2510960707114694
  0.4148407639685265  0.8340292279664389  0.4985498445303972
  0.2503932034921696  0.0067072843041747  0.7590749756949895
  0.9164188722722153  0.3298996650515097  0.2439868399223178
  0.7446555559741872  0.5036216527346691  0.5054928109137317
  0.5859866896903323  0.6565156883647761  0.7518300587330865
  0.9176480016900165  0.3264591809214296  0.7605635567871094
  0.7500245261556944  0.8285836577008873  0.0028201439796683
  0.5781989666864082  0.0056021677416679  0.2498192206690361
  0.9147524186422361  0.6771758724694247  0.2490067795382168
  0.7501158140676808  0.8245601595614074  0.4974862237256314
  0.5808436550634751  0.0079115657550586  0.7472184476394735
  0.9160669504650963  0.6637669490489385  0.7519102810199088
  0.9167774708227241 -0.0062558197325535  0.2491999091374284
  0.9153230011711831  0.0055431178892186  0.7477168771398898
  0.1733096549391313  0.0019560398468982  0.1203282010523154
  0.1665197692749005  0.0036604281441725  0.6296120916915027
  0.1679173648517624  0.3440951849706150  0.1224181448269923
  0.4954399928374988  0.0074378306349466  0.1260074692217680
  0.3430481104532720  0.1772162903970795  0.3711690292369513
  0.1849180148822463  0.3295121843801477  0.6283348720058022
  0.4998362618284833  0.0108388136902752  0.6299487486061612
  0.3327656387231029  0.1652263635043627  0.8751114122531432
  0.1750279466163342  0.6506931322932968  0.1156458292996740
  0.5002809883438610  0.3267851977625801  0.1253907148860736
  0.3312062674165843  0.4886046492296515  0.3741501806473746
  0.1703322549727618  0.6786827451336407  0.6304755236591458
  0.8272862169226065 -0.0062161783298840  0.1232261853086405
  0.6591145512026320  0.1807265227336633  0.3744292372115861
  0.4965797978129594  0.3283807693153124  0.6275243380510351
  0.3314807323874195  0.5010011161380432  0.8796916675219529
  0.8354546582974361  0.0052423082819984  0.6306452092944020
  0.6647227083339464  0.1730616508048894  0.8710178456574915
  0.4952781692550926  0.6622676512524731  0.1206287693794960
  0.3363601705553995  0.8320664508714912  0.3752542721530494
  0.8272569165533352  0.3281991043166232  0.1195252566333915
  0.6615583656607705  0.4960449317618848  0.3778842100446865
  0.5052685356774221  0.6603138790909937  0.6284786882723451
  0.3271501134170556  0.8325710548334977  0.8717753866930801
 -0.0018175238545198  0.1662206516418216  0.3733203602019951
  0.8188944482590058  0.3289222431488337  0.6268960759562480
  0.6588139402118620  0.4956005764551263  0.8750920446525670
  0.0047038931819123  0.1739285293647600  0.8776284600595901
  0.8264332235866662  0.6735702418494682  0.1221927840246972
  0.6703941149587221  0.8245563279816792  0.3729668394439494
  0.0021569051214394  0.4977472604063714  0.3722993025566444
  0.8235697358330500  0.6639205384444365  0.6249729810004657
  0.6662194185207868  0.8275561580186517  0.8750705539192519
  0.0131324234619822  0.4933417693433796  0.8778972510291707
 -0.0017002690393079  0.8362063755114375  0.3701198090311422
  0.0092884992153248  0.8313384792983821  0.8780763726020283
  0.0810568080294854 -0.0036544723955975  0.2471719456733014
  0.0829840347883652  0.0091529545691509  0.7489963627533370
  0.0828142141758943  0.3436663994407032  0.2416544776303053
  0.4161694022360700  0.0077565177347172  0.2420988958232165
  0.2516479173569891  0.1787986619974199  0.5019466224408931
  0.0836821992799305  0.3358431439338096  0.7582288822706886
  0.4160087250968705  0.0080940799478270  0.7579668690390223
  0.2523563934405876  0.1699353282117437 -0.0094769408488708
  0.0845556036181284  0.6607799763885231  0.2481785414849396
  0.4180992894210983  0.3248688558674224  0.2439351142654990
  0.2490584432576427  0.4933406285464867  0.5138363745581993
  0.0874823538703167  0.6600047807969167  0.7500164092265563
  0.7514697509356140 -0.0036430462507985  0.2439714012761876
  0.5789410501018788  0.1752464977639066  0.5022116410009545
  0.4140712493778661  0.3318204124762464  0.7538479520060192
  0.2469150404247729  0.4897463088156770 -0.0028562527144039
  0.7514551542335749  0.0044244842761932  0.7538487186291130
  0.5789511728645278  0.1722361774871136  0.0007112529283158
  0.4188526652321522  0.6658617214166593  0.2339038138358690
  0.2493543285556575  0.8285479964192095  0.5077389285975801
  0.7476019104101014  0.3273878048114343  0.2487434131227565
  0.5839712134733998  0.4959119408246294  0.5073940462557351
  0.4207162285173617  0.6611638202471292  0.7644367618060012
  0.2511289895974509  0.8323153476141223 -0.0080398540759045
  0.9133974188877788  0.1655763931393235  0.5074847423326612
  0.7500810289842083  0.3296922614736632  0.7516150266295475
  0.5834312115611676  0.4947450488392752 -0.0067644038697421
  0.9175460100788350  0.1735202806167264 -0.0061674384318520
  0.7499233107256729  0.6697433148696440  0.2532028645821369
  0.5851844946519740  0.8277225730134521  0.5007877173176406
  0.9174924462864611  0.4994506732182057  0.5008881898071669
  0.7468767916853640  0.6645854141405918  0.7435195466778179
  0.5822493105032823  0.8210342903210162 -0.0026654448434594
  0.9206779132966658  0.4926945125102388  0.0001970847976801
  0.9135371045070155  0.8362299111346724  0.4870756863904627
  0.9165476041943597  0.8348767404361908  0.0113444704086762
 -0.0059256040454417  0.1757935735686653  0.1190836554264488
  0.0030058775810049  0.1651679520723906  0.6335085888453211
  0.0139999838145737  0.4935840867373086  0.1212797741990814
  0.3493063334527434  0.1684468482076611  0.1161978672737354
  0.1778300323487479  0.3410819583922136  0.3768334581572906
 -0.0004128310849966  0.4986940615323034  0.6270613221856732
  0.3348793207316546  0.1808033979054205  0.6306097146671954
  0.1709248054186902  0.3309834094620155  0.8747062242144104
 -0.0062191898799646  0.8311500362034157  0.1215041490120374
  0.3278204199509814  0.5024843785282682  0.1266411869032576
  0.1726422274174733  0.6618633456609716  0.3772973555859360
  0.0066529033131475  0.8374542338991882  0.6292280216809200
  0.6574892190700131  0.1711180999452014  0.1217640061393874
  0.5044229111385822  0.3284760040667795  0.3730123085889336
  0.3386043297746500  0.4881355883431996  0.6314502387069720
  0.1732146357095867  0.6726368924956836  0.8733694834313627
  0.6638268667091505  0.1838271546652495  0.6307429844536770
  0.4967381321321136  0.3266812982537041  0.8777742207262146
  0.3394893607643968  0.8295356908309122  0.1155291299020704
  0.1676377936055527  0.0005770003905116  0.3739732936340670
  0.6600993132137856  0.4992665727790499  0.1183354090200771
  0.5099892017720223  0.6629626086772034  0.3725813656630558
  0.3270622563535807  0.8339062139526776  0.6275907586474162
  0.1735360039021795  0.0041638802857932  0.8772890571878775
  0.8131774434197830  0.3308442257165471  0.3747490892273785
  0.6626693083850690  0.4938949542497065  0.6262830970604536
  0.4950091235504542  0.6589847883467301  0.8772695452355614
  0.8314613121560650  0.3265362619983948  0.8765470632224628
  0.6717844528374391  0.8269322983794150  0.1245873890992023
  0.4997703176272971  0.0069949422799341  0.3707347757336137
  0.8224195230676472  0.6685695742823300  0.3712615756086909
  0.6663624298606550  0.8244658338842615  0.6247922214575452
  0.4916449859573763  0.0133545494760553  0.8796605175746653
  0.8275052958618878  0.6662898837504172  0.8780520947110481
  0.8321675368654672 -0.0048296604215780  0.3704640454038475
  0.8301400085894528  0.0085050052235236  0.8770446169974112
 -0.0001530566473001  0.0816186212435784  0.2492833218707878
  0.0072164554511016  0.0847914558524782  0.7478041458044135
  0.0091995249187362  0.4171089992598229  0.2487365318712702
  0.3359648628200386  0.0855844576879603  0.2388473478934257
  0.1773086784828487  0.2537819953804783  0.5130186498214225
  0.0144024657259605  0.4173125280230197  0.7547788050640405
  0.3334254061055019  0.0899319533538186  0.7684092982574195
  0.1687002772214878  0.2547174305727897 -0.0156196677374437
 -0.0089594205898721  0.7518262674831939  0.2437622123200573
  0.3296291108718896  0.4157196016219738  0.2492845339282489
  0.1688375535854383  0.5810490497871309  0.5090994411930547
  0.0078088517545443  0.7505551747061520  0.7545827938916730
  0.6607940020200579  0.0850904565459082  0.2458361769571082
  0.5003691406788343  0.2519154728264817  0.5157536249849252
  0.3387887490158049  0.4149046022437536  0.7504750735897594
  0.1752343129415802  0.5839105216195885  0.0026569021647066
  0.6664251953632467  0.0900537458548588  0.7543933324746457
  0.5007222141141844  0.2522516007298965 -0.0128809515042571
  0.3392486813678782  0.7465334317581322  0.2454050835067830
  0.1682989068035905  0.9171922757196301  0.5114922526632134
  0.6596622406080590  0.4125295473875547  0.2500792726753481
  0.5100290867111990  0.5794924008345527  0.5129472135580816
  0.3292116996453734  0.7501922716244349  0.7550250453513876
  0.1720058984623313  0.9187144630774192 -0.0068462280177976
  0.8247841556864066  0.2506920124259215  0.5055978119806132
  0.6486912708261072  0.4120437269730080  0.7475433268835956
  0.4996495601220684  0.5847989559602195 -0.0075854810413712
  0.8259686551169625  0.2484964487941004 -0.0042825446085492
  0.6729144435356004  0.7511778549746737  0.2505933253047757
  0.4968362345924459  0.9161412022370714  0.4993632220962793
  0.8272286909586013  0.5865044530471444  0.4985686956896805
  0.6645875390720468  0.7483764131955624  0.7431656868005838
  0.4921090906540458  0.9166187518088835  0.0021710554253859
  0.8268822555285741  0.5893313074789581  0.0016841887049320
  0.8324448137058837  0.9127828475082306  0.4927108866422591
  0.8297793377241502  0.9140020858065303  0.0066906956575948
 
  0.00000000E+00  0.00000000E+00  0.00000000E+00
  0.00000000E+00  0.00000000E+00  0.00000000E+00
  0.00000000E+00  0.00000000E+00  0.00000000E+00
  0.00000000E+00  0.00000000E+00  0.00000000E+00
  0.00000000E+00  0.00000000E+00  0.00000000E+00
  0.00000000E+00  0.00000000E+00  0.00000000E+00
  0.00000000E+00  0.00000000E+00  0.00000000E+00
  0.00000000E+00  0.00000000E+00  0.00000000E+00
  0.00000000E+00  0.00000000E+00  0.00000000E+00
  0.00000000E+00  0.00000000E+00  0.00000000E+00
  0.00000000E+00  0.00000000E+00  0.00000000E+00
  0.00000000E+00  0.00000000E+00  0.00000000E+00
  0.00000000E+00  0.00000000E+00  0.00000000E+00
  0.00000000E+00  0.00000000E+00  0.00000000E+00
  0.00000000E+00  0.00000000E+00  0.00000000E+00
  0.00000000E+00  0.00000000E+00  0.00000000E+00
  0.00000000E+00  0.00000000E+00  0.00000000E+00
  0.00000000E+00  0.00000000E+00  0.00000000E+00
  0.00000000E+00  0.00000000E+00  0.00000000E+00
  0.00000000E+00  0.00000000E+00  0.00000000E+00
  0.00000000E+00  0.00000000E+00  0.00000000E+00
  0.00000000E+00  0.00000000E+00  0.00000000E+00
  0.00000000E+00  0.00000000E+00  0.00000000E+00
  0.00000000E+00  0.00000000E+00  0.00000000E+00
  0.00000000E+00  0.00000000E+00  0.00000000E+00
  0.00000000E+00  0.00000000E+00  0.00000000E+00
  0.00000000E+00  0.00000000E+00  0.00000000E+00
  0.00000000E+00  0.00000000E+00  0.00000000E+00
  0.00000000E+00  0.00000000E+00  0.00000000E+00
  0.00000000E+00  0.00000000E+00  0.00000000E+00
  0.00000000E+00  0.00000000E+00  0.00000000E+00
  0.00000000E+00  0.00000000E+00  0.00000000E+00
  0.00000000E+00  0.00000000E+00  0.00000000E+00
  0.00000000E+00  0.00000000E+00  0.00000000E+00
  0.00000000E+00  0.00000000E+00  0.00000000E+00
  0.00000000E+00  0.00000000E+00  0.00000000E+00
  0.00000000E+00  0.00000000E+00  0.00000000E+00
  0.00000000E+00  0.00000000E+00  0.00000000E+00
  0.00000000E+00  0.00000000E+00  0.00000000E+00
  0.00000000E+00  0.00000000E+00  0.00000000E+00
  0.00000000E+00  0.00000000E+00  0.00000000E+00
  0.00000000E+00  0.00000000E+00  0.00000000E+00
  0.00000000E+00  0.00000000E+00  0.00000000E+00
  0.00000000E+00  0.00000000E+00  0.00000000E+00
  0.00000000E+00  0.00000000E+00  0.00000000E+00
  0.00000000E+00  0.00000000E+00  0.00000000E+00
  0.00000000E+00  0.00000000E+00  0.00000000E+00
  0.00000000E+00  0.00000000E+00  0.00000000E+00
  0.00000000E+00  0.00000000E+00  0.00000000E+00
  0.00000000E+00  0.00000000E+00  0.00000000E+00
  0.00000000E+00  0.00000000E+00  0.00000000E+00
  0.00000000E+00  0.00000000E+00  0.00000000E+00
  0.00000000E+00  0.00000000E+00  0.00000000E+00
  0.00000000E+00  0.00000000E+00  0.00000000E+00
  0.00000000E+00  0.00000000E+00  0.00000000E+00
  0.00000000E+00  0.00000000E+00  0.00000000E+00
  0.00000000E+00  0.00000000E+00  0.00000000E+00
  0.00000000E+00  0.00000000E+00  0.00000000E+00
  0.00000000E+00  0.00000000E+00  0.00000000E+00
  0.00000000E+00  0.00000000E+00  0.00000000E+00
  0.00000000E+00  0.00000000E+00  0.00000000E+00
  0.00000000E+00  0.00000000E+00  0.00000000E+00
  0.00000000E+00  0.00000000E+00  0.00000000E+00
  0.00000000E+00  0.00000000E+00  0.00000000E+00
  0.00000000E+00  0.00000000E+00  0.00000000E+00
  0.00000000E+00  0.00000000E+00  0.00000000E+00
  0.00000000E+00  0.00000000E+00  0.00000000E+00
  0.00000000E+00  0.00000000E+00  0.00000000E+00
  0.00000000E+00  0.00000000E+00  0.00000000E+00
  0.00000000E+00  0.00000000E+00  0.00000000E+00
  0.00000000E+00  0.00000000E+00  0.00000000E+00
  0.00000000E+00  0.00000000E+00  0.00000000E+00
  0.00000000E+00  0.00000000E+00  0.00000000E+00
  0.00000000E+00  0.00000000E+00  0.00000000E+00
  0.00000000E+00  0.00000000E+00  0.00000000E+00
  0.00000000E+00  0.00000000E+00  0.00000000E+00
  0.00000000E+00  0.00000000E+00  0.00000000E+00
  0.00000000E+00  0.00000000E+00  0.00000000E+00
  0.00000000E+00  0.00000000E+00  0.00000000E+00
  0.00000000E+00  0.00000000E+00  0.00000000E+00
  0.00000000E+00  0.00000000E+00  0.00000000E+00
  0.00000000E+00  0.00000000E+00  0.00000000E+00
  0.00000000E+00  0.00000000E+00  0.00000000E+00
  0.00000000E+00  0.00000000E+00  0.00000000E+00
  0.00000000E+00  0.00000000E+00  0.00000000E+00
  0.00000000E+00  0.00000000E+00  0.00000000E+00
  0.00000000E+00  0.00000000E+00  0.00000000E+00
  0.00000000E+00  0.00000000E+00  0.00000000E+00
  0.00000000E+00  0.00000000E+00  0.00000000E+00
  0.00000000E+00  0.00000000E+00  0.00000000E+00
  0.00000000E+00  0.00000000E+00  0.00000000E+00
  0.00000000E+00  0.00000000E+00  0.00000000E+00
  0.00000000E+00  0.00000000E+00  0.00000000E+00
  0.00000000E+00  0.00000000E+00  0.00000000E+00
  0.00000000E+00  0.00000000E+00  0.00000000E+00
  0.00000000E+00  0.00000000E+00  0.00000000E+00
  0.00000000E+00  0.00000000E+00  0.00000000E+00
  0.00000000E+00  0.00000000E+00  0.00000000E+00
  0.00000000E+00  0.00000000E+00  0.00000000E+00
  0.00000000E+00  0.00000000E+00  0.00000000E+00
  0.00000000E+00  0.00000000E+00  0.00000000E+00
  0.00000000E+00  0.00000000E+00  0.00000000E+00
  0.00000000E+00  0.00000000E+00  0.00000000E+00
  0.00000000E+00  0.00000000E+00  0.00000000E+00
  0.00000000E+00  0.00000000E+00  0.00000000E+00
  0.00000000E+00  0.00000000E+00  0.00000000E+00
  0.00000000E+00  0.00000000E+00  0.00000000E+00
  0.00000000E+00  0.00000000E+00  0.00000000E+00
  0.00000000E+00  0.00000000E+00  0.00000000E+00
  0.00000000E+00  0.00000000E+00  0.00000000E+00
  0.00000000E+00  0.00000000E+00  0.00000000E+00
  0.00000000E+00  0.00000000E+00  0.00000000E+00
  0.00000000E+00  0.00000000E+00  0.00000000E+00
  0.00000000E+00  0.00000000E+00  0.00000000E+00
  0.00000000E+00  0.00000000E+00  0.00000000E+00
  0.00000000E+00  0.00000000E+00  0.00000000E+00
  0.00000000E+00  0.00000000E+00  0.00000000E+00
  0.00000000E+00  0.00000000E+00  0.00000000E+00
  0.00000000E+00  0.00000000E+00  0.00000000E+00
  0.00000000E+00  0.00000000E+00  0.00000000E+00
  0.00000000E+00  0.00000000E+00  0.00000000E+00
  0.00000000E+00  0.00000000E+00  0.00000000E+00
  0.00000000E+00  0.00000000E+00  0.00000000E+00
  0.00000000E+00  0.00000000E+00  0.00000000E+00
  0.00000000E+00  0.00000000E+00  0.00000000E+00
  0.00000000E+00  0.00000000E+00  0.00000000E+00
  0.00000000E+00  0.00000000E+00  0.00000000E+00
  0.00000000E+00  0.00000000E+00  0.00000000E+00
  0.00000000E+00  0.00000000E+00  0.00000000E+00
  0.00000000E+00  0.00000000E+00  0.00000000E+00
  0.00000000E+00  0.00000000E+00  0.00000000E+00
  0.00000000E+00  0.00000000E+00  0.00000000E+00
  0.00000000E+00  0.00000000E+00  0.00000000E+00
  0.00000000E+00  0.00000000E+00  0.00000000E+00
  0.00000000E+00  0.00000000E+00  0.00000000E+00
  0.00000000E+00  0.00000000E+00  0.00000000E+00
  0.00000000E+00  0.00000000E+00  0.00000000E+00
  0.00000000E+00  0.00000000E+00  0.00000000E+00
  0.00000000E+00  0.00000000E+00  0.00000000E+00
  0.00000000E+00  0.00000000E+00  0.00000000E+00
  0.00000000E+00  0.00000000E+00  0.00000000E+00
  0.00000000E+00  0.00000000E+00  0.00000000E+00
  0.00000000E+00  0.00000000E+00  0.00000000E+00
  0.00000000E+00  0.00000000E+00  0.00000000E+00
  0.00000000E+00  0.00000000E+00  0.00000000E+00
  0.00000000E+00  0.00000000E+00  0.00000000E+00
  0.00000000E+00  0.00000000E+00  0.00000000E+00
  0.00000000E+00  0.00000000E+00  0.00000000E+00
  0.00000000E+00  0.00000000E+00  0.00000000E+00
  0.00000000E+00  0.00000000E+00  0.00000000E+00
  0.00000000E+00  0.00000000E+00  0.00000000E+00
  0.00000000E+00  0.00000000E+00  0.00000000E+00
  0.00000000E+00  0.00000000E+00  0.00000000E+00
  0.00000000E+00  0.00000000E+00  0.00000000E+00
  0.00000000E+00  0.00000000E+00  0.00000000E+00
  0.00000000E+00  0.00000000E+00  0.00000000E+00
  0.00000000E+00  0.00000000E+00  0.00000000E+00
  0.00000000E+00  0.00000000E+00  0.00000000E+00
  0.00000000E+00  0.00000000E+00  0.00000000E+00
  0.00000000E+00  0.00000000E+00  0.00000000E+00
  0.00000000E+00  0.00000000E+00  0.00000000E+00
  0.00000000E+00  0.00000000E+00  0.00000000E+00
  0.00000000E+00  0.00000000E+00  0.00000000E+00
  0.00000000E+00  0.00000000E+00  0.00000000E+00
  0.00000000E+00  0.00000000E+00  0.00000000E+00
  0.00000000E+00  0.00000000E+00  0.00000000E+00
  0.00000000E+00  0.00000000E+00  0.00000000E+00
  0.00000000E+00  0.00000000E+00  0.00000000E+00
  0.00000000E+00  0.00000000E+00  0.00000000E+00
  0.00000000E+00  0.00000000E+00  0.00000000E+00
  0.00000000E+00  0.00000000E+00  0.00000000E+00
  0.00000000E+00  0.00000000E+00  0.00000000E+00
  0.00000000E+00  0.00000000E+00  0.00000000E+00
  0.00000000E+00  0.00000000E+00  0.00000000E+00
  0.00000000E+00  0.00000000E+00  0.00000000E+00
  0.00000000E+00  0.00000000E+00  0.00000000E+00
  0.00000000E+00  0.00000000E+00  0.00000000E+00
  0.00000000E+00  0.00000000E+00  0.00000000E+00
  0.00000000E+00  0.00000000E+00  0.00000000E+00
  0.00000000E+00  0.00000000E+00  0.00000000E+00
  0.00000000E+00  0.00000000E+00  0.00000000E+00
  0.00000000E+00  0.00000000E+00  0.00000000E+00
  0.00000000E+00  0.00000000E+00  0.00000000E+00
  0.00000000E+00  0.00000000E+00  0.00000000E+00
  0.00000000E+00  0.00000000E+00  0.00000000E+00
  0.00000000E+00  0.00000000E+00  0.00000000E+00
  0.00000000E+00  0.00000000E+00  0.00000000E+00
  0.00000000E+00  0.00000000E+00  0.00000000E+00
  0.00000000E+00  0.00000000E+00  0.00000000E+00
  0.00000000E+00  0.00000000E+00  0.00000000E+00
  0.00000000E+00  0.00000000E+00  0.00000000E+00
  0.00000000E+00  0.00000000E+00  0.00000000E+00
  0.00000000E+00  0.00000000E+00  0.00000000E+00
  0.00000000E+00  0.00000000E+00  0.00000000E+00
  0.00000000E+00  0.00000000E+00  0.00000000E+00
  0.00000000E+00  0.00000000E+00  0.00000000E+00
  0.00000000E+00  0.00000000E+00  0.00000000E+00
  0.00000000E+00  0.00000000E+00  0.00000000E+00
  0.00000000E+00  0.00000000E+00  0.00000000E+00
  0.00000000E+00  0.00000000E+00  0.00000000E+00
  0.00000000E+00  0.00000000E+00  0.00000000E+00
  0.00000000E+00  0.00000000E+00  0.00000000E+00
  0.00000000E+00  0.00000000E+00  0.00000000E+00
  0.00000000E+00  0.00000000E+00  0.00000000E+00
  0.00000000E+00  0.00000000E+00  0.00000000E+00
  0.00000000E+00  0.00000000E+00  0.00000000E+00
  0.00000000E+00  0.00000000E+00  0.00000000E+00
  0.00000000E+00  0.00000000E+00  0.00000000E+00
  0.00000000E+00  0.00000000E+00  0.00000000E+00
  0.00000000E+00  0.00000000E+00  0.00000000E+00
  0.00000000E+00  0.00000000E+00  0.00000000E+00
  0.00000000E+00  0.00000000E+00  0.00000000E+00
  0.00000000E+00  0.00000000E+00  0.00000000E+00
  0.00000000E+00  0.00000000E+00  0.00000000E+00
  0.00000000E+00  0.00000000E+00  0.00000000E+00
  0.00000000E+00  0.00000000E+00  0.00000000E+00
  0.00000000E+00  0.00000000E+00  0.00000000E+00
  0.00000000E+00  0.00000000E+00  0.00000000E+00
  0.00000000E+00  0.00000000E+00  0.00000000E+00
  0.00000000E+00  0.00000000E+00  0.00000000E+00
  0.00000000E+00  0.00000000E+00  0.00000000E+00
  0.00000000E+00  0.00000000E+00  0.00000000E+00
  0.00000000E+00  0.00000000E+00  0.00000000E+00
  0.00000000E+00  0.00000000E+00  0.00000000E+00
  0.00000000E+00  0.00000000E+00  0.00000000E+00
  0.00000000E+00  0.00000000E+00  0.00000000E+00
  0.00000000E+00  0.00000000E+00  0.00000000E+00
  0.00000000E+00  0.00000000E+00  0.00000000E+00
  0.00000000E+00  0.00000000E+00  0.00000000E+00
  0.00000000E+00  0.00000000E+00  0.00000000E+00
  0.00000000E+00  0.00000000E+00  0.00000000E+00
  0.00000000E+00  0.00000000E+00  0.00000000E+00
  0.00000000E+00  0.00000000E+00  0.00000000E+00
  0.00000000E+00  0.00000000E+00  0.00000000E+00
  0.00000000E+00  0.00000000E+00  0.00000000E+00
  0.00000000E+00  0.00000000E+00  0.00000000E+00
  0.00000000E+00  0.00000000E+00  0.00000000E+00
  0.00000000E+00  0.00000000E+00  0.00000000E+00
  0.00000000E+00  0.00000000E+00  0.00000000E+00
  0.00000000E+00  0.00000000E+00  0.00000000E+00
  0.00000000E+00  0.00000000E+00  0.00000000E+00
  0.00000000E+00  0.00000000E+00  0.00000000E+00
  0.00000000E+00  0.00000000E+00  0.00000000E+00
  0.00000000E+00  0.00000000E+00  0.00000000E+00
  0.00000000E+00  0.00000000E+00  0.00000000E+00
  0.00000000E+00  0.00000000E+00  0.00000000E+00
  0.00000000E+00  0.00000000E+00  0.00000000E+00
  0.00000000E+00  0.00000000E+00  0.00000000E+00
  0.00000000E+00  0.00000000E+00  0.00000000E+00
  0.00000000E+00  0.00000000E+00  0.00000000E+00
  0.00000000E+00  0.00000000E+00  0.00000000E+00
  0.00000000E+00  0.00000000E+00  0.00000000E+00
