       N       E                     dE             d eps       ncg     rms          rms(c)
DAV:   1     0.134868646201E+05    0.13487E+05   -0.25222E+05 15976   0.240E+03
DAV:   2     0.226366606473E+04   -0.11223E+05   -0.10529E+05 15960   0.797E+02
DAV:   3    -0.483621802307E+03   -0.27473E+04   -0.25137E+04 20656   0.409E+02
DAV:   4    -0.886162223141E+03   -0.40254E+03   -0.38018E+03 26848   0.215E+02
DAV:   5    -0.912107746838E+03   -0.25946E+02   -0.25260E+02 26616   0.684E+01    0.219E+02
DAV:   6    -0.698603416496E+03    0.21350E+03   -0.31287E+02 29816   0.907E+01    0.834E+01
DAV:   7    -0.693827760268E+03    0.47757E+01   -0.25708E+02 27136   0.432E+01    0.472E+01
DAV:   8    -0.692667245099E+03    0.11605E+01   -0.34109E+01 27080   0.198E+01    0.188E+01
DAV:   9    -0.692320521584E+03    0.34672E+00   -0.42447E+00 25992   0.812E+00    0.935E+00
DAV:  10    -0.692253052143E+03    0.67469E-01   -0.62497E-01 26168   0.356E+00    0.755E+00
DAV:  11    -0.692220997904E+03    0.32054E-01   -0.13122E-01 26968   0.169E+00    0.385E+00
DAV:  12    -0.692214189054E+03    0.68089E-02   -0.70690E-02 26472   0.948E-01    0.617E-01
DAV:  13    -0.692213121957E+03    0.10671E-02   -0.15743E-02 25344   0.517E-01    0.176E-01
DAV:  14    -0.692213114486E+03    0.74712E-05   -0.16177E-03 26312   0.137E-01    0.128E-01
DAV:  15    -0.692213126636E+03   -0.12150E-04   -0.15833E-04 29560   0.584E-02    0.743E-02
DAV:  16    -0.692213124019E+03    0.26171E-05   -0.33929E-05 28008   0.245E-02    0.432E-02
DAV:  17    -0.692213114490E+03    0.95284E-05   -0.72621E-06 21464   0.133E-02    0.125E-02
DAV:  18    -0.692213113742E+03    0.74792E-06   -0.14418E-06 15176   0.746E-03
   1 F= 0.14247000E+03 E0= 0.14246870E+03  d E =0.142470E+03
