POSCAR                                  
   1.00000000000000     
    10.0473517767795251    0.0063335301219730   -0.0030149270705559
     0.0063338982000437   10.0137043380607231   -0.0101901001388249
    -0.0019959535116270   -0.0067532576946602    6.6459413689352820
   Zr   Na   Mg   Ca   H 
     9     9     9     9   216
Direct
  0.1690166331838302  0.1768094641877115  0.2447984987185381
  0.1718202884608728  0.8298347788752765  0.2444643207737850
  0.3399636390211669  0.6542377493616548  0.5017151376098726
  0.3317088436529241  0.0087468546401620  0.5068038434398623
  0.8282993447064597  0.4971868692576513  0.2441479547171374
  0.9942179065361253  0.3283637083217526  0.5033515315886899
  0.8265641458052254  0.4952390355724573  0.7591099155337020
  0.6695066118842835  0.0000226875383007  0.5011644066910789
  0.9988859084953708  0.6694210777419201  0.5000641793045072
  0.1733250789596880  0.1735954726286303  0.7515097397013834
  0.1693607380401225  0.5037636557801964  0.2593805145672862
  0.5005352970643445  0.1652521584558304  0.7534577785489347
  0.3313953327187607  0.3312551827882818  0.9954124301320195
  0.3351499094291800  0.6657289381131024  0.9942949433310052
  0.8283693733652086  0.1686659977355899  0.7509014972598944
  0.3352950792724936  0.0006514039643572  0.9989673805566820
  0.6646363347789594  0.6600415767048994  0.0003558033684673
  0.0112521587463440  0.3349570879245101  0.9972294130630281
  0.5023072643974119  0.1680921870151530  0.2506054306121671
  0.3445480413897211  0.3350173783017841  0.4967393854231471
  0.1705952641150993  0.4863038648211677  0.7583061615137432
  0.1677439825664886  0.8485298815702654  0.7579327556319759
  0.6544261057909738  0.3340009357397868  0.5002803585043215
  0.4982675522837339  0.4992454615639434  0.7548540260636868
  0.6507296304515284  0.3311911641690589  0.9935404193558608
  0.6637760819498310  0.6642168994261820  0.5006712145552442
  0.8308427954004278  0.8363664428941211  0.2466332377686626
  0.4971161500038906  0.4934022347299237  0.2477550507785244
  0.8305068930298897  0.1660414217572965  0.2449265427429702
  0.5043394047202898  0.8318538994387932  0.2459004452605180
  0.4970726069716352  0.8291420233311686  0.7529006173934008
  0.8388287186560678  0.8321450279510240  0.7504664946593979
  0.6631304567918058  0.0028570814437616  0.9980894920534300
  0.0037248263477981  0.6647568490056385  0.9981734358709076
  0.0000726039355943  0.0036075801210448  0.5015911813915818
  0.0004855478346993  0.0029880495387515  0.9969397894108802
  0.1716143242093581  0.0857116582508685  0.9912557009752692
  0.1649808081663789  0.0894439867788593  0.5117356508975823
  0.1801559536288169  0.4199825033643949  0.0206146857817120
  0.4955054183067877  0.0795953075319632  0.9826641009264900
  0.3382629284410472  0.2513193083147747  0.2484014821975226
  0.1648747837473053  0.4175375629045566  0.5007411213848346
  0.5032468100785847  0.0839068681558046  0.5184816898498690
  0.3450476615465536  0.2469353978522076  0.7457974064283857
  0.1758173908048586  0.7488800184152473  0.9715630102202016
  0.4820412540619564  0.4209499283492681  0.9913399500917717
  0.3295809021866878  0.5791525304665627  0.2270526371863679
  0.1739354442242889  0.7543554112191327  0.5311692681063265
  0.8309300955286247  0.0843731061034650  0.9873538813589163
  0.6655889109490823  0.2488360364093229  0.2687571691520880
  0.4995502350565183  0.4178298814218204  0.5159264415468825
  0.3150327021500380  0.5821627341983359  0.7638377896247407
  0.8347344081900547  0.0874381663420697  0.5088928839378695
  0.6585335867205572  0.2492725712830568  0.7299422128685935
  0.5076819429362237  0.7473737891637516  0.9991044986557852
  0.3366403446803040  0.9182655458043126  0.2462852797591461
  0.8557570473770779  0.4112174906100429  0.0001200880361682
  0.6635361585220240  0.5838671197598612  0.2476890195647151
  0.5051904636031318  0.7476689706502226  0.4991021605636277
  0.3298111785434647  0.9190129612268290  0.7554037520924090
  0.9941523470775150  0.2529750357539697  0.2273273825136451
  0.8212980607523995  0.4141595168114099  0.5001526122014586
  0.6565655183651351  0.5817029322544657  0.7508263547644648
  0.9895463681070847  0.2505979991398503  0.7611495115516140
  0.8231461488869056  0.7491339004483422  0.0074730187977622
  0.6702230499418719  0.9149564209477276  0.2479963350454918
  0.0044444776563703  0.5838364594150138  0.2507723347983182
  0.8214587318839602  0.7498969694744958  0.4881707176236598
  0.6683214396313778  0.9135071829925817  0.7534406237430493
  0.0283337367998715  0.5826745931062195  0.7485841542736025
  0.0007471016500227  0.9176969274115728  0.2497997215262036
  0.0078786156109461  0.9192802166896579  0.7470886936623266
  0.0820702393096035  0.1713988558977560  0.9754980566741481
  0.0851048115316511  0.1690517669431576  0.5235101259100233
  0.0843948136181970  0.4976954070836200  0.0014895210728638
  0.4181546911213346  0.1700102349558601  0.0205700900048835
  0.2510045566676496  0.3428969958013270  0.2663772470293652
  0.0847843730411202  0.4968332925418876  0.5080555014323513
  0.4185450480641027  0.1704117260302423  0.4879138031315171
  0.2512530515535588  0.3374226372513006  0.7307545429721416
  0.0829205871547174  0.8342911670206725  0.9978841478203032
  0.4161445013884824  0.4883315073534963  0.9878540205409001
  0.2514969916381512  0.6625446137109630  0.2430790103983190
  0.0857825715416253  0.8372477058803551  0.4993792175668757
  0.7454754160041719  0.1790994736353979  0.9909782207158303
  0.5839329275429397  0.3321778827653422  0.2362277165753403
  0.4240164047229028  0.4882663533509641  0.5146953091751524
  0.2471689119686866  0.6419451541338772  0.7510528640529925
  0.7472107592422778  0.1714865683539233  0.5024095930185107
  0.5761890995001626  0.3429456920387851  0.7579464071805215
  0.4162030761368594  0.8380418486656948  0.0011866645231973
  0.2519467916696204  0.0057660969362385  0.2330238328607988
  0.7435637761584417  0.4848239028323909  0.0004014416808461
  0.5854280533945554  0.6602182234670045  0.2563829573372549
  0.4148293091616363  0.8338517775600810  0.4972669329908064
  0.2510572002500400  0.0095677431660315  0.7587454565039560
  0.9181667885472797  0.3309226198962604  0.2326581246084531
  0.7458609257223860  0.5079428803458390  0.4994816790807086
  0.5851374227568408  0.6580977114534597  0.7488073279934061
  0.9189100052533796  0.3227032451833609  0.7656885961639459
  0.7501281395501660  0.8283529813828107  0.0010517416847151
  0.5780498212725392  0.0064992391674024  0.2499188734075830
  0.9161645857159260  0.6758517267467306  0.2470914786497324
  0.7514052733823532  0.8257702650035170  0.4956486828504729
  0.5820993557486416  0.9981010608121982  0.7462514202598468
  0.9182567684779164  0.6583549397309524  0.7525389713527062
  0.9183127025456158  0.9960940512739432  0.2496601711454918
  0.9168387698596855  0.0114805816936496  0.7487392491945891
  0.1767965214683377  0.0040107116153691  0.1234873342001514
  0.1645860499515812  0.0072601604663043  0.6304042873535264
  0.1709851907084408  0.3481734770372067  0.1246655517247468
  0.4962193262520453  0.0061613424054266  0.1297928092437793
  0.3435489311424427  0.1785235889063203  0.3701626570215255
  0.1937985846685103  0.3308677645458254  0.6281133934309991
  0.5016680194465812  0.0117157072316923  0.6285542820543119
  0.3324174272038777  0.1657197538808903  0.8735399397949070
  0.1762670419786716  0.6531911975114086  0.1142574051506372
  0.4959635808229716  0.3264387439457616  0.1279196392527071
  0.3312595088737285  0.4883086352728694  0.3757348731930599
  0.1638011126821595  0.6974016865424708  0.6379261699397012
  0.8285272449396084  0.9936699523568103  0.1227434849046036
  0.6608951366584566  0.1852506231019264  0.3706143748671442
  0.4978271068716934  0.3167013392194313  0.6265398739606770
  0.3291558192120723  0.4996191928857727  0.8801862621528487
  0.8349489215130692  0.0048060129634365  0.6302810574887330
  0.6659146164764398  0.1742485711736861  0.8749743619307907
  0.4951991778335514  0.6591601688642698  0.1190929191405872
  0.3382778834045606  0.8285427806305230  0.3762116006990037
  0.8105482463609366  0.3256113951843040  0.1076146912304609
  0.6624324450277644  0.4922684423259784  0.3766107562703351
  0.5062612029830924  0.6569345916280366  0.6276884774325932
  0.3257904192109939  0.8306358086797404  0.8715386961255153
  0.9996275776626693  0.1683784047457845  0.3724952614618934
  0.8103916885069431  0.3313184366778851  0.6262398088671227
  0.6552545789382030  0.4974279520337923  0.8744173781392878
  0.0136207173673715  0.1732938232590844  0.8780678186108510
  0.8278457120657318  0.6762377425003069  0.1244281636433864
  0.6710961504682141  0.8226425721265939  0.3730522776028867
  0.0033039063211800  0.4975337574019850  0.3737977067031095
  0.8226941467221544  0.6618529456857174  0.6234830716279970
  0.6681441915689692  0.8276267425083952  0.8752699395101086
  0.0092570420057782  0.4931917519247407  0.8776036382108753
  0.9990605555705094  0.8381333935682292  0.3697925573457125
  0.0124761369013202  0.8310191691463665  0.8772917639374778
  0.0821557695981359  0.9999889093463855  0.2500694210156313
  0.0830749215241124  0.0174478976523303  0.7488056560165111
  0.0834615530917360  0.3432954132304034  0.2545399333357110
  0.4165585298304584  0.0076411968416148  0.2420560679754928
  0.2540247947807395  0.1797733097200644  0.5065059538135221
  0.0833068440485498  0.3353507100537376  0.7430732582490629
  0.4152579062848770  0.0035717579270414  0.7571457367213306
  0.2537461599986057  0.1697847245467576  0.9940548874469460
  0.0847070863159617  0.6615270521943335  0.2475949317086040
  0.4162544202564072  0.3248843288549470  0.2312392643923900
  0.2484654859373687  0.4885862366322198  0.5170168769461463
  0.0925394630631759  0.6426909851990066  0.7532219938002911
  0.7515135199055490  0.9973396697546814  0.2449378514115695
  0.5800553451789262  0.1667405971442667  0.4916422782595167
  0.4090690420184508  0.3406215581680401  0.7511384816361655
  0.2485738575293487  0.4936643832132435  0.9957099390605192
  0.7530323621458322  0.9991830197583171  0.7537508611190222
  0.5790152010358356  0.1720689707481758  0.0117820944577244
  0.4183496561762258  0.6646810567319631  0.2376973835688879
  0.2514421856185519  0.8302048062331799  0.5078029540787899
  0.7477337976946931  0.3275209831802791  0.2027950931961871
  0.5859927343963839  0.5030255666154609  0.5025290996837785
  0.4163820095054294  0.6547341889502556  0.7596482572101053
  0.2529970463146486  0.8349651819519895  0.9944632084886144
  0.9089918150100890  0.1646370397683786  0.5102760810528351
  0.7501465552896190  0.3293172182467000  0.7830729419053405
  0.5835261018176263  0.4943275538652868  0.9934399514782981
  0.9158362824061637  0.1784091027373448  0.9919385964327679
  0.7501986993914702  0.6694522482480374  0.2516999498110158
  0.5837118553015734  0.8252743955838510  0.5015062366988213
  0.9125286886559580  0.5007029405919295  0.4995380602970088
  0.7463801617368874  0.6683537475743736  0.7498398510709227
  0.5827734027141351  0.8191786193984048  0.9959530431891394
  0.9226953151053188  0.4921300335852323  0.0011512756628455
  0.9156512004580911  0.8368134530713092  0.4834403581612748
  0.9175582495339759  0.8355952974736837  0.0122535466539911
  0.9994829230422168  0.1759311158028782  0.1242796585569193
  0.0055237021444420  0.1677211118935196  0.6318015310310150
  0.0117457769180533  0.4946222489355184  0.1241313378862968
  0.3505764516883426  0.1664179077013010  0.1157847070011995
  0.1890219806237766  0.3431832905582598  0.3768332456654118
  0.9950098062804706  0.5016966346618328  0.6256924038240199
  0.3351820561051246  0.1845940000164384  0.6299370748175679
  0.1712343638173551  0.3280853142893673  0.8771766499997524
  0.9915513346287034  0.8322150659128982  0.1214453877324953
  0.3268884297772826  0.5026553890931906  0.1288073505612840
  0.1694464169912279  0.6684429821279725  0.3804209235981816
  0.0097880604901771  0.8371793011061061  0.6282204246601640
  0.6532086002230578  0.1727712780545670  0.1208660731671291
  0.4985248721323682  0.3233589071742894  0.3717333107439836
  0.3368710437111155  0.4935747769413841  0.6293475112054258
  0.1731004039456062  0.6880662275984957  0.8687803913535669
  0.6631678639335538  0.1880339492923339  0.6338027681105562
  0.4958837078682775  0.3184270750657774  0.8786233204458070
  0.3384439263604982  0.8269498628312721  0.1186748629240530
  0.1670855353005913  0.0002745928270595  0.3724786677279788
  0.6605856075270359  0.4941082646678610  0.1177160375203390
  0.5099227083504351  0.6632753994420042  0.3686659085063628
  0.3253696216296487  0.8297203008487440  0.6268637715191920
  0.1731647062293089  0.0091892536066987  0.8830428660712137
  0.8076343036640432  0.3335551034106584  0.3739064986602625
  0.6622033024245273  0.4871064030862080  0.6278581903296230
  0.4973355909453322  0.6537173579142272  0.8766825506317263
  0.8178480881905597  0.3261515007215814  0.8830612274141696
  0.6736131476774113  0.8257035995828497  0.1237917921140032
  0.4979728461854319  0.0073197515865912  0.3735660786100284
  0.8230358287194690  0.6675959212694846  0.3719066024312112
  0.6685959948171452  0.8208068984948440  0.6261446746741212
  0.4924120583400268  0.0140463001718344  0.8828966799749361
  0.8265165269511994  0.6667911651973299  0.8780346677559954
  0.8329322785658750  0.9977478064030929  0.3707397770152984
  0.8306473153145256  0.0087080051839901  0.8775167505223965
  0.0021739353591929  0.0828152169923252  0.2495527477022804
  0.0022754370434118  0.0849722719412330  0.7499069633638209
  0.0093447364937792  0.4183851450050823  0.2494463917257052
  0.3344108440844007  0.0835555702575038  0.2413694856656496
  0.1661955279683949  0.2567822578365079  0.5113569710968682
  0.0047893626422103  0.4182807826629040  0.7542132598280685
  0.3342056228885844  0.0873871130769465  0.7692931259629869
  0.1730896263269098  0.2562536399221066  0.9834247816514862
  0.9908944748550201  0.7516871236778440  0.2454935812758247
  0.3318177244882646  0.4164951544495528  0.2389431868209654
  0.1672519533800637  0.5825064556123617  0.5226198050772024
  0.0105648283563621  0.7524018439246755  0.7531723611389083
  0.6640340253683343  0.0853146113905688  0.2507510764473713
  0.4994818673708754  0.2516387762581260  0.5292294120594710
  0.3500190645957430  0.4142904064066051  0.7535957298887711
  0.1749250812642280  0.5838139593861347  0.0025076025365625
  0.6653066285592460  0.0883190106448687  0.7483176024043164
  0.4910602855609196  0.2521427221101997  0.9751806421760315
  0.3386759797932666  0.7478243719620514  0.2402516883744289
  0.1659908201996134  0.9180381858674587  0.5159059135158462
  0.6596596325931394  0.4111863802790232  0.2685688563835875
  0.5097984579451508  0.5813295901179185  0.5061838095403718
  0.3250393639734977  0.7516471673506050  0.7543942221746059
  0.1728125425365188  0.9219323839396918  0.9940373262053204
  0.8137894378130754  0.2496013255634982  0.5044883933838160
  0.6490419174660939  0.4102832450662907  0.7355716475883012
  0.4988806091766935  0.5867578418387208  0.9979886434673778
  0.8513302497809920  0.2467860816883065  0.9922120876525394
  0.6745177106444296  0.7510620797755319  0.2464874310338550
  0.4970378139161416  0.9113225976290774  0.5011280898683738
  0.8291330755322200  0.5877736309534218  0.4979460169684167
  0.6691711553042158  0.7475433765375078  0.7483108077598452
  0.4924142976716727  0.9125917515303933  0.9994255393908623
  0.8313921161247014  0.5869257311467025  0.0025764119016146
  0.8341301998856834  0.9124533867338327  0.4922252029004409
  0.8302550500645647  0.9152552307447470  0.0050981829078746
 
  0.00000000E+00  0.00000000E+00  0.00000000E+00
  0.00000000E+00  0.00000000E+00  0.00000000E+00
  0.00000000E+00  0.00000000E+00  0.00000000E+00
  0.00000000E+00  0.00000000E+00  0.00000000E+00
  0.00000000E+00  0.00000000E+00  0.00000000E+00
  0.00000000E+00  0.00000000E+00  0.00000000E+00
  0.00000000E+00  0.00000000E+00  0.00000000E+00
  0.00000000E+00  0.00000000E+00  0.00000000E+00
  0.00000000E+00  0.00000000E+00  0.00000000E+00
  0.00000000E+00  0.00000000E+00  0.00000000E+00
  0.00000000E+00  0.00000000E+00  0.00000000E+00
  0.00000000E+00  0.00000000E+00  0.00000000E+00
  0.00000000E+00  0.00000000E+00  0.00000000E+00
  0.00000000E+00  0.00000000E+00  0.00000000E+00
  0.00000000E+00  0.00000000E+00  0.00000000E+00
  0.00000000E+00  0.00000000E+00  0.00000000E+00
  0.00000000E+00  0.00000000E+00  0.00000000E+00
  0.00000000E+00  0.00000000E+00  0.00000000E+00
  0.00000000E+00  0.00000000E+00  0.00000000E+00
  0.00000000E+00  0.00000000E+00  0.00000000E+00
  0.00000000E+00  0.00000000E+00  0.00000000E+00
  0.00000000E+00  0.00000000E+00  0.00000000E+00
  0.00000000E+00  0.00000000E+00  0.00000000E+00
  0.00000000E+00  0.00000000E+00  0.00000000E+00
  0.00000000E+00  0.00000000E+00  0.00000000E+00
  0.00000000E+00  0.00000000E+00  0.00000000E+00
  0.00000000E+00  0.00000000E+00  0.00000000E+00
  0.00000000E+00  0.00000000E+00  0.00000000E+00
  0.00000000E+00  0.00000000E+00  0.00000000E+00
  0.00000000E+00  0.00000000E+00  0.00000000E+00
  0.00000000E+00  0.00000000E+00  0.00000000E+00
  0.00000000E+00  0.00000000E+00  0.00000000E+00
  0.00000000E+00  0.00000000E+00  0.00000000E+00
  0.00000000E+00  0.00000000E+00  0.00000000E+00
  0.00000000E+00  0.00000000E+00  0.00000000E+00
  0.00000000E+00  0.00000000E+00  0.00000000E+00
  0.00000000E+00  0.00000000E+00  0.00000000E+00
  0.00000000E+00  0.00000000E+00  0.00000000E+00
  0.00000000E+00  0.00000000E+00  0.00000000E+00
  0.00000000E+00  0.00000000E+00  0.00000000E+00
  0.00000000E+00  0.00000000E+00  0.00000000E+00
  0.00000000E+00  0.00000000E+00  0.00000000E+00
  0.00000000E+00  0.00000000E+00  0.00000000E+00
  0.00000000E+00  0.00000000E+00  0.00000000E+00
  0.00000000E+00  0.00000000E+00  0.00000000E+00
  0.00000000E+00  0.00000000E+00  0.00000000E+00
  0.00000000E+00  0.00000000E+00  0.00000000E+00
  0.00000000E+00  0.00000000E+00  0.00000000E+00
  0.00000000E+00  0.00000000E+00  0.00000000E+00
  0.00000000E+00  0.00000000E+00  0.00000000E+00
  0.00000000E+00  0.00000000E+00  0.00000000E+00
  0.00000000E+00  0.00000000E+00  0.00000000E+00
  0.00000000E+00  0.00000000E+00  0.00000000E+00
  0.00000000E+00  0.00000000E+00  0.00000000E+00
  0.00000000E+00  0.00000000E+00  0.00000000E+00
  0.00000000E+00  0.00000000E+00  0.00000000E+00
  0.00000000E+00  0.00000000E+00  0.00000000E+00
  0.00000000E+00  0.00000000E+00  0.00000000E+00
  0.00000000E+00  0.00000000E+00  0.00000000E+00
  0.00000000E+00  0.00000000E+00  0.00000000E+00
  0.00000000E+00  0.00000000E+00  0.00000000E+00
  0.00000000E+00  0.00000000E+00  0.00000000E+00
  0.00000000E+00  0.00000000E+00  0.00000000E+00
  0.00000000E+00  0.00000000E+00  0.00000000E+00
  0.00000000E+00  0.00000000E+00  0.00000000E+00
  0.00000000E+00  0.00000000E+00  0.00000000E+00
  0.00000000E+00  0.00000000E+00  0.00000000E+00
  0.00000000E+00  0.00000000E+00  0.00000000E+00
  0.00000000E+00  0.00000000E+00  0.00000000E+00
  0.00000000E+00  0.00000000E+00  0.00000000E+00
  0.00000000E+00  0.00000000E+00  0.00000000E+00
  0.00000000E+00  0.00000000E+00  0.00000000E+00
  0.00000000E+00  0.00000000E+00  0.00000000E+00
  0.00000000E+00  0.00000000E+00  0.00000000E+00
  0.00000000E+00  0.00000000E+00  0.00000000E+00
  0.00000000E+00  0.00000000E+00  0.00000000E+00
  0.00000000E+00  0.00000000E+00  0.00000000E+00
  0.00000000E+00  0.00000000E+00  0.00000000E+00
  0.00000000E+00  0.00000000E+00  0.00000000E+00
  0.00000000E+00  0.00000000E+00  0.00000000E+00
  0.00000000E+00  0.00000000E+00  0.00000000E+00
  0.00000000E+00  0.00000000E+00  0.00000000E+00
  0.00000000E+00  0.00000000E+00  0.00000000E+00
  0.00000000E+00  0.00000000E+00  0.00000000E+00
  0.00000000E+00  0.00000000E+00  0.00000000E+00
  0.00000000E+00  0.00000000E+00  0.00000000E+00
  0.00000000E+00  0.00000000E+00  0.00000000E+00
  0.00000000E+00  0.00000000E+00  0.00000000E+00
  0.00000000E+00  0.00000000E+00  0.00000000E+00
  0.00000000E+00  0.00000000E+00  0.00000000E+00
  0.00000000E+00  0.00000000E+00  0.00000000E+00
  0.00000000E+00  0.00000000E+00  0.00000000E+00
  0.00000000E+00  0.00000000E+00  0.00000000E+00
  0.00000000E+00  0.00000000E+00  0.00000000E+00
  0.00000000E+00  0.00000000E+00  0.00000000E+00
  0.00000000E+00  0.00000000E+00  0.00000000E+00
  0.00000000E+00  0.00000000E+00  0.00000000E+00
  0.00000000E+00  0.00000000E+00  0.00000000E+00
  0.00000000E+00  0.00000000E+00  0.00000000E+00
  0.00000000E+00  0.00000000E+00  0.00000000E+00
  0.00000000E+00  0.00000000E+00  0.00000000E+00
  0.00000000E+00  0.00000000E+00  0.00000000E+00
  0.00000000E+00  0.00000000E+00  0.00000000E+00
  0.00000000E+00  0.00000000E+00  0.00000000E+00
  0.00000000E+00  0.00000000E+00  0.00000000E+00
  0.00000000E+00  0.00000000E+00  0.00000000E+00
  0.00000000E+00  0.00000000E+00  0.00000000E+00
  0.00000000E+00  0.00000000E+00  0.00000000E+00
  0.00000000E+00  0.00000000E+00  0.00000000E+00
  0.00000000E+00  0.00000000E+00  0.00000000E+00
  0.00000000E+00  0.00000000E+00  0.00000000E+00
  0.00000000E+00  0.00000000E+00  0.00000000E+00
  0.00000000E+00  0.00000000E+00  0.00000000E+00
  0.00000000E+00  0.00000000E+00  0.00000000E+00
  0.00000000E+00  0.00000000E+00  0.00000000E+00
  0.00000000E+00  0.00000000E+00  0.00000000E+00
  0.00000000E+00  0.00000000E+00  0.00000000E+00
  0.00000000E+00  0.00000000E+00  0.00000000E+00
  0.00000000E+00  0.00000000E+00  0.00000000E+00
  0.00000000E+00  0.00000000E+00  0.00000000E+00
  0.00000000E+00  0.00000000E+00  0.00000000E+00
  0.00000000E+00  0.00000000E+00  0.00000000E+00
  0.00000000E+00  0.00000000E+00  0.00000000E+00
  0.00000000E+00  0.00000000E+00  0.00000000E+00
  0.00000000E+00  0.00000000E+00  0.00000000E+00
  0.00000000E+00  0.00000000E+00  0.00000000E+00
  0.00000000E+00  0.00000000E+00  0.00000000E+00
  0.00000000E+00  0.00000000E+00  0.00000000E+00
  0.00000000E+00  0.00000000E+00  0.00000000E+00
  0.00000000E+00  0.00000000E+00  0.00000000E+00
  0.00000000E+00  0.00000000E+00  0.00000000E+00
  0.00000000E+00  0.00000000E+00  0.00000000E+00
  0.00000000E+00  0.00000000E+00  0.00000000E+00
  0.00000000E+00  0.00000000E+00  0.00000000E+00
  0.00000000E+00  0.00000000E+00  0.00000000E+00
  0.00000000E+00  0.00000000E+00  0.00000000E+00
  0.00000000E+00  0.00000000E+00  0.00000000E+00
  0.00000000E+00  0.00000000E+00  0.00000000E+00
  0.00000000E+00  0.00000000E+00  0.00000000E+00
  0.00000000E+00  0.00000000E+00  0.00000000E+00
  0.00000000E+00  0.00000000E+00  0.00000000E+00
  0.00000000E+00  0.00000000E+00  0.00000000E+00
  0.00000000E+00  0.00000000E+00  0.00000000E+00
  0.00000000E+00  0.00000000E+00  0.00000000E+00
  0.00000000E+00  0.00000000E+00  0.00000000E+00
  0.00000000E+00  0.00000000E+00  0.00000000E+00
  0.00000000E+00  0.00000000E+00  0.00000000E+00
  0.00000000E+00  0.00000000E+00  0.00000000E+00
  0.00000000E+00  0.00000000E+00  0.00000000E+00
  0.00000000E+00  0.00000000E+00  0.00000000E+00
  0.00000000E+00  0.00000000E+00  0.00000000E+00
  0.00000000E+00  0.00000000E+00  0.00000000E+00
  0.00000000E+00  0.00000000E+00  0.00000000E+00
  0.00000000E+00  0.00000000E+00  0.00000000E+00
  0.00000000E+00  0.00000000E+00  0.00000000E+00
  0.00000000E+00  0.00000000E+00  0.00000000E+00
  0.00000000E+00  0.00000000E+00  0.00000000E+00
  0.00000000E+00  0.00000000E+00  0.00000000E+00
  0.00000000E+00  0.00000000E+00  0.00000000E+00
  0.00000000E+00  0.00000000E+00  0.00000000E+00
  0.00000000E+00  0.00000000E+00  0.00000000E+00
  0.00000000E+00  0.00000000E+00  0.00000000E+00
  0.00000000E+00  0.00000000E+00  0.00000000E+00
  0.00000000E+00  0.00000000E+00  0.00000000E+00
  0.00000000E+00  0.00000000E+00  0.00000000E+00
  0.00000000E+00  0.00000000E+00  0.00000000E+00
  0.00000000E+00  0.00000000E+00  0.00000000E+00
  0.00000000E+00  0.00000000E+00  0.00000000E+00
  0.00000000E+00  0.00000000E+00  0.00000000E+00
  0.00000000E+00  0.00000000E+00  0.00000000E+00
  0.00000000E+00  0.00000000E+00  0.00000000E+00
  0.00000000E+00  0.00000000E+00  0.00000000E+00
  0.00000000E+00  0.00000000E+00  0.00000000E+00
  0.00000000E+00  0.00000000E+00  0.00000000E+00
  0.00000000E+00  0.00000000E+00  0.00000000E+00
  0.00000000E+00  0.00000000E+00  0.00000000E+00
  0.00000000E+00  0.00000000E+00  0.00000000E+00
  0.00000000E+00  0.00000000E+00  0.00000000E+00
  0.00000000E+00  0.00000000E+00  0.00000000E+00
  0.00000000E+00  0.00000000E+00  0.00000000E+00
  0.00000000E+00  0.00000000E+00  0.00000000E+00
  0.00000000E+00  0.00000000E+00  0.00000000E+00
  0.00000000E+00  0.00000000E+00  0.00000000E+00
  0.00000000E+00  0.00000000E+00  0.00000000E+00
  0.00000000E+00  0.00000000E+00  0.00000000E+00
  0.00000000E+00  0.00000000E+00  0.00000000E+00
  0.00000000E+00  0.00000000E+00  0.00000000E+00
  0.00000000E+00  0.00000000E+00  0.00000000E+00
  0.00000000E+00  0.00000000E+00  0.00000000E+00
  0.00000000E+00  0.00000000E+00  0.00000000E+00
  0.00000000E+00  0.00000000E+00  0.00000000E+00
  0.00000000E+00  0.00000000E+00  0.00000000E+00
  0.00000000E+00  0.00000000E+00  0.00000000E+00
  0.00000000E+00  0.00000000E+00  0.00000000E+00
  0.00000000E+00  0.00000000E+00  0.00000000E+00
  0.00000000E+00  0.00000000E+00  0.00000000E+00
  0.00000000E+00  0.00000000E+00  0.00000000E+00
  0.00000000E+00  0.00000000E+00  0.00000000E+00
  0.00000000E+00  0.00000000E+00  0.00000000E+00
  0.00000000E+00  0.00000000E+00  0.00000000E+00
  0.00000000E+00  0.00000000E+00  0.00000000E+00
  0.00000000E+00  0.00000000E+00  0.00000000E+00
  0.00000000E+00  0.00000000E+00  0.00000000E+00
  0.00000000E+00  0.00000000E+00  0.00000000E+00
  0.00000000E+00  0.00000000E+00  0.00000000E+00
  0.00000000E+00  0.00000000E+00  0.00000000E+00
  0.00000000E+00  0.00000000E+00  0.00000000E+00
  0.00000000E+00  0.00000000E+00  0.00000000E+00
  0.00000000E+00  0.00000000E+00  0.00000000E+00
  0.00000000E+00  0.00000000E+00  0.00000000E+00
  0.00000000E+00  0.00000000E+00  0.00000000E+00
  0.00000000E+00  0.00000000E+00  0.00000000E+00
  0.00000000E+00  0.00000000E+00  0.00000000E+00
  0.00000000E+00  0.00000000E+00  0.00000000E+00
  0.00000000E+00  0.00000000E+00  0.00000000E+00
  0.00000000E+00  0.00000000E+00  0.00000000E+00
  0.00000000E+00  0.00000000E+00  0.00000000E+00
  0.00000000E+00  0.00000000E+00  0.00000000E+00
  0.00000000E+00  0.00000000E+00  0.00000000E+00
  0.00000000E+00  0.00000000E+00  0.00000000E+00
  0.00000000E+00  0.00000000E+00  0.00000000E+00
  0.00000000E+00  0.00000000E+00  0.00000000E+00
  0.00000000E+00  0.00000000E+00  0.00000000E+00
  0.00000000E+00  0.00000000E+00  0.00000000E+00
  0.00000000E+00  0.00000000E+00  0.00000000E+00
  0.00000000E+00  0.00000000E+00  0.00000000E+00
  0.00000000E+00  0.00000000E+00  0.00000000E+00
  0.00000000E+00  0.00000000E+00  0.00000000E+00
  0.00000000E+00  0.00000000E+00  0.00000000E+00
  0.00000000E+00  0.00000000E+00  0.00000000E+00
  0.00000000E+00  0.00000000E+00  0.00000000E+00
  0.00000000E+00  0.00000000E+00  0.00000000E+00
  0.00000000E+00  0.00000000E+00  0.00000000E+00
  0.00000000E+00  0.00000000E+00  0.00000000E+00
  0.00000000E+00  0.00000000E+00  0.00000000E+00
  0.00000000E+00  0.00000000E+00  0.00000000E+00
  0.00000000E+00  0.00000000E+00  0.00000000E+00
  0.00000000E+00  0.00000000E+00  0.00000000E+00
  0.00000000E+00  0.00000000E+00  0.00000000E+00
  0.00000000E+00  0.00000000E+00  0.00000000E+00
  0.00000000E+00  0.00000000E+00  0.00000000E+00
  0.00000000E+00  0.00000000E+00  0.00000000E+00
  0.00000000E+00  0.00000000E+00  0.00000000E+00
  0.00000000E+00  0.00000000E+00  0.00000000E+00
  0.00000000E+00  0.00000000E+00  0.00000000E+00
  0.00000000E+00  0.00000000E+00  0.00000000E+00
  0.00000000E+00  0.00000000E+00  0.00000000E+00
  0.00000000E+00  0.00000000E+00  0.00000000E+00
  0.00000000E+00  0.00000000E+00  0.00000000E+00
  0.00000000E+00  0.00000000E+00  0.00000000E+00
  0.00000000E+00  0.00000000E+00  0.00000000E+00
  0.00000000E+00  0.00000000E+00  0.00000000E+00
