opt                                     
           1
    10.047352    0.006334   -0.003015
     0.006334   10.013704   -0.010190
    -0.001996   -0.006753    6.645941
   Zr   Na   Mg   Ca   H 
   9   9   9   9 216
Direct configuration=     1
   0.16901663  0.17680946  0.24479850
   0.17182029  0.82983478  0.24446432
   0.33996364  0.65423775  0.50171514
   0.33170884  0.00874685  0.50680384
   0.82829934  0.49718687  0.24414795
   0.99421791  0.32836371  0.50335153
   0.82656415  0.49523904  0.75910992
   0.66950661  0.00002269  0.50116441
   0.99888591  0.66942108  0.50006418
   0.17332508  0.17359547  0.75150974
   0.16936074  0.50376366  0.25938051
   0.50053530  0.16525216  0.75345778
   0.33139533  0.33125518  0.99541243
   0.33514991  0.66572894  0.99429494
   0.82836937  0.16866600  0.75090150
   0.33529508  0.00065140  0.99896738
   0.66463633  0.66004158  0.00035580
   0.01125216  0.33495709  0.99722941
   0.50230726  0.16809219  0.25060543
   0.34454804  0.33501738  0.49673939
   0.17059526  0.48630386  0.75830616
   0.16774398  0.84852988  0.75793276
   0.65442611  0.33400094  0.50028036
   0.49826755  0.49924546  0.75485403
   0.65072963  0.33119116  0.99354042
   0.66377608  0.66421690  0.50067121
   0.83084280  0.83636644  0.24663324
   0.49711615  0.49340223  0.24775505
   0.83050689  0.16604142  0.24492654
   0.50433940  0.83185390  0.24590045
   0.49707261  0.82914202  0.75290062
   0.83882872  0.83214503  0.75046649
   0.66313046  0.00285708  0.99808949
   0.00372483  0.66475685  0.99817344
   0.00007260  0.00360758  0.50159118
   0.00048555  0.00298805  0.99693979
   0.17161432  0.08571166  0.99125570
   0.16498081  0.08944399  0.51173565
   0.18015595  0.41998250  0.02061469
   0.49550542  0.07959531  0.98266410
   0.33826293  0.25131931  0.24840148
   0.16487478  0.41753756  0.50074112
   0.50324681  0.08390687  0.51848169
   0.34504766  0.24693540  0.74579741
   0.17581739  0.74888002  0.97156301
   0.48204125  0.42094993  0.99133995
   0.32958090  0.57915253  0.22705264
   0.17393544  0.75435541  0.53116927
   0.83093010  0.08437311  0.98735388
   0.66558891  0.24883604  0.26875717
   0.49955024  0.41782988  0.51592644
   0.31503270  0.58216273  0.76383779
   0.83473441  0.08743817  0.50889288
   0.65853359  0.24927257  0.72994221
   0.50768194  0.74737379  0.99910450
   0.33664034  0.91826555  0.24628528
   0.85575705  0.41121749  0.00012009
   0.66353616  0.58386712  0.24768902
   0.50519046  0.74766897  0.49910216
   0.32981118  0.91901296  0.75540375
   0.99415235  0.25297504  0.22732738
   0.82129806  0.41415952  0.50015261
   0.65656552  0.58170293  0.75082635
   0.98954637  0.25059800  0.76114951
   0.82314615  0.74913390  0.00747302
   0.67022305  0.91495642  0.24799634
   0.00444448  0.58383646  0.25077233
   0.82145873  0.74989697  0.48817072
   0.66832144  0.91350718  0.75344062
   0.02833374  0.58267459  0.74858415
   0.00074710  0.91769693  0.24979972
   0.00787862  0.91928022  0.74708869
   0.08207024  0.17139886  0.97549806
   0.08510481  0.16905177  0.52351013
   0.08439481  0.49769541  0.00148952
   0.41815469  0.17001023  0.02057009
   0.25100456  0.34289700  0.26637725
   0.08478437  0.49683329  0.50805550
   0.41854505  0.17041173  0.48791380
   0.25125305  0.33742264  0.73075454
   0.08292059  0.83429117  0.99788415
   0.41614450  0.48833151  0.98785402
   0.25149699  0.66254461  0.24307901
   0.08578257  0.83724771  0.49937922
   0.74547542  0.17909947  0.99097822
   0.58393293  0.33217788  0.23622772
   0.42401640  0.48826635  0.51469531
   0.24716891  0.64194515  0.75105286
   0.74721076  0.17148657  0.50240959
   0.57618910  0.34294569  0.75794641
   0.41620308  0.83804185  0.00118666
   0.25194679  0.00576610  0.23302383
   0.74356378  0.48482390  0.00040144
   0.58542805  0.66021822  0.25638296
   0.41482931  0.83385178  0.49726693
   0.25105720  0.00956774  0.75874546
   0.91816679  0.33092262  0.23265812
   0.74586093  0.50794288  0.49948168
   0.58513742  0.65809771  0.74880733
   0.91891001  0.32270325  0.76568860
   0.75012814  0.82835298  0.00105174
   0.57804982  0.00649924  0.24991887
   0.91616459  0.67585173  0.24709148
   0.75140527  0.82577027  0.49564868
   0.58209936  0.99810106  0.74625142
   0.91825677  0.65835494  0.75253897
   0.91831270  0.99609405  0.24966017
   0.91683877  0.01148058  0.74873925
   0.17679652  0.00401071  0.12348733
   0.16458605  0.00726016  0.63040429
   0.17098519  0.34817348  0.12466555
   0.49621933  0.00616134  0.12979281
   0.34354893  0.17852359  0.37016266
   0.19379858  0.33086776  0.62811339
   0.50166802  0.01171571  0.62855428
   0.33241743  0.16571975  0.87353994
   0.17626704  0.65319120  0.11425741
   0.49596358  0.32643874  0.12791964
   0.33125951  0.48830864  0.37573487
   0.16380111  0.69740169  0.63792617
   0.82852724  0.99366995  0.12274348
   0.66089514  0.18525062  0.37061437
   0.49782711  0.31670134  0.62653987
   0.32915582  0.49961919  0.88018626
   0.83494892  0.00480601  0.63028106
   0.66591462  0.17424857  0.87497436
   0.49519918  0.65916017  0.11909292
   0.33827788  0.82854278  0.37621160
   0.81054825  0.32561140  0.10761469
   0.66243245  0.49226844  0.37661076
   0.50626120  0.65693459  0.62768848
   0.32579042  0.83063581  0.87153870
   0.99962758  0.16837840  0.37249526
   0.81039169  0.33131844  0.62623981
   0.65525458  0.49742795  0.87441738
   0.01362072  0.17329382  0.87806782
   0.82784571  0.67623774  0.12442816
   0.67109615  0.82264257  0.37305228
   0.00330391  0.49753376  0.37379771
   0.82269415  0.66185295  0.62348307
   0.66814419  0.82762674  0.87526994
   0.00925704  0.49319175  0.87760364
   0.99906056  0.83813339  0.36979256
   0.01247614  0.83101917  0.87729176
   0.08215577  0.99998891  0.25006942
   0.08307492  0.01744790  0.74880566
   0.08346155  0.34329541  0.25453993
   0.41655853  0.00764120  0.24205607
   0.25402479  0.17977331  0.50650595
   0.08330684  0.33535071  0.74307326
   0.41525791  0.00357176  0.75714574
   0.25374616  0.16978472  0.99405489
   0.08470709  0.66152705  0.24759493
   0.41625442  0.32488433  0.23123926
   0.24846549  0.48858624  0.51701688
   0.09253946  0.64269099  0.75322199
   0.75151352  0.99733967  0.24493785
   0.58005535  0.16674060  0.49164228
   0.40906904  0.34062156  0.75113848
   0.24857386  0.49366438  0.99570994
   0.75303236  0.99918302  0.75375086
   0.57901520  0.17206897  0.01178209
   0.41834966  0.66468106  0.23769738
   0.25144219  0.83020481  0.50780295
   0.74773380  0.32752098  0.20279509
   0.58599273  0.50302557  0.50252910
   0.41638201  0.65473419  0.75964826
   0.25299705  0.83496518  0.99446321
   0.90899182  0.16463704  0.51027608
   0.75014656  0.32931722  0.78307294
   0.58352610  0.49432755  0.99343995
   0.91583628  0.17840910  0.99193860
   0.75019870  0.66945225  0.25169995
   0.58371186  0.82527440  0.50150624
   0.91252869  0.50070294  0.49953806
   0.74638016  0.66835375  0.74983985
   0.58277340  0.81917862  0.99595304
   0.92269532  0.49213003  0.00115128
   0.91565120  0.83681345  0.48344036
   0.91755825  0.83559530  0.01225355
   0.99948292  0.17593112  0.12427966
   0.00552370  0.16772111  0.63180153
   0.01174578  0.49462225  0.12413134
   0.35057645  0.16641791  0.11578471
   0.18902198  0.34318329  0.37683325
   0.99500981  0.50169663  0.62569240
   0.33518206  0.18459400  0.62993707
   0.17123436  0.32808531  0.87717665
   0.99155133  0.83221507  0.12144539
   0.32688843  0.50265539  0.12880735
   0.16944642  0.66844298  0.38042092
   0.00978806  0.83717930  0.62822042
   0.65320860  0.17277128  0.12086607
   0.49852487  0.32335891  0.37173331
   0.33687104  0.49357478  0.62934751
   0.17310040  0.68806623  0.86878039
   0.66316786  0.18803395  0.63380277
   0.49588371  0.31842708  0.87862332
   0.33844393  0.82694986  0.11867486
   0.16708554  0.00027459  0.37247867
   0.66058561  0.49410826  0.11771604
   0.50992271  0.66327540  0.36866591
   0.32536962  0.82972030  0.62686377
   0.17316471  0.00918925  0.88304287
   0.80763430  0.33355510  0.37390650
   0.66220330  0.48710640  0.62785819
   0.49733559  0.65371736  0.87668255
   0.81784809  0.32615150  0.88306123
   0.67361315  0.82570360  0.12379179
   0.49797285  0.00731975  0.37356608
   0.82303583  0.66759592  0.37190660
   0.66859599  0.82080690  0.62614467
   0.49241206  0.01404630  0.88289668
   0.82651653  0.66679117  0.87803467
   0.83293228  0.99774781  0.37073978
   0.83064732  0.00870801  0.87751675
   0.00217394  0.08281522  0.24955275
   0.00227544  0.08497227  0.74990696
   0.00934474  0.41838515  0.24944639
   0.33441084  0.08355557  0.24136949
   0.16619553  0.25678226  0.51135697
   0.00478936  0.41828078  0.75421326
   0.33420562  0.08738711  0.76929313
   0.17308963  0.25625364  0.98342478
   0.99089447  0.75168712  0.24549358
   0.33181772  0.41649515  0.23894319
   0.16725195  0.58250646  0.52261981
   0.01056483  0.75240184  0.75317236
   0.66403403  0.08531461  0.25075108
   0.49948187  0.25163878  0.52922941
   0.35001906  0.41429041  0.75359573
   0.17492508  0.58381396  0.00250760
   0.66530663  0.08831901  0.74831760
   0.49106029  0.25214272  0.97518064
   0.33867598  0.74782437  0.24025169
   0.16599082  0.91803819  0.51590591
   0.65965963  0.41118638  0.26856886
   0.50979846  0.58132959  0.50618381
   0.32503936  0.75164717  0.75439422
   0.17281254  0.92193238  0.99403733
   0.81378944  0.24960133  0.50448839
   0.64904192  0.41028325  0.73557165
   0.49888061  0.58675784  0.99798864
   0.85133025  0.24678608  0.99221209
   0.67451771  0.75106208  0.24648743
   0.49703781  0.91132260  0.50112809
   0.82913308  0.58777363  0.49794602
   0.66917116  0.74754338  0.74831081
   0.49241430  0.91259175  0.99942554
   0.83139212  0.58692573  0.00257641
   0.83413020  0.91245339  0.49222520
   0.83025505  0.91525523  0.00509818
