generated by phonopy                    
   1.00000000000000     
     0.0000000000000000    3.3504040182943937    3.3504040182945234
     3.3504040182944466    0.0000000000000000    3.3504040182945234
     3.3504040182944466    3.3504040182943937    0.0000000000000000
   Ca   Y    Sc   Th   H 
     1     1     1     1    24
Direct
  0.2500000000000000  0.2500000000000000  0.2500000000000000
  0.7500000000000000  0.7500000000000000  0.7500000000000000
  0.0000000000000000  0.0000000000000000  0.0000000000000000
  0.5000000000000000  0.5000000000000000  0.5000000000000000
  0.1200358628899423  0.8894728838241903  0.6337141468969918
  0.8894728838241903  0.1200358628899423  0.3567771063888827
  0.6337141468969918  0.3567771063888827  0.1200358628899423
  0.3567771063888827  0.6337141468969918  0.8894728838241903
  0.6337141468969918  0.1200358628899423  0.8894728838241903
  0.3567771063888827  0.8894728838241903  0.1200358628899423
  0.1200358628899423  0.6337141468969918  0.3567771063888827
  0.8894728838241903  0.3567771063888827  0.6337141468969918
  0.8894728838241903  0.6337141468969918  0.1200358628899423
  0.1200358628899423  0.3567771063888827  0.8894728838241903
  0.3567771063888827  0.1200358628899423  0.6337141468969918
  0.6337141468969918  0.8894728838241903  0.3567771063888827
  0.1200358628899423  0.3567771063888827  0.6337141468969918
  0.3567771063888827  0.1200358628899423  0.8894728838241903
  0.6337141468969918  0.8894728838241903  0.1200358628899423
  0.8894728838241903  0.6337141468969918  0.3567771063888827
  0.6337141468969918  0.1200358628899423  0.3567771063888827
  0.8894728838241903  0.3567771063888827  0.1200358628899423
  0.1200358628899423  0.6337141468969918  0.8894728838241903
  0.3567771063888827  0.8894728838241903  0.6337141468969918
  0.3567771063888827  0.6337141468969918  0.1200358628899423
  0.1200358628899423  0.8894728838241903  0.3567771063888827
  0.8894728838241903  0.1200358628899423  0.6337141468969918
  0.6337141468969918  0.3567771063888827  0.8894728838241903
 
  0.00000000E+00  0.00000000E+00  0.00000000E+00
  0.00000000E+00  0.00000000E+00  0.00000000E+00
  0.00000000E+00  0.00000000E+00  0.00000000E+00
  0.00000000E+00  0.00000000E+00  0.00000000E+00
  0.00000000E+00  0.00000000E+00  0.00000000E+00
  0.00000000E+00  0.00000000E+00  0.00000000E+00
  0.00000000E+00  0.00000000E+00  0.00000000E+00
  0.00000000E+00  0.00000000E+00  0.00000000E+00
  0.00000000E+00  0.00000000E+00  0.00000000E+00
  0.00000000E+00  0.00000000E+00  0.00000000E+00
  0.00000000E+00  0.00000000E+00  0.00000000E+00
  0.00000000E+00  0.00000000E+00  0.00000000E+00
  0.00000000E+00  0.00000000E+00  0.00000000E+00
  0.00000000E+00  0.00000000E+00  0.00000000E+00
  0.00000000E+00  0.00000000E+00  0.00000000E+00
  0.00000000E+00  0.00000000E+00  0.00000000E+00
  0.00000000E+00  0.00000000E+00  0.00000000E+00
  0.00000000E+00  0.00000000E+00  0.00000000E+00
  0.00000000E+00  0.00000000E+00  0.00000000E+00
  0.00000000E+00  0.00000000E+00  0.00000000E+00
  0.00000000E+00  0.00000000E+00  0.00000000E+00
  0.00000000E+00  0.00000000E+00  0.00000000E+00
  0.00000000E+00  0.00000000E+00  0.00000000E+00
  0.00000000E+00  0.00000000E+00  0.00000000E+00
  0.00000000E+00  0.00000000E+00  0.00000000E+00
  0.00000000E+00  0.00000000E+00  0.00000000E+00
  0.00000000E+00  0.00000000E+00  0.00000000E+00
  0.00000000E+00  0.00000000E+00  0.00000000E+00
