generated by phonopy                    
   1.00000000000000     
     0.0000000000000000    3.4439081356834595    3.4439081356835421
     3.4439081356834942    0.0000000000000000    3.4439081356835421
     3.4439081356834942    3.4439081356834595    0.0000000000000000
   Ca   Y    Zr   Th   H 
     1     1     1     1    24
Direct
  0.2500000000000000  0.2500000000000000  0.2500000000000000
  0.7500000000000000  0.7500000000000000  0.7500000000000000
  0.0000000000000000  0.0000000000000000  0.0000000000000000
  0.5000000000000000  0.5000000000000000  0.5000000000000000
  0.1225599836084754  0.8865772749184018  0.6255902585283621
  0.8865772749184018  0.1225599836084754  0.3652724829447536
  0.6255902585283621  0.3652724829447536  0.1225599836084754
  0.3652724829447536  0.6255902585283621  0.8865772749184018
  0.6255902585283621  0.1225599836084754  0.8865772749184018
  0.3652724829447536  0.8865772749184018  0.1225599836084754
  0.1225599836084754  0.6255902585283621  0.3652724829447536
  0.8865772749184018  0.3652724829447536  0.6255902585283621
  0.8865772749184018  0.6255902585283621  0.1225599836084754
  0.1225599836084754  0.3652724829447536  0.8865772749184018
  0.3652724829447536  0.1225599836084754  0.6255902585283621
  0.6255902585283621  0.8865772749184018  0.3652724829447536
  0.1225599836084754  0.3652724829447536  0.6255902585283621
  0.3652724829447536  0.1225599836084754  0.8865772749184018
  0.6255902585283621  0.8865772749184018  0.1225599836084754
  0.8865772749184018  0.6255902585283621  0.3652724829447536
  0.6255902585283621  0.1225599836084754  0.3652724829447536
  0.8865772749184018  0.3652724829447536  0.1225599836084754
  0.1225599836084754  0.6255902585283621  0.8865772749184018
  0.3652724829447536  0.8865772749184018  0.6255902585283621
  0.3652724829447536  0.6255902585283621  0.1225599836084754
  0.1225599836084754  0.8865772749184018  0.3652724829447536
  0.8865772749184018  0.1225599836084754  0.6255902585283621
  0.6255902585283621  0.3652724829447536  0.8865772749184018
 
  0.00000000E+00  0.00000000E+00  0.00000000E+00
  0.00000000E+00  0.00000000E+00  0.00000000E+00
  0.00000000E+00  0.00000000E+00  0.00000000E+00
  0.00000000E+00  0.00000000E+00  0.00000000E+00
  0.00000000E+00  0.00000000E+00  0.00000000E+00
  0.00000000E+00  0.00000000E+00  0.00000000E+00
  0.00000000E+00  0.00000000E+00  0.00000000E+00
  0.00000000E+00  0.00000000E+00  0.00000000E+00
  0.00000000E+00  0.00000000E+00  0.00000000E+00
  0.00000000E+00  0.00000000E+00  0.00000000E+00
  0.00000000E+00  0.00000000E+00  0.00000000E+00
  0.00000000E+00  0.00000000E+00  0.00000000E+00
  0.00000000E+00  0.00000000E+00  0.00000000E+00
  0.00000000E+00  0.00000000E+00  0.00000000E+00
  0.00000000E+00  0.00000000E+00  0.00000000E+00
  0.00000000E+00  0.00000000E+00  0.00000000E+00
  0.00000000E+00  0.00000000E+00  0.00000000E+00
  0.00000000E+00  0.00000000E+00  0.00000000E+00
  0.00000000E+00  0.00000000E+00  0.00000000E+00
  0.00000000E+00  0.00000000E+00  0.00000000E+00
  0.00000000E+00  0.00000000E+00  0.00000000E+00
  0.00000000E+00  0.00000000E+00  0.00000000E+00
  0.00000000E+00  0.00000000E+00  0.00000000E+00
  0.00000000E+00  0.00000000E+00  0.00000000E+00
  0.00000000E+00  0.00000000E+00  0.00000000E+00
  0.00000000E+00  0.00000000E+00  0.00000000E+00
  0.00000000E+00  0.00000000E+00  0.00000000E+00
  0.00000000E+00  0.00000000E+00  0.00000000E+00
