generated by phonopy                    
   1.00000000000000     
     0.0000000000000000    3.2477353382266103    3.2477353382266916
     3.2477353382266463    0.0000000000000000    3.2477353382266916
     3.2477353382266463    3.2477353382266103    0.0000000000000000
   Na   Zr   Sc   Y    H 
     1     1     1     1    24
Direct
  0.2500000000000000  0.2500000000000000  0.2500000000000000
  0.7500000000000000  0.7500000000000000  0.7500000000000000
  0.0000000000000000  0.0000000000000000  0.0000000000000000
  0.5000000000000000  0.5000000000000000  0.5000000000000000
  0.1307949380787221  0.8919446761305423  0.6180656118121988
  0.8919446761305423  0.1307949380787221  0.3591947739785368
  0.6180656118121988  0.3591947739785368  0.1307949380787221
  0.3591947739785368  0.6180656118121988  0.8919446761305423
  0.6180656118121988  0.1307949380787221  0.8919446761305423
  0.3591947739785368  0.8919446761305423  0.1307949380787221
  0.1307949380787221  0.6180656118121988  0.3591947739785368
  0.8919446761305423  0.3591947739785368  0.6180656118121988
  0.8919446761305423  0.6180656118121988  0.1307949380787221
  0.1307949380787221  0.3591947739785368  0.8919446761305423
  0.3591947739785368  0.1307949380787221  0.6180656118121988
  0.6180656118121988  0.8919446761305423  0.3591947739785368
  0.1307949380787221  0.3591947739785368  0.6180656118121988
  0.3591947739785368  0.1307949380787221  0.8919446761305423
  0.6180656118121988  0.8919446761305423  0.1307949380787221
  0.8919446761305423  0.6180656118121988  0.3591947739785368
  0.6180656118121988  0.1307949380787221  0.3591947739785368
  0.8919446761305423  0.3591947739785368  0.1307949380787221
  0.1307949380787221  0.6180656118121988  0.8919446761305423
  0.3591947739785368  0.8919446761305423  0.6180656118121988
  0.3591947739785368  0.6180656118121988  0.1307949380787221
  0.1307949380787221  0.8919446761305423  0.3591947739785368
  0.8919446761305423  0.1307949380787221  0.6180656118121988
  0.6180656118121988  0.3591947739785368  0.8919446761305423
 
  0.00000000E+00  0.00000000E+00  0.00000000E+00
  0.00000000E+00  0.00000000E+00  0.00000000E+00
  0.00000000E+00  0.00000000E+00  0.00000000E+00
  0.00000000E+00  0.00000000E+00  0.00000000E+00
  0.00000000E+00  0.00000000E+00  0.00000000E+00
  0.00000000E+00  0.00000000E+00  0.00000000E+00
  0.00000000E+00  0.00000000E+00  0.00000000E+00
  0.00000000E+00  0.00000000E+00  0.00000000E+00
  0.00000000E+00  0.00000000E+00  0.00000000E+00
  0.00000000E+00  0.00000000E+00  0.00000000E+00
  0.00000000E+00  0.00000000E+00  0.00000000E+00
  0.00000000E+00  0.00000000E+00  0.00000000E+00
  0.00000000E+00  0.00000000E+00  0.00000000E+00
  0.00000000E+00  0.00000000E+00  0.00000000E+00
  0.00000000E+00  0.00000000E+00  0.00000000E+00
  0.00000000E+00  0.00000000E+00  0.00000000E+00
  0.00000000E+00  0.00000000E+00  0.00000000E+00
  0.00000000E+00  0.00000000E+00  0.00000000E+00
  0.00000000E+00  0.00000000E+00  0.00000000E+00
  0.00000000E+00  0.00000000E+00  0.00000000E+00
  0.00000000E+00  0.00000000E+00  0.00000000E+00
  0.00000000E+00  0.00000000E+00  0.00000000E+00
  0.00000000E+00  0.00000000E+00  0.00000000E+00
  0.00000000E+00  0.00000000E+00  0.00000000E+00
  0.00000000E+00  0.00000000E+00  0.00000000E+00
  0.00000000E+00  0.00000000E+00  0.00000000E+00
  0.00000000E+00  0.00000000E+00  0.00000000E+00
  0.00000000E+00  0.00000000E+00  0.00000000E+00
