POSCAR                                  
   1.00000000000000     
     9.9070907002973083   -0.0063342853113930    0.0143587919393946
    -0.0063685309787925    9.8894878954069938   -0.0018110234511832
     0.0095340242769233   -0.0011959107604379    6.5978811916436761
   Y    Na   Zr   Sr   H 
     9     9     9     9   216
Direct
  0.1635838358393400  0.1642137460690662  0.2469421652709656
  0.1591464598396612  0.8306790133609567  0.2512172892176920
  0.3335570980963212  0.6663704174955711  0.5027853239441171
  0.8395530652498095  0.1678397894865640  0.7586387854683707
  0.8300522943648474  0.5019745752118752  0.2439372310533869
  0.4960487859503786  0.8288266097628707  0.7548577823724187
  0.3295920288468466  0.9949794814761930  0.9974264515931495
  0.6663649364437205  0.9990918067977290  0.4992355697378414
  0.6722431081619789  0.0003143212189300  0.0017334218951106
  0.1626945078052273  0.1623056022629186  0.7539860247793726
  0.1666984452076079  0.8351267335231469  0.7572767152252169
  0.4960944653720105  0.5071006277201278  0.7557634480914643
  0.3363680951402515  0.6661700830967519  0.9991814698165129
  0.6764248022688975  0.3435775305665345  0.9949320511553950
  0.6647385368348395  0.6653280489693003  0.9998355923169697
  0.0014982572739868  0.3312863034634148  0.9948458139631384
  0.8335070497047568  0.8319165030668785  0.2421724548964903
  0.9990282099927583  0.0003853027803373  0.9913456708824526
  0.1675541900887225  0.4970164710800589  0.2385522698752780
  0.3347021967217287  0.3388281665646815  0.5054808686116061
  0.1695337943056430  0.4982825260024413  0.7581119651259556
  0.5055873665859139  0.5047297726289059  0.2403009063370263
  0.5048262001472708  0.8287162757379463  0.2440015843371697
  0.3275429320718146  0.9945882872351604  0.5097295755302298
  0.9992200341947282  0.3324593640047055  0.5051116632633637
  0.8392277975000368  0.8345362048422160  0.7502167197972014
  0.9987067364309610  0.6681771096298803  0.9967538301551500
  0.5007916747506869  0.1738658558918758  0.2534590154743768
  0.4929989512190502  0.1776930398507730  0.7597096470810953
  0.3372125903033094  0.3291600404291941  0.9978906617259256
  0.8371590964817415  0.1589302240331492  0.2502788133041705
  0.6631771507897852  0.3289741457127136  0.4999117764544820
  0.6674896274480773  0.6649575382981112  0.5048715188030926
  0.8254485270984091  0.5028508257412767  0.7469792143638898
  0.0025665509375798  0.6659414969057806  0.4977779310582235
  0.0030494843849596  0.0034192351015747  0.4895774510758031
  0.1510433675681000  0.0812931705974762  0.9881780506978970
  0.1715797957560383  0.0886225347669978  0.5182057862341551
  0.1586264178353431  0.4099985465269071  0.9983056759821167
  0.5028007084321544  0.0814848517303872  0.0044317464536050
  0.3267749619628049  0.2477631489322647  0.2609893197544579
  0.1648556701103416  0.4139442129788264  0.5001741073718335
  0.4915364122512926  0.0844785391868399  0.5069120243093295
  0.3117846231968429  0.2480394305466760  0.7411383342407518
  0.1720156488742361  0.7486927557107634  0.9900419497713813
  0.5118311524410117  0.4233029043182199  0.9838178347917719
  0.3387756505730053  0.5871664465756155  0.2379299174197413
  0.1716026857239612  0.7497477875955667  0.5218695020530220
  0.8463631225431953  0.0780662789018436  0.9973442272741480
  0.6738940922567309  0.2558544871583237  0.2182918048945268
  0.5026600493873303  0.4242939541617758  0.5139848734191048
  0.3377200143268055  0.5865237406635444  0.7607911789708055
  0.8331150538408920  0.0809714325066011  0.5140219614287389
  0.6723099387550917  0.2526712747067279  0.7760215636975332
  0.5014938562032185  0.7433080305612307  0.0009888321487281
  0.3309326737168519  0.9104146658882968  0.2492133462654138
  0.8395634734716424  0.4158070138458640  0.9987118687585550
  0.6635930654813791  0.5910749023315418  0.2315241557959453
  0.4982645995396595  0.7504612455256279  0.4961837366354160
  0.3209760933349202  0.9090057671224940  0.7521335086898873
  0.0024865476097773  0.2507857202015487  0.2168781362823040
  0.8353351656973018  0.4134775312602841  0.4945642906883592
  0.6494937018033724  0.5872145178808523  0.7716350011558291
  0.0114823390693886  0.2492228594041563  0.7691248070900087
  0.8295315950729147  0.7516810811239409  0.0097532102781273
  0.6741305321293964  0.9103502282115130  0.2470232405730428
  0.0009310048670628  0.5808258917584936  0.2393543476612692
  0.8332586514240674  0.7518743017628893  0.4746965948338797
  0.6680156130561912  0.9157934349757682  0.7522650088751064
  0.0039246043442063  0.5818230330996386  0.7556325257667567
  0.9915256830795371  0.9148585414885133  0.2244501921298934
  0.0082177690192466  0.9178484724323894  0.7613196979422767
  0.0842507171283984  0.1555880182658456  0.9872165998587690
  0.0884845130517036  0.1718959957196304  0.5247261009854682
  0.0802718942803651  0.4963174670940660  0.9942072624178806
  0.4138193289500620  0.1557474948862705  0.0112268143500387
  0.2511885222112582  0.3338195769533598  0.2581604809842730
  0.0867498781893303  0.4934339421984149  0.5032406667456826
  0.4094000498145647  0.1622147484524348  0.5038142368876350
  0.2441611485959854  0.3241751614273340  0.7472077452342702
  0.0818727455134010  0.8424950004440674  0.9857663336569971
  0.4171205609124868  0.5076562009775216  0.9881817424524115
  0.2541550662837366  0.6657749611960639  0.2304225151172972
  0.0861401726437165  0.8369529937383362  0.5259716266862711
  0.7545126314566915  0.1837354687537882  0.0022404078298877
  0.5884827758060851  0.3450051842164115  0.2254677427649909
  0.4166381239991779  0.5038965362119896  0.5161086830979897
  0.2497075505486066  0.6730846317805970  0.7690423619215565
  0.7534102608224984  0.1669409542222127  0.5089785613348496
  0.5824859407727629  0.3533188248560393  0.7670233398918356
  0.4115297591477400  0.8228635270350040  0.0060079293306785
  0.2512379961881877  0.9944193452654204  0.2511859194542509
  0.7428973517865671  0.5057941241046322  0.0024031965639608
  0.5908139679213562  0.6667730038095812  0.2339618912120187
  0.4157666621152600  0.8337218878349901  0.4949735110817102
  0.2402081250731243  0.9981845262392000  0.7552953545546544
  0.9169910582940304  0.3333402262539309  0.2261517632339221
  0.7457758621733035  0.4952687634275463  0.4874264368632950
  0.5829468793962178  0.6585260187042579  0.7671266241268739
  0.9183369027121415  0.3371758840843810  0.7729883924515235
  0.7525391410300060  0.8232252086748417  0.0108785941324854
  0.5802560191371313  0.9991755779338973  0.2465904730234527
  0.9133027224883747  0.6746960236252590  0.2389261616493314
  0.7503638393377656  0.8320259224189499  0.4815478371779065
  0.5785604716964414  0.0024736365665703  0.7553206266217245
  0.9177230629053810  0.6710222562392900  0.7561377175300805
  0.9170280470270598  0.9850697859599009  0.2245327158538686
  0.9238123852803639  0.9967236918877660  0.7577622481458803
  0.1570536645260532  0.9957944990997945  0.1176613463494292
  0.1648933455076786  0.9965127191373568  0.6349757611821829
  0.1553340429313650  0.3322403004204588  0.1165956764826461
  0.5024301565612674  0.9983913403026463  0.1301286371231924
  0.3286673617950697  0.1630511025246477  0.3843312947319575
  0.1644945202385344  0.3288680138361357  0.6310812700893820
  0.4963021509772858  0.9999142559730956  0.6269363401833772
  0.3116295636882924  0.1585494616257606  0.8688523275113837
  0.1763704484734561  0.6638054644018823  0.1176671304698900
  0.5168819920097931  0.3396726418629896  0.1137929460026967
  0.3333883312268995  0.5004769245971445  0.3746551646752678
  0.1685204408638228  0.6719551557654455  0.6347916072823949
  0.8444487539459971  0.9857960609482390  0.1236281955075142
  0.6696638204968650  0.1612512631889089  0.3755299076047791
  0.4968689249954537  0.3567683669611270  0.6320729097389517
  0.3427385255999127  0.5081345613458481  0.8816885043305689
  0.8339919094322070  0.9955226018988483  0.6225288039645491
  0.6649128300281717  0.1827728581513028  0.8806272879828825
  0.5007680721814793  0.6674020817109181  0.1169257167815232
  0.3324059908938608  0.8332479627234335  0.3714494336459140
  0.8451897738976868  0.3320181585816400  0.1219376224469499
  0.6640637383553312  0.4975017190838003  0.3745571305009321
  0.4988866906010045  0.6579268494174926  0.6306136433959466
  0.3253719370663504  0.8229686958253524  0.8791577944373756
  0.0029241689069437  0.1777251078889748  0.3756192497499100
  0.8353740698542396  0.3331218383291059  0.6260673050794026
  0.6521710152816738  0.5029539821631488  0.8749280081116879
  0.0103290951135406  0.1699377236827644  0.8762627765182884
  0.8234094470270747  0.6776606719357403  0.1236051569478889
  0.6806634272976453  0.8328064868012248  0.3710973239394022
  0.0038598113281481  0.4934195004206714  0.3682087777074443
  0.8371401882062983  0.6759439460293351  0.6239151648258314
  0.6635429289790906  0.8208165176746860  0.8813530515971735
  0.9999862400417499  0.4883070253615500  0.8782366499146832
  0.9827544959944774  0.8327943386091547  0.3664945070912538
  0.0076838306915832  0.8426817062256617  0.8734361776614179
  0.0769902811060277  0.9990949164454435  0.2181004643167981
  0.0838292846388029  0.9982598370771640  0.7573802147288689
  0.0799947519640654  0.3324867916423102  0.2442309803196494
  0.4158314586557026  0.9963337402885699  0.2559868914807311
  0.2440209433354710  0.1702986485593883  0.5159903458351778
  0.0853412382127061  0.3225168077078564  0.7583805128957479
  0.4140727873017482  0.0018857936500538  0.7466844946330866
  0.2426291488900958  0.1628383370756126  0.9855706848449728
  0.0842104174370277  0.6618220047603529  0.2388864406366125
  0.4167044338053643  0.3472635794141112  0.2525836316032368
  0.2493414045192068  0.4994654656532447  0.5032226549895995
  0.0878872996473561  0.6812743922699198  0.7562928924030103
  0.7527015030662056  0.9825736299143202  0.2469222621950138
  0.5788434611967830  0.1598364082117811  0.5119958189323626
  0.4172868086832864  0.3548625804989385  0.7455447878357191
  0.2569123593920537  0.5099117813755996  0.9981287990401313
  0.7515640151820122  0.9968500369945730  0.7524901212523432
  0.5918376572256676  0.1794892152684042  0.9999343336406099
  0.4123700744888836  0.6632868351454775  0.2328705492633603
  0.2460289166914720  0.8295840364848317  0.5110089066446619
  0.7520661245092910  0.3310700899998409  0.2349572731863177
  0.5774676285061062  0.4964962959160175  0.5238579280368754
  0.4138578408276885  0.6573739039204654  0.7673979338569481
  0.2469104160236881  0.8209358046620849  0.9968133895851494
  0.9189459342129851  0.1711418117733743  0.5075051955704879
  0.7473899252316087  0.3302681335878148  0.7582133092554244
  0.5828927755624136  0.5035469271678252  0.9812700969162336
  0.9252524789131655  0.1671480776010483  0.9998901882885178
  0.7508179363784322  0.6766585232289586  0.2284721937247340
  0.5828066339388869  0.8345111201161473  0.5008945468494730
  0.9190885519794065  0.4941457961117663  0.4946268652428216
  0.7477770576230185  0.6762421687342837  0.7780407127971571
  0.5909154211782521  0.8215975608924069  0.9957809392302934
  0.9181550743657354  0.4926330624685420  0.9970633798537634
  0.9146927190008824  0.8360687058311171  0.4835058100582543
  0.9163565923168520  0.8401969688834257  0.0109838873884840
  0.0011859551158864  0.1783646179466771  0.1170500846528455
  0.0131445190215089  0.1683607052336100  0.6309475072724240
  0.0000313728170340  0.4841437349974811  0.1198062823796562
  0.3321045245454428  0.1598596353747723  0.1324803933507539
  0.1654377652545804  0.3351253587130145  0.3796385074466713
  0.0040035218746155  0.4963926271355277  0.6276401107239735
  0.3192025927068372  0.1649635772420908  0.6274507495457016
  0.1575560722466065  0.3228962318048261  0.8733365651600664
  0.9893990703588145  0.8409587915901753  0.1165641266954864
  0.3342170404426952  0.5061748725759969  0.1203544520430171
  0.1712622427794130  0.6591455421103731  0.3729713234106384
  0.0089316340946510  0.8354154889106553  0.6299041503713028
  0.6691665429089539  0.1812644792534073  0.1208189485814941
  0.4958511085132642  0.3486632940755143  0.3775257251279456
  0.3410952365704603  0.5013284295632374  0.6313394729233508
  0.1764730834305297  0.6711273686704331  0.8770697822428914
  0.6666306682263965  0.1624137851886260  0.6353008293194264
  0.5156543006959211  0.3555128955113602  0.8781122444909784
  0.3315417368780160  0.8245755726374284  0.1241157574695109
  0.1733788113802532  0.9973474092962817  0.3759255256313736
  0.6685809670676903  0.5020883840371582  0.1108027645459941
  0.4992550012438812  0.6662741729325816  0.3750822432834013
  0.3224180445776810  0.8323138459519299  0.6332255829094464
  0.1598802960575014  0.9993276264786886  0.8717327590563997
  0.8375272886466263  0.3328975826108831  0.3676818510158952
  0.6458430158653741  0.4969265223873265  0.6316378495857506
  0.4964796181894755  0.6602205350772365  0.8807393847792895
  0.8445379667024966  0.3350502587569437  0.8803968147677352
  0.6772288789070657  0.8251645512344652  0.1204441991138196
  0.4941326401910615  0.9963233661396345  0.3756991156376017
  0.8347709924451081  0.6841369688187342  0.3691412806937393
  0.6681503930144856  0.8344629779556172  0.6282112647700799
  0.5046006460871979  0.0014096123495335  0.8764674311366534
  0.8206407193087770  0.6700550047313882  0.8816665912418813
  0.8314427048569328  0.9778968425901411  0.3713162044462095
  0.8424528784601080  0.9976752442148893  0.8757399363028071
  0.0042968908197523  0.0781561875954324  0.2175858724163930
  0.0087294318856266  0.0832362681834127  0.7585121278709224
  0.9992757560575640  0.4144167098507765  0.2269146579495498
  0.3318954809454766  0.0817340911751216  0.2555688502833533
  0.1714588190916047  0.2481152541757154  0.5149338508246757
  0.9992308874317217  0.4156857917666770  0.7685863204253778
  0.3192635244894078  0.0874782390216637  0.7506449390415071
  0.1579371660464872  0.2466898575188239  0.9880754762613151
  0.9887343715656982  0.7515243907100171  0.2409164883834833
  0.3376610971729619  0.4190155663467507  0.2487762510947604
  0.1692738223483943  0.5799720615550044  0.5034573868294743
  0.0141533737675630  0.7511360308055117  0.7534651548180449
  0.6633099297980962  0.0828548186887303  0.2493006599682630
  0.4905501721889038  0.2517651422745715  0.5047284459635648
  0.3376572589225901  0.4237747683459219  0.7535667603508074
  0.1726272159610502  0.5888230908355681  0.9976979379509743
  0.6671943188903171  0.0857217626381654  0.7513811009268423
  0.5250366361720324  0.2615238525436965  0.0084200276213622
  0.3317907158926943  0.7451028044245760  0.2389023420411860
  0.1643877189324172  0.9112606234089498  0.5199221494528956
  0.6627555083501520  0.4164789768886905  0.2323718445690304
  0.4963416149677755  0.5809865456040981  0.5085490262533412
  0.3207804396040430  0.7467053107008468  0.7639796624401924
  0.1550748662192944  0.9141540937804393  0.9913886498968765
  0.8329438259527038  0.2452880184674910  0.5032970494836704
  0.6530797292113846  0.4194512492080733  0.7604858347981036
  0.5054311459016176  0.5870244779541238  0.9920691768129757
  0.8304622958595687  0.2520345255485523  0.0040809236032331
  0.6729593660152204  0.7498190459981515  0.2373736686161507
  0.4986549486129945  0.9184530093894807  0.4995961888169660
  0.8363701475553356  0.5836737527580880  0.4923344494670516
  0.6686058915559130  0.7503860758704164  0.7691399531776213
  0.5026271169379513  0.9142990766869730  0.0037256182762562
  0.8264864187178844  0.5911708944648382  0.9974062865306337
  0.8369178963466553  0.9131433800875470  0.4851787826981493
  0.8435499340030645  0.9121162628692829  0.0054865834445224
 
  0.00000000E+00  0.00000000E+00  0.00000000E+00
  0.00000000E+00  0.00000000E+00  0.00000000E+00
  0.00000000E+00  0.00000000E+00  0.00000000E+00
  0.00000000E+00  0.00000000E+00  0.00000000E+00
  0.00000000E+00  0.00000000E+00  0.00000000E+00
  0.00000000E+00  0.00000000E+00  0.00000000E+00
  0.00000000E+00  0.00000000E+00  0.00000000E+00
  0.00000000E+00  0.00000000E+00  0.00000000E+00
  0.00000000E+00  0.00000000E+00  0.00000000E+00
  0.00000000E+00  0.00000000E+00  0.00000000E+00
  0.00000000E+00  0.00000000E+00  0.00000000E+00
  0.00000000E+00  0.00000000E+00  0.00000000E+00
  0.00000000E+00  0.00000000E+00  0.00000000E+00
  0.00000000E+00  0.00000000E+00  0.00000000E+00
  0.00000000E+00  0.00000000E+00  0.00000000E+00
  0.00000000E+00  0.00000000E+00  0.00000000E+00
  0.00000000E+00  0.00000000E+00  0.00000000E+00
  0.00000000E+00  0.00000000E+00  0.00000000E+00
  0.00000000E+00  0.00000000E+00  0.00000000E+00
  0.00000000E+00  0.00000000E+00  0.00000000E+00
  0.00000000E+00  0.00000000E+00  0.00000000E+00
  0.00000000E+00  0.00000000E+00  0.00000000E+00
  0.00000000E+00  0.00000000E+00  0.00000000E+00
  0.00000000E+00  0.00000000E+00  0.00000000E+00
  0.00000000E+00  0.00000000E+00  0.00000000E+00
  0.00000000E+00  0.00000000E+00  0.00000000E+00
  0.00000000E+00  0.00000000E+00  0.00000000E+00
  0.00000000E+00  0.00000000E+00  0.00000000E+00
  0.00000000E+00  0.00000000E+00  0.00000000E+00
  0.00000000E+00  0.00000000E+00  0.00000000E+00
  0.00000000E+00  0.00000000E+00  0.00000000E+00
  0.00000000E+00  0.00000000E+00  0.00000000E+00
  0.00000000E+00  0.00000000E+00  0.00000000E+00
  0.00000000E+00  0.00000000E+00  0.00000000E+00
  0.00000000E+00  0.00000000E+00  0.00000000E+00
  0.00000000E+00  0.00000000E+00  0.00000000E+00
  0.00000000E+00  0.00000000E+00  0.00000000E+00
  0.00000000E+00  0.00000000E+00  0.00000000E+00
  0.00000000E+00  0.00000000E+00  0.00000000E+00
  0.00000000E+00  0.00000000E+00  0.00000000E+00
  0.00000000E+00  0.00000000E+00  0.00000000E+00
  0.00000000E+00  0.00000000E+00  0.00000000E+00
  0.00000000E+00  0.00000000E+00  0.00000000E+00
  0.00000000E+00  0.00000000E+00  0.00000000E+00
  0.00000000E+00  0.00000000E+00  0.00000000E+00
  0.00000000E+00  0.00000000E+00  0.00000000E+00
  0.00000000E+00  0.00000000E+00  0.00000000E+00
  0.00000000E+00  0.00000000E+00  0.00000000E+00
  0.00000000E+00  0.00000000E+00  0.00000000E+00
  0.00000000E+00  0.00000000E+00  0.00000000E+00
  0.00000000E+00  0.00000000E+00  0.00000000E+00
  0.00000000E+00  0.00000000E+00  0.00000000E+00
  0.00000000E+00  0.00000000E+00  0.00000000E+00
  0.00000000E+00  0.00000000E+00  0.00000000E+00
  0.00000000E+00  0.00000000E+00  0.00000000E+00
  0.00000000E+00  0.00000000E+00  0.00000000E+00
  0.00000000E+00  0.00000000E+00  0.00000000E+00
  0.00000000E+00  0.00000000E+00  0.00000000E+00
  0.00000000E+00  0.00000000E+00  0.00000000E+00
  0.00000000E+00  0.00000000E+00  0.00000000E+00
  0.00000000E+00  0.00000000E+00  0.00000000E+00
  0.00000000E+00  0.00000000E+00  0.00000000E+00
  0.00000000E+00  0.00000000E+00  0.00000000E+00
  0.00000000E+00  0.00000000E+00  0.00000000E+00
  0.00000000E+00  0.00000000E+00  0.00000000E+00
  0.00000000E+00  0.00000000E+00  0.00000000E+00
  0.00000000E+00  0.00000000E+00  0.00000000E+00
  0.00000000E+00  0.00000000E+00  0.00000000E+00
  0.00000000E+00  0.00000000E+00  0.00000000E+00
  0.00000000E+00  0.00000000E+00  0.00000000E+00
  0.00000000E+00  0.00000000E+00  0.00000000E+00
  0.00000000E+00  0.00000000E+00  0.00000000E+00
  0.00000000E+00  0.00000000E+00  0.00000000E+00
  0.00000000E+00  0.00000000E+00  0.00000000E+00
  0.00000000E+00  0.00000000E+00  0.00000000E+00
  0.00000000E+00  0.00000000E+00  0.00000000E+00
  0.00000000E+00  0.00000000E+00  0.00000000E+00
  0.00000000E+00  0.00000000E+00  0.00000000E+00
  0.00000000E+00  0.00000000E+00  0.00000000E+00
  0.00000000E+00  0.00000000E+00  0.00000000E+00
  0.00000000E+00  0.00000000E+00  0.00000000E+00
  0.00000000E+00  0.00000000E+00  0.00000000E+00
  0.00000000E+00  0.00000000E+00  0.00000000E+00
  0.00000000E+00  0.00000000E+00  0.00000000E+00
  0.00000000E+00  0.00000000E+00  0.00000000E+00
  0.00000000E+00  0.00000000E+00  0.00000000E+00
  0.00000000E+00  0.00000000E+00  0.00000000E+00
  0.00000000E+00  0.00000000E+00  0.00000000E+00
  0.00000000E+00  0.00000000E+00  0.00000000E+00
  0.00000000E+00  0.00000000E+00  0.00000000E+00
  0.00000000E+00  0.00000000E+00  0.00000000E+00
  0.00000000E+00  0.00000000E+00  0.00000000E+00
  0.00000000E+00  0.00000000E+00  0.00000000E+00
  0.00000000E+00  0.00000000E+00  0.00000000E+00
  0.00000000E+00  0.00000000E+00  0.00000000E+00
  0.00000000E+00  0.00000000E+00  0.00000000E+00
  0.00000000E+00  0.00000000E+00  0.00000000E+00
  0.00000000E+00  0.00000000E+00  0.00000000E+00
  0.00000000E+00  0.00000000E+00  0.00000000E+00
  0.00000000E+00  0.00000000E+00  0.00000000E+00
  0.00000000E+00  0.00000000E+00  0.00000000E+00
  0.00000000E+00  0.00000000E+00  0.00000000E+00
  0.00000000E+00  0.00000000E+00  0.00000000E+00
  0.00000000E+00  0.00000000E+00  0.00000000E+00
  0.00000000E+00  0.00000000E+00  0.00000000E+00
  0.00000000E+00  0.00000000E+00  0.00000000E+00
  0.00000000E+00  0.00000000E+00  0.00000000E+00
  0.00000000E+00  0.00000000E+00  0.00000000E+00
  0.00000000E+00  0.00000000E+00  0.00000000E+00
  0.00000000E+00  0.00000000E+00  0.00000000E+00
  0.00000000E+00  0.00000000E+00  0.00000000E+00
  0.00000000E+00  0.00000000E+00  0.00000000E+00
  0.00000000E+00  0.00000000E+00  0.00000000E+00
  0.00000000E+00  0.00000000E+00  0.00000000E+00
  0.00000000E+00  0.00000000E+00  0.00000000E+00
  0.00000000E+00  0.00000000E+00  0.00000000E+00
  0.00000000E+00  0.00000000E+00  0.00000000E+00
  0.00000000E+00  0.00000000E+00  0.00000000E+00
  0.00000000E+00  0.00000000E+00  0.00000000E+00
  0.00000000E+00  0.00000000E+00  0.00000000E+00
  0.00000000E+00  0.00000000E+00  0.00000000E+00
  0.00000000E+00  0.00000000E+00  0.00000000E+00
  0.00000000E+00  0.00000000E+00  0.00000000E+00
  0.00000000E+00  0.00000000E+00  0.00000000E+00
  0.00000000E+00  0.00000000E+00  0.00000000E+00
  0.00000000E+00  0.00000000E+00  0.00000000E+00
  0.00000000E+00  0.00000000E+00  0.00000000E+00
  0.00000000E+00  0.00000000E+00  0.00000000E+00
  0.00000000E+00  0.00000000E+00  0.00000000E+00
  0.00000000E+00  0.00000000E+00  0.00000000E+00
  0.00000000E+00  0.00000000E+00  0.00000000E+00
  0.00000000E+00  0.00000000E+00  0.00000000E+00
  0.00000000E+00  0.00000000E+00  0.00000000E+00
  0.00000000E+00  0.00000000E+00  0.00000000E+00
  0.00000000E+00  0.00000000E+00  0.00000000E+00
  0.00000000E+00  0.00000000E+00  0.00000000E+00
  0.00000000E+00  0.00000000E+00  0.00000000E+00
  0.00000000E+00  0.00000000E+00  0.00000000E+00
  0.00000000E+00  0.00000000E+00  0.00000000E+00
  0.00000000E+00  0.00000000E+00  0.00000000E+00
  0.00000000E+00  0.00000000E+00  0.00000000E+00
  0.00000000E+00  0.00000000E+00  0.00000000E+00
  0.00000000E+00  0.00000000E+00  0.00000000E+00
  0.00000000E+00  0.00000000E+00  0.00000000E+00
  0.00000000E+00  0.00000000E+00  0.00000000E+00
  0.00000000E+00  0.00000000E+00  0.00000000E+00
  0.00000000E+00  0.00000000E+00  0.00000000E+00
  0.00000000E+00  0.00000000E+00  0.00000000E+00
  0.00000000E+00  0.00000000E+00  0.00000000E+00
  0.00000000E+00  0.00000000E+00  0.00000000E+00
  0.00000000E+00  0.00000000E+00  0.00000000E+00
  0.00000000E+00  0.00000000E+00  0.00000000E+00
  0.00000000E+00  0.00000000E+00  0.00000000E+00
  0.00000000E+00  0.00000000E+00  0.00000000E+00
  0.00000000E+00  0.00000000E+00  0.00000000E+00
  0.00000000E+00  0.00000000E+00  0.00000000E+00
  0.00000000E+00  0.00000000E+00  0.00000000E+00
  0.00000000E+00  0.00000000E+00  0.00000000E+00
  0.00000000E+00  0.00000000E+00  0.00000000E+00
  0.00000000E+00  0.00000000E+00  0.00000000E+00
  0.00000000E+00  0.00000000E+00  0.00000000E+00
  0.00000000E+00  0.00000000E+00  0.00000000E+00
  0.00000000E+00  0.00000000E+00  0.00000000E+00
  0.00000000E+00  0.00000000E+00  0.00000000E+00
  0.00000000E+00  0.00000000E+00  0.00000000E+00
  0.00000000E+00  0.00000000E+00  0.00000000E+00
  0.00000000E+00  0.00000000E+00  0.00000000E+00
  0.00000000E+00  0.00000000E+00  0.00000000E+00
  0.00000000E+00  0.00000000E+00  0.00000000E+00
  0.00000000E+00  0.00000000E+00  0.00000000E+00
  0.00000000E+00  0.00000000E+00  0.00000000E+00
  0.00000000E+00  0.00000000E+00  0.00000000E+00
  0.00000000E+00  0.00000000E+00  0.00000000E+00
  0.00000000E+00  0.00000000E+00  0.00000000E+00
  0.00000000E+00  0.00000000E+00  0.00000000E+00
  0.00000000E+00  0.00000000E+00  0.00000000E+00
  0.00000000E+00  0.00000000E+00  0.00000000E+00
  0.00000000E+00  0.00000000E+00  0.00000000E+00
  0.00000000E+00  0.00000000E+00  0.00000000E+00
  0.00000000E+00  0.00000000E+00  0.00000000E+00
  0.00000000E+00  0.00000000E+00  0.00000000E+00
  0.00000000E+00  0.00000000E+00  0.00000000E+00
  0.00000000E+00  0.00000000E+00  0.00000000E+00
  0.00000000E+00  0.00000000E+00  0.00000000E+00
  0.00000000E+00  0.00000000E+00  0.00000000E+00
  0.00000000E+00  0.00000000E+00  0.00000000E+00
  0.00000000E+00  0.00000000E+00  0.00000000E+00
  0.00000000E+00  0.00000000E+00  0.00000000E+00
  0.00000000E+00  0.00000000E+00  0.00000000E+00
  0.00000000E+00  0.00000000E+00  0.00000000E+00
  0.00000000E+00  0.00000000E+00  0.00000000E+00
  0.00000000E+00  0.00000000E+00  0.00000000E+00
  0.00000000E+00  0.00000000E+00  0.00000000E+00
  0.00000000E+00  0.00000000E+00  0.00000000E+00
  0.00000000E+00  0.00000000E+00  0.00000000E+00
  0.00000000E+00  0.00000000E+00  0.00000000E+00
  0.00000000E+00  0.00000000E+00  0.00000000E+00
  0.00000000E+00  0.00000000E+00  0.00000000E+00
  0.00000000E+00  0.00000000E+00  0.00000000E+00
  0.00000000E+00  0.00000000E+00  0.00000000E+00
  0.00000000E+00  0.00000000E+00  0.00000000E+00
  0.00000000E+00  0.00000000E+00  0.00000000E+00
  0.00000000E+00  0.00000000E+00  0.00000000E+00
  0.00000000E+00  0.00000000E+00  0.00000000E+00
  0.00000000E+00  0.00000000E+00  0.00000000E+00
  0.00000000E+00  0.00000000E+00  0.00000000E+00
  0.00000000E+00  0.00000000E+00  0.00000000E+00
  0.00000000E+00  0.00000000E+00  0.00000000E+00
  0.00000000E+00  0.00000000E+00  0.00000000E+00
  0.00000000E+00  0.00000000E+00  0.00000000E+00
  0.00000000E+00  0.00000000E+00  0.00000000E+00
  0.00000000E+00  0.00000000E+00  0.00000000E+00
  0.00000000E+00  0.00000000E+00  0.00000000E+00
  0.00000000E+00  0.00000000E+00  0.00000000E+00
  0.00000000E+00  0.00000000E+00  0.00000000E+00
  0.00000000E+00  0.00000000E+00  0.00000000E+00
  0.00000000E+00  0.00000000E+00  0.00000000E+00
  0.00000000E+00  0.00000000E+00  0.00000000E+00
  0.00000000E+00  0.00000000E+00  0.00000000E+00
  0.00000000E+00  0.00000000E+00  0.00000000E+00
  0.00000000E+00  0.00000000E+00  0.00000000E+00
  0.00000000E+00  0.00000000E+00  0.00000000E+00
  0.00000000E+00  0.00000000E+00  0.00000000E+00
  0.00000000E+00  0.00000000E+00  0.00000000E+00
  0.00000000E+00  0.00000000E+00  0.00000000E+00
  0.00000000E+00  0.00000000E+00  0.00000000E+00
  0.00000000E+00  0.00000000E+00  0.00000000E+00
  0.00000000E+00  0.00000000E+00  0.00000000E+00
  0.00000000E+00  0.00000000E+00  0.00000000E+00
  0.00000000E+00  0.00000000E+00  0.00000000E+00
  0.00000000E+00  0.00000000E+00  0.00000000E+00
  0.00000000E+00  0.00000000E+00  0.00000000E+00
  0.00000000E+00  0.00000000E+00  0.00000000E+00
  0.00000000E+00  0.00000000E+00  0.00000000E+00
  0.00000000E+00  0.00000000E+00  0.00000000E+00
  0.00000000E+00  0.00000000E+00  0.00000000E+00
  0.00000000E+00  0.00000000E+00  0.00000000E+00
  0.00000000E+00  0.00000000E+00  0.00000000E+00
  0.00000000E+00  0.00000000E+00  0.00000000E+00
  0.00000000E+00  0.00000000E+00  0.00000000E+00
  0.00000000E+00  0.00000000E+00  0.00000000E+00
  0.00000000E+00  0.00000000E+00  0.00000000E+00
  0.00000000E+00  0.00000000E+00  0.00000000E+00
  0.00000000E+00  0.00000000E+00  0.00000000E+00
  0.00000000E+00  0.00000000E+00  0.00000000E+00
  0.00000000E+00  0.00000000E+00  0.00000000E+00
  0.00000000E+00  0.00000000E+00  0.00000000E+00
  0.00000000E+00  0.00000000E+00  0.00000000E+00
  0.00000000E+00  0.00000000E+00  0.00000000E+00
  0.00000000E+00  0.00000000E+00  0.00000000E+00
  0.00000000E+00  0.00000000E+00  0.00000000E+00
  0.00000000E+00  0.00000000E+00  0.00000000E+00
