POSCAR                                  
   1.00000000000000     
    10.3161799921562007   -0.0268169856670361    0.0305687344898519
    -0.0269080783733950   10.3465818089375468    0.0329407590137180
     0.0202364828518992    0.0218294060073458    6.8517289961425645
   Y    Sc   Zr   K    H 
     9     9     9     9   216
Direct
  0.1748100789975603  0.1650626376762358  0.2468354905114465
  0.1728675782672685  0.5001909002040870  0.2497517312249069
  0.3324880024412987  0.3295736657007656 -0.0000613814369241
  0.8333750742569772  0.1743890507146675  0.2500776761706851
  0.4978169176764753  0.4996447449599792  0.7486327779863873
  0.6695952236966167  0.3336325774529741  0.0013713193973557
  0.4917601010938549  0.8343891073268239  0.7574666862474705
  0.0030148703083883  0.0019906181257246  0.5003772700719294
  0.0004578258948580 -0.0004956946888481 -0.0005940207106852
  0.1600292904560791  0.1721435460854688  0.7455896129203915
  0.5033621503402640  0.1655353579347125  0.2542254659923047
  0.1714513952041560  0.4925273117915226  0.7473937614042565
  0.5073057069248457  0.4929281481940754  0.2538624023035453
  0.6709675817280233  0.3328280465280083  0.4949007236794147
  0.3339815786957013  0.0037959907704986  0.5058204490679206
  0.0012143360168069  0.3390357296402394  0.4981044813676730
  0.8225550402992435  0.4911541899458043  0.7333888608352107
  0.6640835090394386  0.0052582049087835  0.5020066010277818
  0.3403923827135246  0.3248202403096018  0.5022582995332072
  0.5095934492907375  0.1637571249314619  0.7519214519644513
  0.3287826515287249  0.6659878186745998  0.5000966757270303
  0.1637737605758460  0.8231857032303781  0.7503765623251459
  0.4980210573269285  0.8398276621740580  0.2526910198071687
  0.6658099232134653  0.6675154253765231  0.4986442095937433
  0.6622186372946696  0.6683551636435774 -0.0013170114684530
  0.8327471538049149  0.8379277102603222  0.2559159139540657
  0.8271984324623983  0.8415620066774353  0.7468677094886863
  0.1683978088039450  0.8328313326490300  0.2433417842322586
  0.3276768702562468  0.6619413764807904  0.0071674448618687
  0.8410144103557586  0.1712255216969466  0.7543408037603269
  0.8468168410951594  0.5166737388537470  0.2355769830444684
  0.3295804182093088 -0.0059991096050136  0.0056187356681817
 -0.0049350645862532  0.3303527608557891 -0.0075206508369024
 -0.0035076294306858  0.6637516676427465  0.5021810854003923
  0.6656479168603674  0.0012187809155326 -0.0012746386659204
 -0.0131907153083346  0.6534279020306378  0.0098663005556840
  0.1704581448558976  0.0813204402631999 -0.0227686200205843
  0.1739229053667275  0.0840163499171605  0.5150725478083127
  0.1645629514706727  0.4112262790417240 -0.0058911104149525
  0.4983798806383835  0.0827744425904781  0.0103758035281519
  0.3474012580647505  0.2465406296281805  0.2547305502976484
  0.1670663239937369  0.4131472108182828  0.5026903722954910
  0.5008672906770569  0.0838597076888765  0.5002870624720553
  0.3230171121841081  0.2432051134791910  0.7504442617955652
  0.1565963652974467  0.7385640052661862  0.0049644142129996
  0.5022519349816642  0.4121578124074814  0.0053547190418346
  0.3487342752983480  0.5779219270895661  0.2573606725235569
  0.1642262025543663  0.7491933902453397  0.4969400153700917
  0.8318484734495831  0.0814143654953531  0.0046572893571121
  0.6628524824203230  0.2519713557700152  0.2615710659246567
  0.5103958409484036  0.4141288594865227  0.4934228238243700
  0.3265218352841887  0.5776609917444202  0.7502316916858051
  0.8285712871573897  0.0862948179579762  0.5015605377187992
  0.6760564482833183  0.2510892735178485  0.7293613739314865
  0.4926647779177867  0.7470728651077163  0.0147797940014280
  0.3314501241651979  0.9238464656563993  0.2716363174731112
  0.8415399279826379  0.4287300524374765 -0.0170072529055570
  0.6692521716280359  0.5819647227008932  0.2496503254546574
  0.4956738541481556  0.7512260795741431  0.4955556193810771
  0.3198470723017431  0.9219453374675018  0.7444024381606189
  0.0096654381615587  0.2504660727591648  0.2562023703096923
  0.8233146188577876  0.4258941504025019  0.4862975794284127
  0.6766355661427330  0.5843995313945787  0.7523450778812785
  0.0088507208725304  0.2515350697690433  0.7326312284109524
  0.8323814909686864  0.7485517386936557 -0.0196112661609286
  0.6659123880859829  0.9196682945789051  0.2548080032016342
  0.0218277164360136  0.5901224893902310  0.2631337415819781
  0.8332170254448067  0.7517248462478734  0.5128527725195490
  0.6592991259961565  0.9188206710010152  0.7436321277704290
 -0.0257151471537148  0.5798982710465533  0.7516500935453972
  0.0044509971466440  0.9215408629676524  0.2532190217425781
  0.0113003705806912  0.9177881507936501  0.7512319035115335
  0.0853759853797448  0.1715632713380833 -0.0124576044544679
  0.0867342605210713  0.1726818010492832  0.5033141018832128
  0.0728721399478829  0.4945425501051613 -0.0278390021464086
  0.4121029451219012  0.1591480427176444 -0.0127770706750532
  0.2546549602550608  0.3341178461748013  0.2587245711734014
  0.0812369343175343  0.4974313770237035  0.5235367511671354
  0.4207437809589242  0.1575915217061746  0.5063105320203016
  0.2495161135970075  0.3207154930356824  0.7442361233707379
  0.0697365423420885  0.8239826793528437 -0.0001595746218261
  0.4215354415947760  0.5012734205763403  0.0090642677740666
  0.2603464134842600  0.6713139906734695  0.2598529616134940
  0.0843540398991068  0.8305684461843653  0.5009852627785277
  0.7514567393210798  0.1684178249909650  0.0004256551775024
  0.5844660105814420  0.3302385735345068  0.2584272806278876
  0.4188367518454834  0.4992812251645704  0.4932934654869115
  0.2452224602403718  0.6657435899666355  0.7569795172074233
  0.7526607001971051  0.1744617857085201  0.5031621370025154
  0.5849560250421432  0.3332294491433525  0.7404709266670532
  0.4115914550229028  0.8261510968740811  0.0138960043774424
  0.2610165533448961 -0.0047527108488867  0.2687359230706924
  0.7472463150738884  0.5031692655293307 -0.0036862705925759
  0.5791350085280457  0.6671632300177303  0.2564464337601953
  0.4100408390068061  0.8415327336616441  0.5037617050803139
  0.2526091194855083  0.0150849935263153  0.7518553894579423
  0.9228074150844640  0.3491148974960679  0.2615177921077539
  0.7542108136694511  0.4867634302956516  0.4848963773636389
  0.5805840486434417  0.6688412101918912  0.7433022504376965
  0.9173521132962122  0.3498611176664962  0.7339702234764947
  0.7461890447358440  0.8339105743696313  0.0069107648677074
  0.5861387695856510  0.0045619637067180  0.2590990889197345
  0.9172190569469807  0.6897761627147472  0.2604126500771115
  0.7442617020428220  0.8432221326316042  0.5000958525327615
  0.5839151592210831 -0.0030025045596260  0.7417133104279260
  0.9157702569654540  0.6429007054740958  0.7535538426598537
  0.9131823827568152  0.0033815822061842  0.2565849686052585
  0.9127612228695614  0.0003556810026877  0.7449398635648006
  0.1633094978422262  0.0018138935536370  0.1205116149861117
  0.1671669012200669  0.0043249499629867  0.6312070096821158
  0.1609328583051989  0.3334174728174932  0.1160275773117812
  0.4971129317330855  0.0081994139541902  0.1288764074923915
  0.3417996295107557  0.1645039081687704  0.3822428355631219
  0.1691334737757818  0.3339270376671449  0.6267857179269826
  0.4986160756410922  0.0020293466068522  0.6215157421790363
  0.3479247809014296  0.1604781744828727  0.8799078562811925
  0.1556157503022762  0.6727822466681979  0.1122604554747004
  0.5011487564593599  0.3350028965586851  0.1302822252588375
  0.3421414050677254  0.4912419780051037  0.3767333874260781
  0.1604337587938120  0.6486981076256176  0.6299844727194165
  0.8304710733925107 -0.0000579529628858  0.1225732796469857
  0.6641174673837871  0.1680790126094256  0.3796586942702405
  0.5061086657814803  0.3301926228439176  0.6192822238513099
  0.3247997717746175  0.4993437604527575  0.8784790442703078
  0.8323864504052969  0.0050155527868190  0.6239874631926189
  0.6678318803332132  0.1680891474653918  0.8755517535998758
  0.5000406092984034  0.6545389311320967  0.1289085686756805
  0.3334919873792996  0.8335857903488176  0.3828456625013836
  0.8314948961904147  0.3456428385933098  0.1252754390283770
  0.6691201491264823  0.5068474403745570  0.3681473518615205
  0.4983475909802303  0.6664853835513608  0.6209440568012913
  0.3197975949575876  0.8276049855916678  0.8866568030328525
  0.0060831515186670  0.1758342009526874  0.3745015946438623
  0.8363106750075396  0.3347525186464227  0.6132466892212857
  0.6677535602291468  0.4972061970983197  0.8642562387061958
  0.0099094064431878  0.1652882077232954  0.8767621884797971
  0.8182505664127930  0.6851720693543052  0.1204735872704176
  0.6629520840375872  0.8314620303840574  0.3777076876294858
  0.0062248446274672  0.4956827743526979  0.3801773881683598
  0.8284450157168849  0.6740299040399419  0.6307642052354338
  0.6657978376996450  0.8351737818235491  0.8743567291328466
  0.0189508852728827  0.4974592117710412  0.8700701815360822
  0.0001826729656325  0.8349037750459051  0.3778098042903639
 -0.0133716208917590  0.8249866537557148  0.8802762832155090
  0.0864418128991837 -0.0047096401754731  0.2492329410353106
  0.0872380703451193 -0.0151660514772439  0.7475492599109206
  0.0850679641484124  0.3331301719930018  0.2541868926150462
  0.4206255011877756  0.0091662681003607  0.2603736382870924
  0.2525195757399865  0.1613306003824625  0.5127540479791246
  0.0812503827043337  0.3452180659069629  0.7410728302058878
  0.4112478308833643  0.0073323902571152  0.7473419371170109
  0.2512139368322740  0.1606208034675675 -0.0202385664652436
  0.0824860463470576  0.6562920761429475  0.2490327725406058
  0.4236415910340423  0.3283955373217247  0.2535971402812169
  0.2546108725470863  0.4937861120862221  0.5035839380651973
  0.0702582080643597  0.6691593790420408  0.7584387738640571
  0.7474714507095206  0.0016343497165604  0.2584095842861671
  0.5862368678599880  0.1663228689973953  0.4955680881275735
  0.4213185670711577  0.3233861652022855  0.7496552465844831
  0.2545388656590343  0.4938868739973133 -0.0096704868351436
  0.7462731550339469  0.0102153275003608  0.7390170326992546
  0.5843367268181758  0.1657340982677712  0.0216954289515197
  0.4237262490529225  0.6622894282814239  0.2556206841707970
  0.2485792516559995  0.8427334700727637  0.4991380047551269
  0.7566912834523079  0.3492388929265476  0.2603281078880690
  0.5852964158759802  0.4934776292830326  0.4921789413940983
  0.4104975509195118  0.6648578667427352  0.7492525794970200
  0.2425321792440923  0.8293898603852796 -0.0161323713579483
  0.9210960040748065  0.1763101532859616  0.5013938616654502
  0.7480423543378799  0.3308313810504584  0.7320464233082440
  0.5841182969118633  0.5011968424875584  0.0004397626932456
  0.9211343688364930  0.1648875978683527  0.0052144715314264
  0.7414346927773808  0.6701517489233916  0.2503461690328960
  0.5813973151065719  0.8431731862021506  0.4986611411955580
  0.9171049219407937  0.4912985273051735  0.5070527009592899
  0.7478654793190311  0.6657600907876715  0.7419730274594121
  0.5856069530566150  0.8314621332946788  0.0075511282300502
  0.9078824156720764  0.4893418178441067 -0.0428918860730983
  0.9186529333298198  0.8313346191507540  0.5097997779634093
  0.9127008276519681  0.8258272336870566 -0.0151021687888630
  0.0038620586547743  0.1689311690144178  0.1259327940820991
  0.0034623652792289  0.1764629197874648  0.6208941606073237
  0.0171684300566536  0.4848403879895659  0.1252655766365021
  0.3481503335707589  0.1619046860186920  0.1249501408374990
  0.1670869597857069  0.3330338185102905  0.3844329473399722
  0.0138307480673642  0.5000612984368676  0.6290088679097624
  0.3382572247017013  0.1648875472482071  0.6327684675534316
  0.1634173147955523  0.3347441363559261  0.8689144653238838
  0.0030105816403250  0.8258617748674953  0.1171445502649823
  0.3451866058847058  0.4951677107055040  0.1313959642926101
  0.1684580890208063  0.6693947012436221  0.3829795529941229
 -0.0090395090830628  0.8316259543723059  0.6274137209210316
  0.6568957671002728  0.1647596846848605  0.1227740462325116
  0.5071524640078388  0.3286176165522816  0.3738299266229482
  0.3310536089083522  0.4927891237952736  0.6195324522122458
  0.1573259064517541  0.6434183177938868  0.8760672045661383
  0.6703982655532836  0.1712817133570884  0.6259005432573406
  0.5017366067814688  0.3300898626038952  0.8794975795644114
  0.3420389141487233  0.8276171993953387  0.1362997742994966
  0.1722500394712853 -0.0023644559979206  0.3805442355573092
  0.6702802938591007  0.5020231696134617  0.1292906605872754
  0.5033081791327753  0.6619091821002753  0.3661872254217655
  0.3306767861817704  0.8348674940535997  0.6209902689871485
  0.1658404313320126  0.0140101468493830  0.8705117374916284
  0.8323646860105169  0.3444283567506705  0.3689612592852651
  0.6641696655218104  0.5006308059203941  0.6148715927665153
  0.4961454233751705  0.6648328467736383  0.8861573691496741
  0.8293293193766098  0.3415431371128946  0.8660590486751797
  0.6689325002901085  0.8368384168165823  0.1289902760097502
  0.5024144312243363  0.0061477459259783  0.3831036449307716
  0.8259301990936870  0.6744973927882710  0.3752812691936041
  0.6621431433060836  0.8339330544877686  0.6171102810652862
  0.4976489267901242  0.0019897219620126  0.8846884333395767
  0.8283617274514102  0.6808117225861987  0.8734435181081052
  0.8311271026777656  0.0038657232851351  0.3766954216971719
  0.8318914518530324  0.0000370939025887  0.8791279657510013
  0.0018963102968079  0.0877357295961658  0.2536013376375940
  0.0078185075990277  0.0866898648963801  0.7464063982872147
  0.0005732653036418  0.4138037976507760  0.2431045926484333
  0.3480435859750565  0.0805032128599716  0.2575232411140304
  0.1645736905780773  0.2524104582172919  0.5019493230855936
 -0.0012566792002013  0.4106411067623250  0.7404074508681839
  0.3151430458470295  0.0800822376007424  0.7519352170771717
  0.1592377830588882  0.2503122939186100 -0.0051805897969142
 -0.0120098420415107  0.7549790374169183  0.2477243647395556
  0.3445055484369117  0.4162024709266278  0.2634698240897159
  0.1649805613266537  0.5829470172311263  0.5207836459675559
 -0.0010649193063487  0.7371324475117345  0.7588388865859819
  0.6616687344587114  0.0834690102387387  0.2602255005335804
  0.5099816857071312  0.2463963011856935  0.4986087401858171
  0.3321002157658118  0.4130195992154201  0.7415966790481068
  0.1597785662582357  0.5812926928690846 -0.0233785780117956
  0.6762421687915787  0.0831846531036537  0.7382705329541434
  0.5012192068574863  0.2463664577766038  0.0073053093466372
  0.3348317964781820  0.7492834678030367  0.2530416136625510
  0.1793063977595767  0.9168293224614603  0.5009690554365506
  0.6728426048901983  0.4206753057072395  0.2530060330259182
  0.4996694862941192  0.5816452177698945  0.4868741131226589
  0.3244778284602527  0.7433543140280164  0.7517726725227517
  0.1650893720310778  0.9126523632675348 -0.0164746843220858
  0.8322225019874847  0.2549342109598713  0.5052333999765208
  0.6645296221470745  0.4165452559711025  0.7425481385051034
  0.4956315259991953  0.5801695350383127  0.0153281439279489
  0.8300955641707470  0.2505195285242494 -0.0007337882346456
  0.6595317935160359  0.7507389186843149  0.2511010891364724
  0.4961638753210311  0.9210779761306264  0.5027380035579214
  0.8260488103264112  0.5847926394759310  0.5068190678655360
  0.6659942192940858  0.7525274421532437  0.7456343224760109
  0.4994445218393376  0.9229193231120654  0.0039137084298503
  0.8174521083136717  0.5853415052878149 -0.0438081674285389
  0.8234691210257106  0.9232047740031999  0.4982711368408290
  0.8302170781210775  0.9191251379961973  0.0088038203507100
 
  0.00000000E+00  0.00000000E+00  0.00000000E+00
  0.00000000E+00  0.00000000E+00  0.00000000E+00
  0.00000000E+00  0.00000000E+00  0.00000000E+00
  0.00000000E+00  0.00000000E+00  0.00000000E+00
  0.00000000E+00  0.00000000E+00  0.00000000E+00
  0.00000000E+00  0.00000000E+00  0.00000000E+00
  0.00000000E+00  0.00000000E+00  0.00000000E+00
  0.00000000E+00  0.00000000E+00  0.00000000E+00
  0.00000000E+00  0.00000000E+00  0.00000000E+00
  0.00000000E+00  0.00000000E+00  0.00000000E+00
  0.00000000E+00  0.00000000E+00  0.00000000E+00
  0.00000000E+00  0.00000000E+00  0.00000000E+00
  0.00000000E+00  0.00000000E+00  0.00000000E+00
  0.00000000E+00  0.00000000E+00  0.00000000E+00
  0.00000000E+00  0.00000000E+00  0.00000000E+00
  0.00000000E+00  0.00000000E+00  0.00000000E+00
  0.00000000E+00  0.00000000E+00  0.00000000E+00
  0.00000000E+00  0.00000000E+00  0.00000000E+00
  0.00000000E+00  0.00000000E+00  0.00000000E+00
  0.00000000E+00  0.00000000E+00  0.00000000E+00
  0.00000000E+00  0.00000000E+00  0.00000000E+00
  0.00000000E+00  0.00000000E+00  0.00000000E+00
  0.00000000E+00  0.00000000E+00  0.00000000E+00
  0.00000000E+00  0.00000000E+00  0.00000000E+00
  0.00000000E+00  0.00000000E+00  0.00000000E+00
  0.00000000E+00  0.00000000E+00  0.00000000E+00
  0.00000000E+00  0.00000000E+00  0.00000000E+00
  0.00000000E+00  0.00000000E+00  0.00000000E+00
  0.00000000E+00  0.00000000E+00  0.00000000E+00
  0.00000000E+00  0.00000000E+00  0.00000000E+00
  0.00000000E+00  0.00000000E+00  0.00000000E+00
  0.00000000E+00  0.00000000E+00  0.00000000E+00
  0.00000000E+00  0.00000000E+00  0.00000000E+00
  0.00000000E+00  0.00000000E+00  0.00000000E+00
  0.00000000E+00  0.00000000E+00  0.00000000E+00
  0.00000000E+00  0.00000000E+00  0.00000000E+00
  0.00000000E+00  0.00000000E+00  0.00000000E+00
  0.00000000E+00  0.00000000E+00  0.00000000E+00
  0.00000000E+00  0.00000000E+00  0.00000000E+00
  0.00000000E+00  0.00000000E+00  0.00000000E+00
  0.00000000E+00  0.00000000E+00  0.00000000E+00
  0.00000000E+00  0.00000000E+00  0.00000000E+00
  0.00000000E+00  0.00000000E+00  0.00000000E+00
  0.00000000E+00  0.00000000E+00  0.00000000E+00
  0.00000000E+00  0.00000000E+00  0.00000000E+00
  0.00000000E+00  0.00000000E+00  0.00000000E+00
  0.00000000E+00  0.00000000E+00  0.00000000E+00
  0.00000000E+00  0.00000000E+00  0.00000000E+00
  0.00000000E+00  0.00000000E+00  0.00000000E+00
  0.00000000E+00  0.00000000E+00  0.00000000E+00
  0.00000000E+00  0.00000000E+00  0.00000000E+00
  0.00000000E+00  0.00000000E+00  0.00000000E+00
  0.00000000E+00  0.00000000E+00  0.00000000E+00
  0.00000000E+00  0.00000000E+00  0.00000000E+00
  0.00000000E+00  0.00000000E+00  0.00000000E+00
  0.00000000E+00  0.00000000E+00  0.00000000E+00
  0.00000000E+00  0.00000000E+00  0.00000000E+00
  0.00000000E+00  0.00000000E+00  0.00000000E+00
  0.00000000E+00  0.00000000E+00  0.00000000E+00
  0.00000000E+00  0.00000000E+00  0.00000000E+00
  0.00000000E+00  0.00000000E+00  0.00000000E+00
  0.00000000E+00  0.00000000E+00  0.00000000E+00
  0.00000000E+00  0.00000000E+00  0.00000000E+00
  0.00000000E+00  0.00000000E+00  0.00000000E+00
  0.00000000E+00  0.00000000E+00  0.00000000E+00
  0.00000000E+00  0.00000000E+00  0.00000000E+00
  0.00000000E+00  0.00000000E+00  0.00000000E+00
  0.00000000E+00  0.00000000E+00  0.00000000E+00
  0.00000000E+00  0.00000000E+00  0.00000000E+00
  0.00000000E+00  0.00000000E+00  0.00000000E+00
  0.00000000E+00  0.00000000E+00  0.00000000E+00
  0.00000000E+00  0.00000000E+00  0.00000000E+00
  0.00000000E+00  0.00000000E+00  0.00000000E+00
  0.00000000E+00  0.00000000E+00  0.00000000E+00
  0.00000000E+00  0.00000000E+00  0.00000000E+00
  0.00000000E+00  0.00000000E+00  0.00000000E+00
  0.00000000E+00  0.00000000E+00  0.00000000E+00
  0.00000000E+00  0.00000000E+00  0.00000000E+00
  0.00000000E+00  0.00000000E+00  0.00000000E+00
  0.00000000E+00  0.00000000E+00  0.00000000E+00
  0.00000000E+00  0.00000000E+00  0.00000000E+00
  0.00000000E+00  0.00000000E+00  0.00000000E+00
  0.00000000E+00  0.00000000E+00  0.00000000E+00
  0.00000000E+00  0.00000000E+00  0.00000000E+00
  0.00000000E+00  0.00000000E+00  0.00000000E+00
  0.00000000E+00  0.00000000E+00  0.00000000E+00
  0.00000000E+00  0.00000000E+00  0.00000000E+00
  0.00000000E+00  0.00000000E+00  0.00000000E+00
  0.00000000E+00  0.00000000E+00  0.00000000E+00
  0.00000000E+00  0.00000000E+00  0.00000000E+00
  0.00000000E+00  0.00000000E+00  0.00000000E+00
  0.00000000E+00  0.00000000E+00  0.00000000E+00
  0.00000000E+00  0.00000000E+00  0.00000000E+00
  0.00000000E+00  0.00000000E+00  0.00000000E+00
  0.00000000E+00  0.00000000E+00  0.00000000E+00
  0.00000000E+00  0.00000000E+00  0.00000000E+00
  0.00000000E+00  0.00000000E+00  0.00000000E+00
  0.00000000E+00  0.00000000E+00  0.00000000E+00
  0.00000000E+00  0.00000000E+00  0.00000000E+00
  0.00000000E+00  0.00000000E+00  0.00000000E+00
  0.00000000E+00  0.00000000E+00  0.00000000E+00
  0.00000000E+00  0.00000000E+00  0.00000000E+00
  0.00000000E+00  0.00000000E+00  0.00000000E+00
  0.00000000E+00  0.00000000E+00  0.00000000E+00
  0.00000000E+00  0.00000000E+00  0.00000000E+00
  0.00000000E+00  0.00000000E+00  0.00000000E+00
  0.00000000E+00  0.00000000E+00  0.00000000E+00
  0.00000000E+00  0.00000000E+00  0.00000000E+00
  0.00000000E+00  0.00000000E+00  0.00000000E+00
  0.00000000E+00  0.00000000E+00  0.00000000E+00
  0.00000000E+00  0.00000000E+00  0.00000000E+00
  0.00000000E+00  0.00000000E+00  0.00000000E+00
  0.00000000E+00  0.00000000E+00  0.00000000E+00
  0.00000000E+00  0.00000000E+00  0.00000000E+00
  0.00000000E+00  0.00000000E+00  0.00000000E+00
  0.00000000E+00  0.00000000E+00  0.00000000E+00
  0.00000000E+00  0.00000000E+00  0.00000000E+00
  0.00000000E+00  0.00000000E+00  0.00000000E+00
  0.00000000E+00  0.00000000E+00  0.00000000E+00
  0.00000000E+00  0.00000000E+00  0.00000000E+00
  0.00000000E+00  0.00000000E+00  0.00000000E+00
  0.00000000E+00  0.00000000E+00  0.00000000E+00
  0.00000000E+00  0.00000000E+00  0.00000000E+00
  0.00000000E+00  0.00000000E+00  0.00000000E+00
  0.00000000E+00  0.00000000E+00  0.00000000E+00
  0.00000000E+00  0.00000000E+00  0.00000000E+00
  0.00000000E+00  0.00000000E+00  0.00000000E+00
  0.00000000E+00  0.00000000E+00  0.00000000E+00
  0.00000000E+00  0.00000000E+00  0.00000000E+00
  0.00000000E+00  0.00000000E+00  0.00000000E+00
  0.00000000E+00  0.00000000E+00  0.00000000E+00
  0.00000000E+00  0.00000000E+00  0.00000000E+00
  0.00000000E+00  0.00000000E+00  0.00000000E+00
  0.00000000E+00  0.00000000E+00  0.00000000E+00
  0.00000000E+00  0.00000000E+00  0.00000000E+00
  0.00000000E+00  0.00000000E+00  0.00000000E+00
  0.00000000E+00  0.00000000E+00  0.00000000E+00
  0.00000000E+00  0.00000000E+00  0.00000000E+00
  0.00000000E+00  0.00000000E+00  0.00000000E+00
  0.00000000E+00  0.00000000E+00  0.00000000E+00
  0.00000000E+00  0.00000000E+00  0.00000000E+00
  0.00000000E+00  0.00000000E+00  0.00000000E+00
  0.00000000E+00  0.00000000E+00  0.00000000E+00
  0.00000000E+00  0.00000000E+00  0.00000000E+00
  0.00000000E+00  0.00000000E+00  0.00000000E+00
  0.00000000E+00  0.00000000E+00  0.00000000E+00
  0.00000000E+00  0.00000000E+00  0.00000000E+00
  0.00000000E+00  0.00000000E+00  0.00000000E+00
  0.00000000E+00  0.00000000E+00  0.00000000E+00
  0.00000000E+00  0.00000000E+00  0.00000000E+00
  0.00000000E+00  0.00000000E+00  0.00000000E+00
  0.00000000E+00  0.00000000E+00  0.00000000E+00
  0.00000000E+00  0.00000000E+00  0.00000000E+00
  0.00000000E+00  0.00000000E+00  0.00000000E+00
  0.00000000E+00  0.00000000E+00  0.00000000E+00
  0.00000000E+00  0.00000000E+00  0.00000000E+00
  0.00000000E+00  0.00000000E+00  0.00000000E+00
  0.00000000E+00  0.00000000E+00  0.00000000E+00
  0.00000000E+00  0.00000000E+00  0.00000000E+00
  0.00000000E+00  0.00000000E+00  0.00000000E+00
  0.00000000E+00  0.00000000E+00  0.00000000E+00
  0.00000000E+00  0.00000000E+00  0.00000000E+00
  0.00000000E+00  0.00000000E+00  0.00000000E+00
  0.00000000E+00  0.00000000E+00  0.00000000E+00
  0.00000000E+00  0.00000000E+00  0.00000000E+00
  0.00000000E+00  0.00000000E+00  0.00000000E+00
  0.00000000E+00  0.00000000E+00  0.00000000E+00
  0.00000000E+00  0.00000000E+00  0.00000000E+00
  0.00000000E+00  0.00000000E+00  0.00000000E+00
  0.00000000E+00  0.00000000E+00  0.00000000E+00
  0.00000000E+00  0.00000000E+00  0.00000000E+00
  0.00000000E+00  0.00000000E+00  0.00000000E+00
  0.00000000E+00  0.00000000E+00  0.00000000E+00
  0.00000000E+00  0.00000000E+00  0.00000000E+00
  0.00000000E+00  0.00000000E+00  0.00000000E+00
  0.00000000E+00  0.00000000E+00  0.00000000E+00
  0.00000000E+00  0.00000000E+00  0.00000000E+00
  0.00000000E+00  0.00000000E+00  0.00000000E+00
  0.00000000E+00  0.00000000E+00  0.00000000E+00
  0.00000000E+00  0.00000000E+00  0.00000000E+00
  0.00000000E+00  0.00000000E+00  0.00000000E+00
  0.00000000E+00  0.00000000E+00  0.00000000E+00
  0.00000000E+00  0.00000000E+00  0.00000000E+00
  0.00000000E+00  0.00000000E+00  0.00000000E+00
  0.00000000E+00  0.00000000E+00  0.00000000E+00
  0.00000000E+00  0.00000000E+00  0.00000000E+00
  0.00000000E+00  0.00000000E+00  0.00000000E+00
  0.00000000E+00  0.00000000E+00  0.00000000E+00
  0.00000000E+00  0.00000000E+00  0.00000000E+00
  0.00000000E+00  0.00000000E+00  0.00000000E+00
  0.00000000E+00  0.00000000E+00  0.00000000E+00
  0.00000000E+00  0.00000000E+00  0.00000000E+00
  0.00000000E+00  0.00000000E+00  0.00000000E+00
  0.00000000E+00  0.00000000E+00  0.00000000E+00
  0.00000000E+00  0.00000000E+00  0.00000000E+00
  0.00000000E+00  0.00000000E+00  0.00000000E+00
  0.00000000E+00  0.00000000E+00  0.00000000E+00
  0.00000000E+00  0.00000000E+00  0.00000000E+00
  0.00000000E+00  0.00000000E+00  0.00000000E+00
  0.00000000E+00  0.00000000E+00  0.00000000E+00
  0.00000000E+00  0.00000000E+00  0.00000000E+00
  0.00000000E+00  0.00000000E+00  0.00000000E+00
  0.00000000E+00  0.00000000E+00  0.00000000E+00
  0.00000000E+00  0.00000000E+00  0.00000000E+00
  0.00000000E+00  0.00000000E+00  0.00000000E+00
  0.00000000E+00  0.00000000E+00  0.00000000E+00
  0.00000000E+00  0.00000000E+00  0.00000000E+00
  0.00000000E+00  0.00000000E+00  0.00000000E+00
  0.00000000E+00  0.00000000E+00  0.00000000E+00
  0.00000000E+00  0.00000000E+00  0.00000000E+00
  0.00000000E+00  0.00000000E+00  0.00000000E+00
  0.00000000E+00  0.00000000E+00  0.00000000E+00
  0.00000000E+00  0.00000000E+00  0.00000000E+00
  0.00000000E+00  0.00000000E+00  0.00000000E+00
  0.00000000E+00  0.00000000E+00  0.00000000E+00
  0.00000000E+00  0.00000000E+00  0.00000000E+00
  0.00000000E+00  0.00000000E+00  0.00000000E+00
  0.00000000E+00  0.00000000E+00  0.00000000E+00
  0.00000000E+00  0.00000000E+00  0.00000000E+00
  0.00000000E+00  0.00000000E+00  0.00000000E+00
  0.00000000E+00  0.00000000E+00  0.00000000E+00
  0.00000000E+00  0.00000000E+00  0.00000000E+00
  0.00000000E+00  0.00000000E+00  0.00000000E+00
  0.00000000E+00  0.00000000E+00  0.00000000E+00
  0.00000000E+00  0.00000000E+00  0.00000000E+00
  0.00000000E+00  0.00000000E+00  0.00000000E+00
  0.00000000E+00  0.00000000E+00  0.00000000E+00
  0.00000000E+00  0.00000000E+00  0.00000000E+00
  0.00000000E+00  0.00000000E+00  0.00000000E+00
  0.00000000E+00  0.00000000E+00  0.00000000E+00
  0.00000000E+00  0.00000000E+00  0.00000000E+00
  0.00000000E+00  0.00000000E+00  0.00000000E+00
  0.00000000E+00  0.00000000E+00  0.00000000E+00
  0.00000000E+00  0.00000000E+00  0.00000000E+00
  0.00000000E+00  0.00000000E+00  0.00000000E+00
  0.00000000E+00  0.00000000E+00  0.00000000E+00
  0.00000000E+00  0.00000000E+00  0.00000000E+00
  0.00000000E+00  0.00000000E+00  0.00000000E+00
  0.00000000E+00  0.00000000E+00  0.00000000E+00
  0.00000000E+00  0.00000000E+00  0.00000000E+00
  0.00000000E+00  0.00000000E+00  0.00000000E+00
  0.00000000E+00  0.00000000E+00  0.00000000E+00
  0.00000000E+00  0.00000000E+00  0.00000000E+00
  0.00000000E+00  0.00000000E+00  0.00000000E+00
  0.00000000E+00  0.00000000E+00  0.00000000E+00
  0.00000000E+00  0.00000000E+00  0.00000000E+00
  0.00000000E+00  0.00000000E+00  0.00000000E+00
  0.00000000E+00  0.00000000E+00  0.00000000E+00
  0.00000000E+00  0.00000000E+00  0.00000000E+00
  0.00000000E+00  0.00000000E+00  0.00000000E+00
  0.00000000E+00  0.00000000E+00  0.00000000E+00
  0.00000000E+00  0.00000000E+00  0.00000000E+00
