POSCAR                                  
   1.00000000000000     
    10.3001043385404163   -0.0477960554020542    0.0392329745967437
    -0.0479227328786323   10.3504735764473885    0.0567917292094341
     0.0259325150506446    0.0375903679537885    6.8600524018768754
   Y    Sc   Zr   K    H 
     9     9     9     9   216
Direct
  0.1738201780571842  0.1658069777205000  0.2465987500239990
  0.1746006851304003  0.5014418470196915  0.2489127248954688
  0.3330644101377658  0.3284711909247662  0.9999559359694601
  0.8337944242244149  0.1754257992792247  0.2485735137333904
  0.4996791235308393  0.5004246625763500  0.7480152913048244
  0.6698541167854017  0.3340188914585838  0.0006309682733487
  0.4919019418025599  0.8352266086663107  0.7590049331813091
  0.0039138939467307  0.0013228441370288  0.4999472381183168
  0.9992480181456145  0.9986525301974396  0.9980582756961809
  0.1618156950550045  0.1712506350766887  0.7465006935008844
  0.5040177271459001  0.1651057740084454  0.2546732968083774
  0.1720261300488914  0.4923297865293677  0.7472567935790693
  0.5074856958421421  0.4936621992195711  0.2527226305846852
  0.6702237947892300  0.3318511788951994  0.4928858210509262
  0.3311935704258175  0.0038970138613976  0.5072978348952262
  0.0018987625690912  0.3393311499380687  0.4971519860193609
  0.8218979720966217  0.4910503576550411  0.7308994696590219
  0.6655425347950512  0.0064176582711681  0.5034553443054577
  0.3414950527804237  0.3258975625786107  0.5024452800089847
  0.5068267711229382  0.1629608634545789  0.7525376614571400
  0.3297620501476146  0.6679281850140413  0.5031461940921247
  0.1604140416078152  0.8204246114141540  0.7519098218946922
  0.4966735173285102  0.8405440544649707  0.2534097786111644
  0.6643306760596488  0.6694278098921487  0.4978928451131566
  0.6622012568321267  0.6699691674662205  0.9973349274009919
  0.8306455997798423  0.8382278488272519  0.2577328872703077
  0.8293262456710266  0.8419245706239025  0.7453477588225539
  0.1679598884254645  0.8349421894838329  0.2434271419922354
  0.3276325214053912  0.6596609443367072  0.0094228537683847
  0.8407802840847296  0.1718638769481799  0.7535250400292455
  0.8473331499087422  0.5174488981199161  0.2333874955601445
  0.3285328459840997  0.9913530617562145  0.0080209035402135
  0.9951053337248723  0.3288765999423191  0.9917115263049325
  0.9954644765760392  0.6625824973634948  0.5025182698209463
  0.6645132681174601  0.0012625501613428  0.9989364205527025
  0.9869743916585634  0.6527683620957987  0.0102719085481553
  0.1705343011195097  0.0812949138250971  0.9812807969471891
  0.1729606229841991  0.0859085672445161  0.5134723672279122
  0.1650521122257729  0.4105526186012654  0.9920293902792849
  0.4972851718510682  0.0821788710471338  0.0137980020630977
  0.3472454431498306  0.2452792482242074  0.2553665063656965
  0.1683584675541994  0.4140441142101423  0.5035755670445141
  0.5005029224602424  0.0826604196529104  0.4978618725102493
  0.3270998773402738  0.2419425160719442  0.7503591762231281
  0.1576183235690181  0.7382179519212357  0.0087721952666584
  0.5025249904482649  0.4122219260035180  0.0041997617477918
  0.3509590492617534  0.5789594800314433  0.2629770239972089
  0.1625756554430993  0.7493820135290647  0.4963521348316533
  0.8306927394024655  0.0825589030063867  0.0054205800338920
  0.6631322726817999  0.2532035325798034  0.2608782499510554
  0.5117815109871913  0.4150658316516171  0.4929491583350654
  0.3280706737479022  0.5774264367174666  0.7500361572921719
  0.8311549669111784  0.0863841276081772  0.5003876036912303
  0.6744964821306283  0.2515657184851534  0.7304075175188771
  0.4921269936518584  0.7458921567998829  0.0123851444024510
  0.3328638071786330  0.9232693098893776  0.2749128105543761
  0.8440155004282701  0.4285436868667389  0.9834575231919018
  0.6693719785441914  0.5820503721056767  0.2498938748484960
  0.4971869209418713  0.7529397976332888  0.4980980736939884
  0.3184904078225372  0.9214428088922375  0.7452328087793276
  0.0092738728630692  0.2515618681222165  0.2580261035359328
  0.8227437884806363  0.4265770373739031  0.4825440591361669
  0.6772029395464969  0.5855015577373663  0.7515985409724024
  0.0102071513635096  0.2518971684067139  0.7305601458512001
  0.8348271122967574  0.7482278405913974  0.9789698197265295
  0.6654291178116694  0.9201507475222286  0.2544462732501600
  0.0221291019121495  0.5883360388490004  0.2650554174303821
  0.8329729059757511  0.7523014053692307  0.5108197782007551
  0.6617486693180865  0.9175439161699046  0.7459505550887897
  0.9761254605967835  0.5796333033568786  0.7534435595356825
  0.0044106990094548  0.9217611101698395  0.2525974461620493
  0.0089854203764617  0.9168265640316093  0.7516274668402687
  0.0848306691855285  0.1699642387979097  0.9885025997124757
  0.0864644027537693  0.1714872818392053  0.5034119715833683
  0.0715029089782320  0.4938408466290909  0.9758479090442194
  0.4121434601411380  0.1585120060701612  0.9913798160103298
  0.2553311734594459  0.3344231253670031  0.2600818528896767
  0.0825292444251247  0.4978258219002072  0.5202898508703839
  0.4207739776047674  0.1583212115956414  0.5056846741059928
  0.2480079640415269  0.3240646043389290  0.7431038599475812
  0.0689785244534917  0.8232018892835029  0.9988064797708773
  0.4220192507319069  0.4995777959046350  0.0088059087232111
  0.2604926895324411  0.6747562352426399  0.2632614799691098
  0.0848570431521551  0.8284951859019856  0.5015807034740192
  0.7507823294333420  0.1677039286555555  0.9995976720334454
  0.5841004024589651  0.3319583956841043  0.2562374404440746
  0.4199911142794193  0.4989759598209815  0.4945122679315048
  0.2459503945452752  0.6657213944032421  0.7599123127798961
  0.7538636850629956  0.1761431871773880  0.5033898498832343
  0.5846470176517471  0.3325455555687000  0.7405560698969893
  0.4128101576293659  0.8236158226362420  0.0150293330380507
  0.2602447408688064  0.9981590299898073  0.2701221023516922
  0.7489250956289837  0.5056082826307531  0.9908773109687203
  0.5792534724137539  0.6682291858623728  0.2552600942040257
  0.4123021681655388  0.8395722260311089  0.5048709605259205
  0.2515574905564648  0.0120063760174389  0.7542444992167816
  0.9237422223554432  0.3508632776512925  0.2610442341713295
  0.7548194540697963  0.4854328381687409  0.4823428220213657
  0.5816320260993493  0.6690456724792213  0.7458159638477611
  0.9179354786151990  0.3495371704787686  0.7343007633771776
  0.7460205771816817  0.8345465199817781  0.0018908959864632
  0.5858443763734655  0.0039753465350287  0.2612614668187518
  0.9162706662653477  0.6901775499077090  0.2605074029549002
  0.7427749474605037  0.8425812490621638  0.5023297574343104
  0.5829385020833655  0.9991671253222592  0.7414181494505385
  0.9177897202901519  0.6390787928803761  0.7547790493779516
  0.9131363551548262  0.0047384016393082  0.2559701655361692
  0.9148816800497741  0.0033656906360449  0.7440854183960113
  0.1616209736321466  0.0039038125259552  0.1216019813867817
  0.1681705910783720  0.0042255663710264  0.6311616937368214
  0.1602540807500645  0.3355318492773307  0.1176952492292855
  0.4959242282389340  0.0104563424516826  0.1295028211405551
  0.3415152893231621  0.1644641204860591  0.3815252373276792
  0.1679442465531977  0.3350374976755930  0.6258358907625876
  0.4971541951649954  0.0012210452491885  0.6210328562782763
  0.3411675852095684  0.1590239514402256  0.8810728436763782
  0.1547871242653969  0.6747135298794618  0.1159501693285350
  0.5010532291971046  0.3334950056838366  0.1292370516721988
  0.3433415341522590  0.4910109640339968  0.3756669497122900
  0.1608032162160953  0.6494743407431613  0.6293132151791454
  0.8289154504131915  0.9985555192485052  0.1205235332248478
  0.6631710404057785  0.1663816562995777  0.3767349124365111
  0.5065570337197300  0.3293227121648243  0.6201946784350838
  0.3254812030214111  0.4981088975795416  0.8791522418194901
  0.8333024760614336  0.0066447026059251  0.6257086865169654
  0.6664447385256267  0.1683531024363134  0.8760870262099161
  0.5002017544038040  0.6558488153919910  0.1297239978250957
  0.3320327744835012  0.8352237374637284  0.3845273385241370
  0.8317224454964602  0.3484717321286794  0.1230824215466697
  0.6696798672427136  0.5072907409902072  0.3659187202765892
  0.4991434329792312  0.6680518766979873  0.6228823946106772
  0.3180884868919591  0.8251723846275709  0.8870720844557312
  0.0061096848758169  0.1751132372401543  0.3751269197597153
  0.8348337135718893  0.3347249593332293  0.6124381307477407
  0.6689891578980038  0.4977359496155316  0.8655272175882729
  0.0107322477139107  0.1640996543757680  0.8738868590336395
  0.8184091219809559  0.6868755025394293  0.1200015972426272
  0.6626438206477587  0.8358064678073092  0.3784408851037568
  0.0075149066163718  0.4973553957539920  0.3777472462632048
  0.8277342167116970  0.6729885164209577  0.6331448563337290
  0.6675163445444525  0.8366859224398056  0.8755937057303811
  0.0201788742425819  0.4959342310176709  0.8693484619688618
  0.9985565577573041  0.8346298646139161  0.3758260838807672
  0.9910531529232216  0.8232114712839689  0.8835305517832523
  0.0854172910950908  0.9958718213899118  0.2472560060804909
  0.0908076319787199  0.9918823570276416  0.7470857272419877
  0.0868423964480556  0.3334461024444337  0.2534033197534029
  0.4204101048937332  0.0078804171449960  0.2634693047089698
  0.2524662382278322  0.1627178099479281  0.5110988764254785
  0.0833979589383134  0.3415350596859028  0.7386372637228860
  0.4098153161515299  0.0060722723399991  0.7473705982163210
  0.2520433617557671  0.1580876799042485  0.9829963013888090
  0.0827804668539613  0.6574683250092619  0.2494160602818454
  0.4241397316769522  0.3289592654888622  0.2518058351207486
  0.2563514564371161  0.4949097387256955  0.5015020418901415
  0.0756532888685513  0.6594871933431747  0.7575466306719250
  0.7471703584959357  0.0031819096647538  0.2578676864894192
  0.5855161945040095  0.1668506666786769  0.4965922066804609
  0.4206773204033851  0.3244874256550574  0.7495338942238945
  0.2553451710931043  0.4917463482673057  0.9882699257623386
  0.7461203505033325  0.0109251070917935  0.7403947821322632
  0.5821114747150773  0.1658227879077430  0.0165902506242404
  0.4245145195964213  0.6658690725488654  0.2536167113838488
  0.2480977955610797  0.8396711843630129  0.5009935958628020
  0.7550216661489912  0.3499045111334596  0.2578019042314423
  0.5857568072060886  0.4946925957457395  0.4908832828361014
  0.4103464134592159  0.6657547342814141  0.7530424764549508
  0.2416265685816299  0.8255927463111021  0.9833757546718402
  0.9199501822644223  0.1769710443079688  0.4998027393645330
  0.7476450228760854  0.3296525006752731  0.7308025560875109
  0.5843671364353185  0.5008609746021762  0.0006953954580382
  0.9186637381449785  0.1632468283355877  0.0039793854501724
  0.7427556987443680  0.6705253721034907  0.2523903472360942
  0.5807392739569366  0.8446613511201022  0.5007413578412212
  0.9174404747354998  0.4902615016811609  0.5053502082090304
  0.7516277239099409  0.6625769476511394  0.7416504618565369
  0.5858287522263481  0.8314331439590887  0.0078953209454511
  0.9085819726976396  0.4884235768044434  0.9543807889363833
  0.9196512757671442  0.8313794307221585  0.5112085443325611
  0.9110814619177745  0.8263634067867116  0.9878123247825670
  0.0051072612510552  0.1662802109946639  0.1230957365198506
  0.0054904908385325  0.1751593488157681  0.6218068889365469
  0.0194044514243430  0.4841556964076048  0.1217623105344359
  0.3480295834697955  0.1600311252806108  0.1269619942597089
  0.1662077149657364  0.3335817542117141  0.3816452229929013
  0.0144232443752728  0.4969613193030327  0.6259614699950333
  0.3339624876530749  0.1640297656819527  0.6319889911903687
  0.1640492462035184  0.3348194829382720  0.8704596333135726
  0.9999877629676561  0.8252034537236383  0.1215161059928676
  0.3467573826983710  0.4926096243543441  0.1296676081041426
  0.1682318717349176  0.6704333245077123  0.3831308338374555
  0.9917047343751264  0.8306461229060957  0.6221656242582370
  0.6583447362662227  0.1646004323104577  0.1234582999175373
  0.5072847002043872  0.3287267714849946  0.3740542561741265
  0.3319751496359800  0.4941631938959361  0.6215777350847844
  0.1567820338449408  0.6422344079890507  0.8788128816546958
  0.6690026401463385  0.1680995683732789  0.6254033261362935
  0.5022287998245147  0.3294288278367077  0.8779531895662487
  0.3413481200585124  0.8245561209026420  0.1375945483911778
  0.1732080210749629  0.9992327288444187  0.3792669758177638
  0.6706904356710623  0.5030505927498794  0.1273656494831101
  0.5015167360348443  0.6652754819877131  0.3697616716964234
  0.3280689155548728  0.8343153702027308  0.6258688969935946
  0.1661132436988524  0.0123334645173472  0.8716393539927623
  0.8362751590268545  0.3447693429038665  0.3687625552598846
  0.6653355202172975  0.5030733099390972  0.6126505534040732
  0.4958762863189179  0.6655883268633573  0.8866799675932597
  0.8291364702905142  0.3415606534010749  0.8625302408714504
  0.6669898926534188  0.8361613061024684  0.1315358526768406
  0.5022855301256470  0.0076448678085157  0.3829565502946721
  0.8256909767797964  0.6732837627958119  0.3769448912241913
  0.6632021286702212  0.8383661502387199  0.6169100354177175
  0.4962510797062052  0.0020207075598222  0.8853180376424916
  0.8296997750075263  0.6837319157284227  0.8755063552021269
  0.8308475765812631  0.0044722529055647  0.3774420983358127
  0.8306460747271771  0.9991334255148558  0.8768123538081767
  0.0000755468423321  0.0878010717115387  0.2526879844060232
  0.0064726176008563  0.0855608411371875  0.7450190617599119
  0.0007513417299947  0.4126586261137035  0.2427321187915723
  0.3449432499893561  0.0810421665212431  0.2580356511485675
  0.1666003323860323  0.2525920959966257  0.5040288895751885
  0.9931229545505857  0.4121859849499074  0.7391942884863312
  0.3183404262811678  0.0792554912491639  0.7540252373380412
  0.1594047859099703  0.2491277802784921  0.9910325846790116
  0.9872787614538368  0.7541962043150434  0.2467085468259782
  0.3451732302854609  0.4169984027157128  0.2631766612509026
  0.1664536284211877  0.5832545076567044  0.5196473481619606
  0.9904748084392665  0.7407447187980409  0.7583227065290217
  0.6630422711964812  0.0840379857006539  0.2588621440416574
  0.5096326454092761  0.2458966068584019  0.4964034004728717
  0.3336928750413435  0.4127889399391478  0.7419099766536803
  0.1597265842603903  0.5794734139097599  0.9772480184035857
  0.6760230435292485  0.0828377922984842  0.7401819414038613
  0.5013335926008438  0.2463259085797205  0.0089095939448072
  0.3312344707509425  0.7478089708333471  0.2519075053066047
  0.1771593067973782  0.9151099816597039  0.5050334248153021
  0.6749394909548769  0.4209391560777149  0.2541635349911502
  0.4998718487389979  0.5819997138612294  0.4847886966213508
  0.3249425703860211  0.7429246735040635  0.7567276292848035
  0.1629254142482850  0.9119245304497596  0.9804808620980836
  0.8329633723444871  0.2529448281275251  0.5036785773961796
  0.6640994708732677  0.4148305892453266  0.7374157431433943
  0.4968973572146851  0.5812000529430321  0.0146391990617616
  0.8295513281620686  0.2490554980779081  0.9972582010672042
  0.6588106169287897  0.7514751319840656  0.2494542405618034
  0.4934834155029222  0.9223280518293606  0.5056941397868684
  0.8235867239104380  0.5854392655157525  0.5031575124508834
  0.6679028445242992  0.7536888522148573  0.7473129740688691
  0.4980078345276340  0.9217507808746674  0.0043812225455184
  0.8172733885467949  0.5851042888117277  0.9539349169083451
  0.8255634734928989  0.9249670188675196  0.4947421839307182
  0.8283238876258281  0.9214037158980588  0.0146814197456848
 
  0.00000000E+00  0.00000000E+00  0.00000000E+00
  0.00000000E+00  0.00000000E+00  0.00000000E+00
  0.00000000E+00  0.00000000E+00  0.00000000E+00
  0.00000000E+00  0.00000000E+00  0.00000000E+00
  0.00000000E+00  0.00000000E+00  0.00000000E+00
  0.00000000E+00  0.00000000E+00  0.00000000E+00
  0.00000000E+00  0.00000000E+00  0.00000000E+00
  0.00000000E+00  0.00000000E+00  0.00000000E+00
  0.00000000E+00  0.00000000E+00  0.00000000E+00
  0.00000000E+00  0.00000000E+00  0.00000000E+00
  0.00000000E+00  0.00000000E+00  0.00000000E+00
  0.00000000E+00  0.00000000E+00  0.00000000E+00
  0.00000000E+00  0.00000000E+00  0.00000000E+00
  0.00000000E+00  0.00000000E+00  0.00000000E+00
  0.00000000E+00  0.00000000E+00  0.00000000E+00
  0.00000000E+00  0.00000000E+00  0.00000000E+00
  0.00000000E+00  0.00000000E+00  0.00000000E+00
  0.00000000E+00  0.00000000E+00  0.00000000E+00
  0.00000000E+00  0.00000000E+00  0.00000000E+00
  0.00000000E+00  0.00000000E+00  0.00000000E+00
  0.00000000E+00  0.00000000E+00  0.00000000E+00
  0.00000000E+00  0.00000000E+00  0.00000000E+00
  0.00000000E+00  0.00000000E+00  0.00000000E+00
  0.00000000E+00  0.00000000E+00  0.00000000E+00
  0.00000000E+00  0.00000000E+00  0.00000000E+00
  0.00000000E+00  0.00000000E+00  0.00000000E+00
  0.00000000E+00  0.00000000E+00  0.00000000E+00
  0.00000000E+00  0.00000000E+00  0.00000000E+00
  0.00000000E+00  0.00000000E+00  0.00000000E+00
  0.00000000E+00  0.00000000E+00  0.00000000E+00
  0.00000000E+00  0.00000000E+00  0.00000000E+00
  0.00000000E+00  0.00000000E+00  0.00000000E+00
  0.00000000E+00  0.00000000E+00  0.00000000E+00
  0.00000000E+00  0.00000000E+00  0.00000000E+00
  0.00000000E+00  0.00000000E+00  0.00000000E+00
  0.00000000E+00  0.00000000E+00  0.00000000E+00
  0.00000000E+00  0.00000000E+00  0.00000000E+00
  0.00000000E+00  0.00000000E+00  0.00000000E+00
  0.00000000E+00  0.00000000E+00  0.00000000E+00
  0.00000000E+00  0.00000000E+00  0.00000000E+00
  0.00000000E+00  0.00000000E+00  0.00000000E+00
  0.00000000E+00  0.00000000E+00  0.00000000E+00
  0.00000000E+00  0.00000000E+00  0.00000000E+00
  0.00000000E+00  0.00000000E+00  0.00000000E+00
  0.00000000E+00  0.00000000E+00  0.00000000E+00
  0.00000000E+00  0.00000000E+00  0.00000000E+00
  0.00000000E+00  0.00000000E+00  0.00000000E+00
  0.00000000E+00  0.00000000E+00  0.00000000E+00
  0.00000000E+00  0.00000000E+00  0.00000000E+00
  0.00000000E+00  0.00000000E+00  0.00000000E+00
  0.00000000E+00  0.00000000E+00  0.00000000E+00
  0.00000000E+00  0.00000000E+00  0.00000000E+00
  0.00000000E+00  0.00000000E+00  0.00000000E+00
  0.00000000E+00  0.00000000E+00  0.00000000E+00
  0.00000000E+00  0.00000000E+00  0.00000000E+00
  0.00000000E+00  0.00000000E+00  0.00000000E+00
  0.00000000E+00  0.00000000E+00  0.00000000E+00
  0.00000000E+00  0.00000000E+00  0.00000000E+00
  0.00000000E+00  0.00000000E+00  0.00000000E+00
  0.00000000E+00  0.00000000E+00  0.00000000E+00
  0.00000000E+00  0.00000000E+00  0.00000000E+00
  0.00000000E+00  0.00000000E+00  0.00000000E+00
  0.00000000E+00  0.00000000E+00  0.00000000E+00
  0.00000000E+00  0.00000000E+00  0.00000000E+00
  0.00000000E+00  0.00000000E+00  0.00000000E+00
  0.00000000E+00  0.00000000E+00  0.00000000E+00
  0.00000000E+00  0.00000000E+00  0.00000000E+00
  0.00000000E+00  0.00000000E+00  0.00000000E+00
  0.00000000E+00  0.00000000E+00  0.00000000E+00
  0.00000000E+00  0.00000000E+00  0.00000000E+00
  0.00000000E+00  0.00000000E+00  0.00000000E+00
  0.00000000E+00  0.00000000E+00  0.00000000E+00
  0.00000000E+00  0.00000000E+00  0.00000000E+00
  0.00000000E+00  0.00000000E+00  0.00000000E+00
  0.00000000E+00  0.00000000E+00  0.00000000E+00
  0.00000000E+00  0.00000000E+00  0.00000000E+00
  0.00000000E+00  0.00000000E+00  0.00000000E+00
  0.00000000E+00  0.00000000E+00  0.00000000E+00
  0.00000000E+00  0.00000000E+00  0.00000000E+00
  0.00000000E+00  0.00000000E+00  0.00000000E+00
  0.00000000E+00  0.00000000E+00  0.00000000E+00
  0.00000000E+00  0.00000000E+00  0.00000000E+00
  0.00000000E+00  0.00000000E+00  0.00000000E+00
  0.00000000E+00  0.00000000E+00  0.00000000E+00
  0.00000000E+00  0.00000000E+00  0.00000000E+00
  0.00000000E+00  0.00000000E+00  0.00000000E+00
  0.00000000E+00  0.00000000E+00  0.00000000E+00
  0.00000000E+00  0.00000000E+00  0.00000000E+00
  0.00000000E+00  0.00000000E+00  0.00000000E+00
  0.00000000E+00  0.00000000E+00  0.00000000E+00
  0.00000000E+00  0.00000000E+00  0.00000000E+00
  0.00000000E+00  0.00000000E+00  0.00000000E+00
  0.00000000E+00  0.00000000E+00  0.00000000E+00
  0.00000000E+00  0.00000000E+00  0.00000000E+00
  0.00000000E+00  0.00000000E+00  0.00000000E+00
  0.00000000E+00  0.00000000E+00  0.00000000E+00
  0.00000000E+00  0.00000000E+00  0.00000000E+00
  0.00000000E+00  0.00000000E+00  0.00000000E+00
  0.00000000E+00  0.00000000E+00  0.00000000E+00
  0.00000000E+00  0.00000000E+00  0.00000000E+00
  0.00000000E+00  0.00000000E+00  0.00000000E+00
  0.00000000E+00  0.00000000E+00  0.00000000E+00
  0.00000000E+00  0.00000000E+00  0.00000000E+00
  0.00000000E+00  0.00000000E+00  0.00000000E+00
  0.00000000E+00  0.00000000E+00  0.00000000E+00
  0.00000000E+00  0.00000000E+00  0.00000000E+00
  0.00000000E+00  0.00000000E+00  0.00000000E+00
  0.00000000E+00  0.00000000E+00  0.00000000E+00
  0.00000000E+00  0.00000000E+00  0.00000000E+00
  0.00000000E+00  0.00000000E+00  0.00000000E+00
  0.00000000E+00  0.00000000E+00  0.00000000E+00
  0.00000000E+00  0.00000000E+00  0.00000000E+00
  0.00000000E+00  0.00000000E+00  0.00000000E+00
  0.00000000E+00  0.00000000E+00  0.00000000E+00
  0.00000000E+00  0.00000000E+00  0.00000000E+00
  0.00000000E+00  0.00000000E+00  0.00000000E+00
  0.00000000E+00  0.00000000E+00  0.00000000E+00
  0.00000000E+00  0.00000000E+00  0.00000000E+00
  0.00000000E+00  0.00000000E+00  0.00000000E+00
  0.00000000E+00  0.00000000E+00  0.00000000E+00
  0.00000000E+00  0.00000000E+00  0.00000000E+00
  0.00000000E+00  0.00000000E+00  0.00000000E+00
  0.00000000E+00  0.00000000E+00  0.00000000E+00
  0.00000000E+00  0.00000000E+00  0.00000000E+00
  0.00000000E+00  0.00000000E+00  0.00000000E+00
  0.00000000E+00  0.00000000E+00  0.00000000E+00
  0.00000000E+00  0.00000000E+00  0.00000000E+00
  0.00000000E+00  0.00000000E+00  0.00000000E+00
  0.00000000E+00  0.00000000E+00  0.00000000E+00
  0.00000000E+00  0.00000000E+00  0.00000000E+00
  0.00000000E+00  0.00000000E+00  0.00000000E+00
  0.00000000E+00  0.00000000E+00  0.00000000E+00
  0.00000000E+00  0.00000000E+00  0.00000000E+00
  0.00000000E+00  0.00000000E+00  0.00000000E+00
  0.00000000E+00  0.00000000E+00  0.00000000E+00
  0.00000000E+00  0.00000000E+00  0.00000000E+00
  0.00000000E+00  0.00000000E+00  0.00000000E+00
  0.00000000E+00  0.00000000E+00  0.00000000E+00
  0.00000000E+00  0.00000000E+00  0.00000000E+00
  0.00000000E+00  0.00000000E+00  0.00000000E+00
  0.00000000E+00  0.00000000E+00  0.00000000E+00
  0.00000000E+00  0.00000000E+00  0.00000000E+00
  0.00000000E+00  0.00000000E+00  0.00000000E+00
  0.00000000E+00  0.00000000E+00  0.00000000E+00
  0.00000000E+00  0.00000000E+00  0.00000000E+00
  0.00000000E+00  0.00000000E+00  0.00000000E+00
  0.00000000E+00  0.00000000E+00  0.00000000E+00
  0.00000000E+00  0.00000000E+00  0.00000000E+00
  0.00000000E+00  0.00000000E+00  0.00000000E+00
  0.00000000E+00  0.00000000E+00  0.00000000E+00
  0.00000000E+00  0.00000000E+00  0.00000000E+00
  0.00000000E+00  0.00000000E+00  0.00000000E+00
  0.00000000E+00  0.00000000E+00  0.00000000E+00
  0.00000000E+00  0.00000000E+00  0.00000000E+00
  0.00000000E+00  0.00000000E+00  0.00000000E+00
  0.00000000E+00  0.00000000E+00  0.00000000E+00
  0.00000000E+00  0.00000000E+00  0.00000000E+00
  0.00000000E+00  0.00000000E+00  0.00000000E+00
  0.00000000E+00  0.00000000E+00  0.00000000E+00
  0.00000000E+00  0.00000000E+00  0.00000000E+00
  0.00000000E+00  0.00000000E+00  0.00000000E+00
  0.00000000E+00  0.00000000E+00  0.00000000E+00
  0.00000000E+00  0.00000000E+00  0.00000000E+00
  0.00000000E+00  0.00000000E+00  0.00000000E+00
  0.00000000E+00  0.00000000E+00  0.00000000E+00
  0.00000000E+00  0.00000000E+00  0.00000000E+00
  0.00000000E+00  0.00000000E+00  0.00000000E+00
  0.00000000E+00  0.00000000E+00  0.00000000E+00
  0.00000000E+00  0.00000000E+00  0.00000000E+00
  0.00000000E+00  0.00000000E+00  0.00000000E+00
  0.00000000E+00  0.00000000E+00  0.00000000E+00
  0.00000000E+00  0.00000000E+00  0.00000000E+00
  0.00000000E+00  0.00000000E+00  0.00000000E+00
  0.00000000E+00  0.00000000E+00  0.00000000E+00
  0.00000000E+00  0.00000000E+00  0.00000000E+00
  0.00000000E+00  0.00000000E+00  0.00000000E+00
  0.00000000E+00  0.00000000E+00  0.00000000E+00
  0.00000000E+00  0.00000000E+00  0.00000000E+00
  0.00000000E+00  0.00000000E+00  0.00000000E+00
  0.00000000E+00  0.00000000E+00  0.00000000E+00
  0.00000000E+00  0.00000000E+00  0.00000000E+00
  0.00000000E+00  0.00000000E+00  0.00000000E+00
  0.00000000E+00  0.00000000E+00  0.00000000E+00
  0.00000000E+00  0.00000000E+00  0.00000000E+00
  0.00000000E+00  0.00000000E+00  0.00000000E+00
  0.00000000E+00  0.00000000E+00  0.00000000E+00
  0.00000000E+00  0.00000000E+00  0.00000000E+00
  0.00000000E+00  0.00000000E+00  0.00000000E+00
  0.00000000E+00  0.00000000E+00  0.00000000E+00
  0.00000000E+00  0.00000000E+00  0.00000000E+00
  0.00000000E+00  0.00000000E+00  0.00000000E+00
  0.00000000E+00  0.00000000E+00  0.00000000E+00
  0.00000000E+00  0.00000000E+00  0.00000000E+00
  0.00000000E+00  0.00000000E+00  0.00000000E+00
  0.00000000E+00  0.00000000E+00  0.00000000E+00
  0.00000000E+00  0.00000000E+00  0.00000000E+00
  0.00000000E+00  0.00000000E+00  0.00000000E+00
  0.00000000E+00  0.00000000E+00  0.00000000E+00
  0.00000000E+00  0.00000000E+00  0.00000000E+00
  0.00000000E+00  0.00000000E+00  0.00000000E+00
  0.00000000E+00  0.00000000E+00  0.00000000E+00
  0.00000000E+00  0.00000000E+00  0.00000000E+00
  0.00000000E+00  0.00000000E+00  0.00000000E+00
  0.00000000E+00  0.00000000E+00  0.00000000E+00
  0.00000000E+00  0.00000000E+00  0.00000000E+00
  0.00000000E+00  0.00000000E+00  0.00000000E+00
  0.00000000E+00  0.00000000E+00  0.00000000E+00
  0.00000000E+00  0.00000000E+00  0.00000000E+00
  0.00000000E+00  0.00000000E+00  0.00000000E+00
  0.00000000E+00  0.00000000E+00  0.00000000E+00
  0.00000000E+00  0.00000000E+00  0.00000000E+00
  0.00000000E+00  0.00000000E+00  0.00000000E+00
  0.00000000E+00  0.00000000E+00  0.00000000E+00
  0.00000000E+00  0.00000000E+00  0.00000000E+00
  0.00000000E+00  0.00000000E+00  0.00000000E+00
  0.00000000E+00  0.00000000E+00  0.00000000E+00
  0.00000000E+00  0.00000000E+00  0.00000000E+00
  0.00000000E+00  0.00000000E+00  0.00000000E+00
  0.00000000E+00  0.00000000E+00  0.00000000E+00
  0.00000000E+00  0.00000000E+00  0.00000000E+00
  0.00000000E+00  0.00000000E+00  0.00000000E+00
  0.00000000E+00  0.00000000E+00  0.00000000E+00
  0.00000000E+00  0.00000000E+00  0.00000000E+00
  0.00000000E+00  0.00000000E+00  0.00000000E+00
  0.00000000E+00  0.00000000E+00  0.00000000E+00
  0.00000000E+00  0.00000000E+00  0.00000000E+00
  0.00000000E+00  0.00000000E+00  0.00000000E+00
  0.00000000E+00  0.00000000E+00  0.00000000E+00
  0.00000000E+00  0.00000000E+00  0.00000000E+00
  0.00000000E+00  0.00000000E+00  0.00000000E+00
  0.00000000E+00  0.00000000E+00  0.00000000E+00
  0.00000000E+00  0.00000000E+00  0.00000000E+00
  0.00000000E+00  0.00000000E+00  0.00000000E+00
  0.00000000E+00  0.00000000E+00  0.00000000E+00
  0.00000000E+00  0.00000000E+00  0.00000000E+00
  0.00000000E+00  0.00000000E+00  0.00000000E+00
  0.00000000E+00  0.00000000E+00  0.00000000E+00
  0.00000000E+00  0.00000000E+00  0.00000000E+00
  0.00000000E+00  0.00000000E+00  0.00000000E+00
  0.00000000E+00  0.00000000E+00  0.00000000E+00
  0.00000000E+00  0.00000000E+00  0.00000000E+00
  0.00000000E+00  0.00000000E+00  0.00000000E+00
  0.00000000E+00  0.00000000E+00  0.00000000E+00
  0.00000000E+00  0.00000000E+00  0.00000000E+00
  0.00000000E+00  0.00000000E+00  0.00000000E+00
  0.00000000E+00  0.00000000E+00  0.00000000E+00
  0.00000000E+00  0.00000000E+00  0.00000000E+00
  0.00000000E+00  0.00000000E+00  0.00000000E+00
  0.00000000E+00  0.00000000E+00  0.00000000E+00
  0.00000000E+00  0.00000000E+00  0.00000000E+00
  0.00000000E+00  0.00000000E+00  0.00000000E+00
  0.00000000E+00  0.00000000E+00  0.00000000E+00
