POSCAR                                  
   1.00000000000000     
    10.3025319946346432   -0.0441826004265257    0.0360612027874111
    -0.0443192142000367   10.3479639221979891    0.0534079712242784
     0.0238289456012245    0.0353380039917704    6.8600065228198179
   Y    Sc   Zr   K    H 
     9     9     9     9   216
Direct
  0.1742805514950992  0.1654177663370134  0.2461043657553573
  0.1737397963323175  0.5008681098082574  0.2492758782618729
  0.3331137144793412  0.3290713667410332  0.0001819137425718
  0.8338288337818529  0.1750467187433710  0.2490086165615444
  0.4992626418191279  0.5001477573861652  0.7482434367125158
  0.6698625133426650  0.3339123614637988  0.0012258185093997
  0.4917802552989032  0.8356434432413181  0.7582827580220847
  0.0038192757583338  0.0009891651510874  0.4998262972800471
 -0.0006177393415565  0.9990825682430876  0.9982546630293515
  0.1611957351722907  0.1714375477788575  0.7465749133574047
  0.5038314564514318  0.1652309481941184  0.2549159422004446
  0.1710866387797436  0.4916833917852606  0.7474446495916215
  0.5069761590152566  0.4936975717774615  0.2529321592002367
  0.6709262504150133  0.3326654214388258  0.4932670922922842
  0.3314976936491493  0.0044222416968169  0.5061716902166232
  0.0012049532668452  0.3389005520616880  0.4978368230648836
  0.8228311293995556  0.4917470534849554  0.7329861415898917
  0.6657392478424220  0.0060394775345112  0.5030165636242294
  0.3411752988303324  0.3258513479141270  0.5032745566636976
  0.5082175047503504  0.1635627223237909  0.7520861315059149
  0.3294873531437800  0.6672017346145273  0.5024481461183147
  0.1630969737406098  0.8228752472014025  0.7515564714428573
  0.4965979121866281  0.8400155532874324  0.2532070991354510
  0.6645415667323565  0.6685515961373674  0.4982647385932613
  0.6617757307499721  0.6695930190050353  0.9972546548022979
  0.8307256723211723  0.8379759025682435  0.2567223207878874
  0.8285653139258724  0.8410048676802602  0.7456075648189764
  0.1670819431501913  0.8333933182313871  0.2440495733505973
  0.3274780205190453  0.6605278851070570  0.0082020469821668
  0.8408764185601657  0.1710765645453840  0.7537589549613934
  0.8467998013904010  0.5170421222984759  0.2344742543651096
  0.3292928102367557  0.9927705126091647  0.0068681710193663
  0.9952494331548237  0.3291991270103958  0.9923375845226023
  0.9959626882944967  0.6629225206188339  0.5011590092494524
  0.6646708561359417  0.0008577201194517  0.9991215010258275
  0.9874661704794413  0.6535227231342208  0.0092940409516723
  0.1705692685732262  0.0816291307084065  0.9804068955803573
  0.1727859541075583  0.0857924000215435  0.5134534933673303
  0.1648972176207999  0.4110595040355206  0.9932793567884595
  0.4980052235761192  0.0826855539311383  0.0110545966515878
  0.3473415188557891  0.2456579940773482  0.2558702519833735
  0.1677850964576266  0.4135531935468070  0.5032001536545303
  0.5007636189366966  0.0832491683723070  0.4983736320258791
  0.3258215721912550  0.2424775814370304  0.7505412943184638
  0.1574137098205573  0.7390828569325649  0.0059885671489120
  0.5024817073782253  0.4122255263149267  0.0049811886032327
  0.3499122212597593  0.5789784365942789  0.2614397887328851
  0.1632277893971478  0.7496429520521272  0.4985777765237667
  0.8305178791170981  0.0822497953194017  0.0057855623734844
  0.6631503768511076  0.2527781355684972  0.2614219367867812
  0.5107265498044788  0.4143653629132653  0.4930966354574383
  0.3267209338668425  0.5776117891488117  0.7496844105623924
  0.8310463877422770  0.0860165476572550  0.5006530070562888
  0.6753244071193707  0.2516752319985533  0.7303551148838977
  0.4921791563126888  0.7460598419927913  0.0114484208944687
  0.3313804659541615  0.9230975592848073  0.2730631715697818
  0.8433783260237510  0.4287711481744032  0.9843237439308015
  0.6689007225805892  0.5816099763777405  0.2498649635412880
  0.4971536887953695  0.7523780535375895  0.4979800747158035
  0.3203649503728973  0.9226645824889829  0.7441254038951327
  0.0095509893073676  0.2510118903566297  0.2579909354622346
  0.8241527295637743  0.4263445719567700  0.4844916286089621
  0.6765873261513310  0.5846589345517628  0.7509535747202878
  0.0094893110259573  0.2514594893341097  0.7315599038695343
  0.8345812798930652  0.7485773023730151  0.9803211405211157
  0.6654640132310755  0.9196770060849443  0.2550297537870028
  0.0216492713138957  0.5886652382788975  0.2630147374712527
  0.8331643323313279  0.7520643758372478  0.5107666343755157
  0.6611244162063549  0.9180663232672888  0.7447740167526553
  0.9771046400079765  0.5801138620640138  0.7521757222916650
  0.0042779138872434  0.9218948879453992  0.2521973131754661
  0.0101636588731095  0.9174376926932627  0.7513688140721267
  0.0848109119121594  0.1701992759112572  0.9889162899928476
  0.0865834551421601  0.1714614992213528  0.5029643934231158
  0.0715982041618047  0.4939399204395243  0.9753064748976237
  0.4129166976221531  0.1593274114287776  0.9918643030524023
  0.2551096935880022  0.3341110112766473  0.2602150560731120
  0.0820239381561946  0.4972599934163640  0.5204676168676426
  0.4211645615947378  0.1584338699816404  0.5054719209229210
  0.2484281799775944  0.3230481554862755  0.7440246495176378
  0.0699993543155190  0.8237913257851047  0.9980144658529447
  0.4212687055606457  0.5002954242445029  0.0085713603650760
  0.2608131587398390  0.6739347713437895  0.2622303267387821
  0.0851612706009892  0.8287378328935678  0.5025140773023370
  0.7509917943768348  0.1674429884895924 -0.0001832396555773
  0.5839268111023587  0.3317284795880419  0.2570109434359905
  0.4193205040426852  0.4990682594569799  0.4948883220021913
  0.2459896971833841  0.6664782713814612  0.7582725482963288
  0.7539510060604201  0.1757036526341740  0.5032762485763679
  0.5849504320046505  0.3327827548783607  0.7410368329849975
  0.4124291354937371  0.8244159412213220  0.0146495219774716
  0.2603989902866027  0.9961716334804676  0.2686706653112772
  0.7488616065805784  0.5049774610370632  0.9911692232590951
  0.5789692435222880  0.6678796653193159  0.2555573169482638
  0.4127854389126620  0.8395288129826198  0.5035757278396013
  0.2517979106938851  0.0143313210215696  0.7536455658802401
  0.9238613764106829  0.3504450233801152  0.2608555515264005
  0.7550942549055180  0.4863689198829010  0.4845106054835517
  0.5810424364894476  0.6689335435140664  0.7457548928834783
  0.9172631315046884  0.3491809371860017  0.7348825900740555
  0.7457786589004228  0.8342618071145973  0.0031693022063272
  0.5854076204908424  0.0042575067113770  0.2611473249481404
  0.9165196770011184  0.6898976605020092  0.2590204102229584
  0.7428451961483910  0.8418309982026090  0.5008886108463667
  0.5834749183396861  0.9989283849273254  0.7410908121199896
  0.9176847871184626  0.6412420273259286  0.7536737927058658
  0.9133690343470641  0.0039182044696225  0.2557469167096321
  0.9147837427319998  0.0015292686163861  0.7444414817019267
  0.1621718011121197  0.0025231175533985  0.1211283228325785
  0.1685064550533529  0.0054606040610429  0.6309595208959874
  0.1604151476851350  0.3351675173225713  0.1171045532645429
  0.4963489563523885  0.0090657429229011  0.1301284672442177
  0.3415183111102333  0.1648342202724322  0.3814395412726164
  0.1676795137985209  0.3341623963400089  0.6260992150621506
  0.4977085118218199  0.0016770970431227  0.6202370995140634
  0.3441438588552980  0.1602009817707611  0.8808791269323779
  0.1552604305361988  0.6734031139104544  0.1148909826054639
  0.5011426955773688  0.3336492631061208  0.1299660986141656
  0.3428096749972026  0.4909984548691010  0.3757255839356985
  0.1601574078457253  0.6486831435492336  0.6300953928741049
  0.8291211907866154 -0.0009825662364766  0.1212152155905295
  0.6634467166287685  0.1667237561011689  0.3773078191287817
  0.5072311588918623  0.3295068010520144  0.6202311499830744
  0.3248903309175687  0.4984877908809947  0.8794265624147098
  0.8328387253912751  0.0055534741891944  0.6245797261490501
  0.6671184740909876  0.1681586853422244  0.8761254801663179
  0.4995914065084553  0.6562012691719525  0.1295143626205723
  0.3322096234227004  0.8348935258024262  0.3834338384672508
  0.8317995748233580  0.3475212425278626  0.1240818002411506
  0.6696869674492548  0.5061007563615676  0.3665360013765872
  0.4994589919611727  0.6678382697771159  0.6222114170260383
  0.3196723157284897  0.8263043485619661  0.8868326200207436
  0.0063639384663443  0.1751769230147855  0.3748101839323000
  0.8347530376797730  0.3347455682450931  0.6143472431199519
  0.6687175373306585  0.4976199994970207  0.8659914784522607
  0.0106014106854872  0.1646791541659759  0.8741317587906502
  0.8183049129336196  0.6857617280814514  0.1198110657123508
  0.6626514422085636  0.8351221069543792  0.3782938215301215
  0.0069440208776383  0.4963271078864942  0.3786428932080727
  0.8280986672827627  0.6725048239893018  0.6322222903027593
  0.6669477180270950  0.8359402702528383  0.8755813894953671
  0.0188155605495152  0.4967165471158521  0.8696507150072130
 -0.0019156515555481  0.8345969688386711  0.3763156768093763
  0.9900233341938683  0.8246193416728829  0.8814601152276210
  0.0857188190891994  0.9953615908809343  0.2474959118377051
  0.0886958314125674  0.9890783150366232  0.7475433929549067
  0.0867404312376924  0.3328247444770735  0.2544022943458669
  0.4203567487602318  0.0082169371252389  0.2627174903555132
  0.2520869841086851  0.1631104981688700  0.5111367430532028
  0.0824132127492373  0.3418632624902911  0.7392303030709457
  0.4104370949239547  0.0072732922247920  0.7461607180183685
  0.2520830706028590  0.1591063845606527  0.9819105871991162
  0.0826191558012868  0.6563825881815328  0.2479913806831993
  0.4239018508119928  0.3289654609908017  0.2524277991325779
  0.2548836897267309  0.4947977830849822  0.5022209810947853
  0.0723357394756833  0.6666416659740099  0.7567621811804199
  0.7469657237552267  0.0027405535584752  0.2574991102335917
  0.5861547175356027  0.1663320509581170  0.4954958910057116
  0.4209848569860342  0.3242700858880230  0.7498900004854951
  0.2546457235900575  0.4925340353440014  0.9887108218403792
  0.7463944452993609  0.0102478795402920  0.7407856192450576
  0.5829260697935807  0.1654385791628565  0.0190882972455955
  0.4244432625625364  0.6650216421871762  0.2526984878286215
  0.2484866805060872  0.8404539169587668  0.4992816974536504
  0.7552062014105837  0.3495255948988827  0.2576673984686277
  0.5855644656654271  0.4948419506503440  0.4914901127744633
  0.4106580481215600  0.6657948965068138  0.7519149914955291
  0.2418751881672138  0.8275794735856771  0.9847963486164708
  0.9202414497394095  0.1762363184072387  0.5003537520243946
  0.7480880693617391  0.3300408743949118  0.7319682695282820
  0.5843966600864209  0.5009082530058946  0.0005197562183261
  0.9186444357774126  0.1639054080487567  0.0042928412451450
  0.7424815433332058  0.6701781898924241  0.2524929960562287
  0.5809840433159356  0.8443186646047102  0.4999658374883861
  0.9174067102418612  0.4906780398764836  0.5066395573201494
  0.7511906208267400  0.6643447255904500  0.7421752786820787
  0.5854160551656868  0.8314144831872705  0.0080117967267049
  0.9086107316958343  0.4887331698842823  0.9572620035120161
  0.9193229168703211  0.8310099427724408  0.5112711413273610
  0.9120729581368957  0.8262751502435893  0.9863767551717929
  0.0053348958114116  0.1668842895483901  0.1238126819872774
  0.0051866438708293  0.1750060498852452  0.6213054679393051
  0.0182340246578976  0.4848466694237439  0.1223041676571165
  0.3483716551555924  0.1610151654815606  0.1262695909615455
  0.1655308715103126  0.3333953402108707  0.3826087214160703
  0.0131582376112476  0.4978424371991565  0.6265054670673220
  0.3349242418338293  0.1651006698769339  0.6327761514047383
  0.1640885516282749  0.3340207283560929  0.8701053448937166
 -0.0000118635004978  0.8260021342802997  0.1195716845647567
  0.3458439259195020  0.4936291495738917  0.1296196117836746
  0.1684426372532940  0.6688820646583447  0.3829793662933474
  0.9912048742444726  0.8304943446884892  0.6238855307563502
  0.6576398334328964  0.1644942103382298  0.1233332321686880
  0.5073821783253183  0.3289850146368697  0.3744329342595561
  0.3312731052083613  0.4941297565078232  0.6216831091365312
  0.1572030116542627  0.6423544840911944  0.8771586362103050
  0.6697818632684374  0.1686318777282672  0.6255755246268794
  0.5022545588889626  0.3295588650836419  0.8787536636916876
  0.3407225751929084  0.8259669334647038  0.1371320856060151
  0.1728258644730065  0.9988374655298520  0.3787863268827260
  0.6695814767398015  0.5033599140362760  0.1283123247588689
  0.5015282071839154  0.6649826014898583  0.3697592825011018
  0.3289271084316237  0.8340444799791876  0.6246396439415389
  0.1660498471427110  0.0129215702657596  0.8712465414323555
  0.8356138587459079  0.3447961798080874  0.3698175459887496
  0.6654604517580781  0.5013318885893905  0.6133464429737127
  0.4958632421938774  0.6656941975630587  0.8860561088974245
  0.8294990367671349  0.3412596384741941  0.8633922224862995
  0.6669078592069607  0.8351439026020245  0.1303047007912257
  0.5023138904633343  0.0069771415321449  0.3827721257054161
  0.8252439419003897  0.6734199416909614  0.3767444415166251
  0.6631829708720923  0.8374814426028027  0.6174609847487551
  0.4967713930199675  0.0032587881702811  0.8847170553374308
  0.8296033317289616  0.6823516868529697  0.8754894417221143
  0.8309548449369237  0.0038398877475054  0.3766269769427122
  0.8306365215735285 -0.0013918776760147  0.8773454535803877
  0.0005739143218733  0.0875396039819575  0.2528364252766918
  0.0069724643971806  0.0855577381920199  0.7449854240362275
 -0.0000325221856532  0.4125881006990665  0.2432138112052681
  0.3457200800631888  0.0808635187489594  0.2582634907063376
  0.1663426843006588  0.2524582172588491  0.5034201942052399
  0.9955455451175395  0.4112992837387114  0.7397946183742988
  0.3178257724013133  0.0801924308469344  0.7534381971403278
  0.1596456865250329  0.2495974777513185  0.9916694890793487
  0.9864980803592871  0.7541432903546721  0.2462882131209440
  0.3448573264063258  0.4170842721480991  0.2637517528426593
  0.1654826350533259  0.5835423152021592  0.5223574704264782
  0.9960825939817652  0.7389597944427875  0.7573034321717509
  0.6631449407518979  0.0834615641761138  0.2589786470665433
  0.5101719273375402  0.2462575242380618  0.4968253852776359
  0.3326614096056667  0.4134118295122922  0.7421931631418045
  0.1596134789015458  0.5805999517164698  0.9749784101871888
  0.6765719203680142  0.0823572549058206  0.7400959337498034
  0.5014448139566798  0.2468698366783251  0.0091193753933764
  0.3311273336413142  0.7474138717955461  0.2521604975385683
  0.1777242170095240  0.9150105569895717  0.5030419614939048
  0.6743056538952997  0.4207846104039481  0.2541884390208325
  0.4996559502486387  0.5817040487979463  0.4853956853969205
  0.3247871351113309  0.7422548908582641  0.7552663360232441
  0.1639947851196909  0.9118888471056318  0.9832712744101517
  0.8324772342530383  0.2529956634145931  0.5044711562885195
  0.6649222655586390  0.4155498382926564  0.7393139327070998
  0.4964737091094183  0.5813406866994074  0.0141521212227623
  0.8299239059756185  0.2492642097623741  0.9973873498895161
  0.6588109148088480  0.7512387868767954  0.2505915633840043
  0.4933700942726718  0.9223376221866094  0.5050329702905727
  0.8244637021183751  0.5850958563371017  0.5048199957355265
  0.6664594189125996  0.7533499214513251  0.7467715443687153
  0.4983093703758686  0.9216443148140112  0.0052716288933189
  0.8174375041295437  0.5855792110739988  0.9566997910919411
  0.8256444622591479  0.9239752394175819  0.4958456212163486
  0.8288368099730160  0.9207729772700445  0.0119539674975497
 
  0.00000000E+00  0.00000000E+00  0.00000000E+00
  0.00000000E+00  0.00000000E+00  0.00000000E+00
  0.00000000E+00  0.00000000E+00  0.00000000E+00
  0.00000000E+00  0.00000000E+00  0.00000000E+00
  0.00000000E+00  0.00000000E+00  0.00000000E+00
  0.00000000E+00  0.00000000E+00  0.00000000E+00
  0.00000000E+00  0.00000000E+00  0.00000000E+00
  0.00000000E+00  0.00000000E+00  0.00000000E+00
  0.00000000E+00  0.00000000E+00  0.00000000E+00
  0.00000000E+00  0.00000000E+00  0.00000000E+00
  0.00000000E+00  0.00000000E+00  0.00000000E+00
  0.00000000E+00  0.00000000E+00  0.00000000E+00
  0.00000000E+00  0.00000000E+00  0.00000000E+00
  0.00000000E+00  0.00000000E+00  0.00000000E+00
  0.00000000E+00  0.00000000E+00  0.00000000E+00
  0.00000000E+00  0.00000000E+00  0.00000000E+00
  0.00000000E+00  0.00000000E+00  0.00000000E+00
  0.00000000E+00  0.00000000E+00  0.00000000E+00
  0.00000000E+00  0.00000000E+00  0.00000000E+00
  0.00000000E+00  0.00000000E+00  0.00000000E+00
  0.00000000E+00  0.00000000E+00  0.00000000E+00
  0.00000000E+00  0.00000000E+00  0.00000000E+00
  0.00000000E+00  0.00000000E+00  0.00000000E+00
  0.00000000E+00  0.00000000E+00  0.00000000E+00
  0.00000000E+00  0.00000000E+00  0.00000000E+00
  0.00000000E+00  0.00000000E+00  0.00000000E+00
  0.00000000E+00  0.00000000E+00  0.00000000E+00
  0.00000000E+00  0.00000000E+00  0.00000000E+00
  0.00000000E+00  0.00000000E+00  0.00000000E+00
  0.00000000E+00  0.00000000E+00  0.00000000E+00
  0.00000000E+00  0.00000000E+00  0.00000000E+00
  0.00000000E+00  0.00000000E+00  0.00000000E+00
  0.00000000E+00  0.00000000E+00  0.00000000E+00
  0.00000000E+00  0.00000000E+00  0.00000000E+00
  0.00000000E+00  0.00000000E+00  0.00000000E+00
  0.00000000E+00  0.00000000E+00  0.00000000E+00
  0.00000000E+00  0.00000000E+00  0.00000000E+00
  0.00000000E+00  0.00000000E+00  0.00000000E+00
  0.00000000E+00  0.00000000E+00  0.00000000E+00
  0.00000000E+00  0.00000000E+00  0.00000000E+00
  0.00000000E+00  0.00000000E+00  0.00000000E+00
  0.00000000E+00  0.00000000E+00  0.00000000E+00
  0.00000000E+00  0.00000000E+00  0.00000000E+00
  0.00000000E+00  0.00000000E+00  0.00000000E+00
  0.00000000E+00  0.00000000E+00  0.00000000E+00
  0.00000000E+00  0.00000000E+00  0.00000000E+00
  0.00000000E+00  0.00000000E+00  0.00000000E+00
  0.00000000E+00  0.00000000E+00  0.00000000E+00
  0.00000000E+00  0.00000000E+00  0.00000000E+00
  0.00000000E+00  0.00000000E+00  0.00000000E+00
  0.00000000E+00  0.00000000E+00  0.00000000E+00
  0.00000000E+00  0.00000000E+00  0.00000000E+00
  0.00000000E+00  0.00000000E+00  0.00000000E+00
  0.00000000E+00  0.00000000E+00  0.00000000E+00
  0.00000000E+00  0.00000000E+00  0.00000000E+00
  0.00000000E+00  0.00000000E+00  0.00000000E+00
  0.00000000E+00  0.00000000E+00  0.00000000E+00
  0.00000000E+00  0.00000000E+00  0.00000000E+00
  0.00000000E+00  0.00000000E+00  0.00000000E+00
  0.00000000E+00  0.00000000E+00  0.00000000E+00
  0.00000000E+00  0.00000000E+00  0.00000000E+00
  0.00000000E+00  0.00000000E+00  0.00000000E+00
  0.00000000E+00  0.00000000E+00  0.00000000E+00
  0.00000000E+00  0.00000000E+00  0.00000000E+00
  0.00000000E+00  0.00000000E+00  0.00000000E+00
  0.00000000E+00  0.00000000E+00  0.00000000E+00
  0.00000000E+00  0.00000000E+00  0.00000000E+00
  0.00000000E+00  0.00000000E+00  0.00000000E+00
  0.00000000E+00  0.00000000E+00  0.00000000E+00
  0.00000000E+00  0.00000000E+00  0.00000000E+00
  0.00000000E+00  0.00000000E+00  0.00000000E+00
  0.00000000E+00  0.00000000E+00  0.00000000E+00
  0.00000000E+00  0.00000000E+00  0.00000000E+00
  0.00000000E+00  0.00000000E+00  0.00000000E+00
  0.00000000E+00  0.00000000E+00  0.00000000E+00
  0.00000000E+00  0.00000000E+00  0.00000000E+00
  0.00000000E+00  0.00000000E+00  0.00000000E+00
  0.00000000E+00  0.00000000E+00  0.00000000E+00
  0.00000000E+00  0.00000000E+00  0.00000000E+00
  0.00000000E+00  0.00000000E+00  0.00000000E+00
  0.00000000E+00  0.00000000E+00  0.00000000E+00
  0.00000000E+00  0.00000000E+00  0.00000000E+00
  0.00000000E+00  0.00000000E+00  0.00000000E+00
  0.00000000E+00  0.00000000E+00  0.00000000E+00
  0.00000000E+00  0.00000000E+00  0.00000000E+00
  0.00000000E+00  0.00000000E+00  0.00000000E+00
  0.00000000E+00  0.00000000E+00  0.00000000E+00
  0.00000000E+00  0.00000000E+00  0.00000000E+00
  0.00000000E+00  0.00000000E+00  0.00000000E+00
  0.00000000E+00  0.00000000E+00  0.00000000E+00
  0.00000000E+00  0.00000000E+00  0.00000000E+00
  0.00000000E+00  0.00000000E+00  0.00000000E+00
  0.00000000E+00  0.00000000E+00  0.00000000E+00
  0.00000000E+00  0.00000000E+00  0.00000000E+00
  0.00000000E+00  0.00000000E+00  0.00000000E+00
  0.00000000E+00  0.00000000E+00  0.00000000E+00
  0.00000000E+00  0.00000000E+00  0.00000000E+00
  0.00000000E+00  0.00000000E+00  0.00000000E+00
  0.00000000E+00  0.00000000E+00  0.00000000E+00
  0.00000000E+00  0.00000000E+00  0.00000000E+00
  0.00000000E+00  0.00000000E+00  0.00000000E+00
  0.00000000E+00  0.00000000E+00  0.00000000E+00
  0.00000000E+00  0.00000000E+00  0.00000000E+00
  0.00000000E+00  0.00000000E+00  0.00000000E+00
  0.00000000E+00  0.00000000E+00  0.00000000E+00
  0.00000000E+00  0.00000000E+00  0.00000000E+00
  0.00000000E+00  0.00000000E+00  0.00000000E+00
  0.00000000E+00  0.00000000E+00  0.00000000E+00
  0.00000000E+00  0.00000000E+00  0.00000000E+00
  0.00000000E+00  0.00000000E+00  0.00000000E+00
  0.00000000E+00  0.00000000E+00  0.00000000E+00
  0.00000000E+00  0.00000000E+00  0.00000000E+00
  0.00000000E+00  0.00000000E+00  0.00000000E+00
  0.00000000E+00  0.00000000E+00  0.00000000E+00
  0.00000000E+00  0.00000000E+00  0.00000000E+00
  0.00000000E+00  0.00000000E+00  0.00000000E+00
  0.00000000E+00  0.00000000E+00  0.00000000E+00
  0.00000000E+00  0.00000000E+00  0.00000000E+00
  0.00000000E+00  0.00000000E+00  0.00000000E+00
  0.00000000E+00  0.00000000E+00  0.00000000E+00
  0.00000000E+00  0.00000000E+00  0.00000000E+00
  0.00000000E+00  0.00000000E+00  0.00000000E+00
  0.00000000E+00  0.00000000E+00  0.00000000E+00
  0.00000000E+00  0.00000000E+00  0.00000000E+00
  0.00000000E+00  0.00000000E+00  0.00000000E+00
  0.00000000E+00  0.00000000E+00  0.00000000E+00
  0.00000000E+00  0.00000000E+00  0.00000000E+00
  0.00000000E+00  0.00000000E+00  0.00000000E+00
  0.00000000E+00  0.00000000E+00  0.00000000E+00
  0.00000000E+00  0.00000000E+00  0.00000000E+00
  0.00000000E+00  0.00000000E+00  0.00000000E+00
  0.00000000E+00  0.00000000E+00  0.00000000E+00
  0.00000000E+00  0.00000000E+00  0.00000000E+00
  0.00000000E+00  0.00000000E+00  0.00000000E+00
  0.00000000E+00  0.00000000E+00  0.00000000E+00
  0.00000000E+00  0.00000000E+00  0.00000000E+00
  0.00000000E+00  0.00000000E+00  0.00000000E+00
  0.00000000E+00  0.00000000E+00  0.00000000E+00
  0.00000000E+00  0.00000000E+00  0.00000000E+00
  0.00000000E+00  0.00000000E+00  0.00000000E+00
  0.00000000E+00  0.00000000E+00  0.00000000E+00
  0.00000000E+00  0.00000000E+00  0.00000000E+00
  0.00000000E+00  0.00000000E+00  0.00000000E+00
  0.00000000E+00  0.00000000E+00  0.00000000E+00
  0.00000000E+00  0.00000000E+00  0.00000000E+00
  0.00000000E+00  0.00000000E+00  0.00000000E+00
  0.00000000E+00  0.00000000E+00  0.00000000E+00
  0.00000000E+00  0.00000000E+00  0.00000000E+00
  0.00000000E+00  0.00000000E+00  0.00000000E+00
  0.00000000E+00  0.00000000E+00  0.00000000E+00
  0.00000000E+00  0.00000000E+00  0.00000000E+00
  0.00000000E+00  0.00000000E+00  0.00000000E+00
  0.00000000E+00  0.00000000E+00  0.00000000E+00
  0.00000000E+00  0.00000000E+00  0.00000000E+00
  0.00000000E+00  0.00000000E+00  0.00000000E+00
  0.00000000E+00  0.00000000E+00  0.00000000E+00
  0.00000000E+00  0.00000000E+00  0.00000000E+00
  0.00000000E+00  0.00000000E+00  0.00000000E+00
  0.00000000E+00  0.00000000E+00  0.00000000E+00
  0.00000000E+00  0.00000000E+00  0.00000000E+00
  0.00000000E+00  0.00000000E+00  0.00000000E+00
  0.00000000E+00  0.00000000E+00  0.00000000E+00
  0.00000000E+00  0.00000000E+00  0.00000000E+00
  0.00000000E+00  0.00000000E+00  0.00000000E+00
  0.00000000E+00  0.00000000E+00  0.00000000E+00
  0.00000000E+00  0.00000000E+00  0.00000000E+00
  0.00000000E+00  0.00000000E+00  0.00000000E+00
  0.00000000E+00  0.00000000E+00  0.00000000E+00
  0.00000000E+00  0.00000000E+00  0.00000000E+00
  0.00000000E+00  0.00000000E+00  0.00000000E+00
  0.00000000E+00  0.00000000E+00  0.00000000E+00
  0.00000000E+00  0.00000000E+00  0.00000000E+00
  0.00000000E+00  0.00000000E+00  0.00000000E+00
  0.00000000E+00  0.00000000E+00  0.00000000E+00
  0.00000000E+00  0.00000000E+00  0.00000000E+00
  0.00000000E+00  0.00000000E+00  0.00000000E+00
  0.00000000E+00  0.00000000E+00  0.00000000E+00
  0.00000000E+00  0.00000000E+00  0.00000000E+00
  0.00000000E+00  0.00000000E+00  0.00000000E+00
  0.00000000E+00  0.00000000E+00  0.00000000E+00
  0.00000000E+00  0.00000000E+00  0.00000000E+00
  0.00000000E+00  0.00000000E+00  0.00000000E+00
  0.00000000E+00  0.00000000E+00  0.00000000E+00
  0.00000000E+00  0.00000000E+00  0.00000000E+00
  0.00000000E+00  0.00000000E+00  0.00000000E+00
  0.00000000E+00  0.00000000E+00  0.00000000E+00
  0.00000000E+00  0.00000000E+00  0.00000000E+00
  0.00000000E+00  0.00000000E+00  0.00000000E+00
  0.00000000E+00  0.00000000E+00  0.00000000E+00
  0.00000000E+00  0.00000000E+00  0.00000000E+00
  0.00000000E+00  0.00000000E+00  0.00000000E+00
  0.00000000E+00  0.00000000E+00  0.00000000E+00
  0.00000000E+00  0.00000000E+00  0.00000000E+00
  0.00000000E+00  0.00000000E+00  0.00000000E+00
  0.00000000E+00  0.00000000E+00  0.00000000E+00
  0.00000000E+00  0.00000000E+00  0.00000000E+00
  0.00000000E+00  0.00000000E+00  0.00000000E+00
  0.00000000E+00  0.00000000E+00  0.00000000E+00
  0.00000000E+00  0.00000000E+00  0.00000000E+00
  0.00000000E+00  0.00000000E+00  0.00000000E+00
  0.00000000E+00  0.00000000E+00  0.00000000E+00
  0.00000000E+00  0.00000000E+00  0.00000000E+00
  0.00000000E+00  0.00000000E+00  0.00000000E+00
  0.00000000E+00  0.00000000E+00  0.00000000E+00
  0.00000000E+00  0.00000000E+00  0.00000000E+00
  0.00000000E+00  0.00000000E+00  0.00000000E+00
  0.00000000E+00  0.00000000E+00  0.00000000E+00
  0.00000000E+00  0.00000000E+00  0.00000000E+00
  0.00000000E+00  0.00000000E+00  0.00000000E+00
  0.00000000E+00  0.00000000E+00  0.00000000E+00
  0.00000000E+00  0.00000000E+00  0.00000000E+00
  0.00000000E+00  0.00000000E+00  0.00000000E+00
  0.00000000E+00  0.00000000E+00  0.00000000E+00
  0.00000000E+00  0.00000000E+00  0.00000000E+00
  0.00000000E+00  0.00000000E+00  0.00000000E+00
  0.00000000E+00  0.00000000E+00  0.00000000E+00
  0.00000000E+00  0.00000000E+00  0.00000000E+00
  0.00000000E+00  0.00000000E+00  0.00000000E+00
  0.00000000E+00  0.00000000E+00  0.00000000E+00
  0.00000000E+00  0.00000000E+00  0.00000000E+00
  0.00000000E+00  0.00000000E+00  0.00000000E+00
  0.00000000E+00  0.00000000E+00  0.00000000E+00
  0.00000000E+00  0.00000000E+00  0.00000000E+00
  0.00000000E+00  0.00000000E+00  0.00000000E+00
  0.00000000E+00  0.00000000E+00  0.00000000E+00
  0.00000000E+00  0.00000000E+00  0.00000000E+00
  0.00000000E+00  0.00000000E+00  0.00000000E+00
  0.00000000E+00  0.00000000E+00  0.00000000E+00
  0.00000000E+00  0.00000000E+00  0.00000000E+00
  0.00000000E+00  0.00000000E+00  0.00000000E+00
  0.00000000E+00  0.00000000E+00  0.00000000E+00
  0.00000000E+00  0.00000000E+00  0.00000000E+00
  0.00000000E+00  0.00000000E+00  0.00000000E+00
  0.00000000E+00  0.00000000E+00  0.00000000E+00
  0.00000000E+00  0.00000000E+00  0.00000000E+00
  0.00000000E+00  0.00000000E+00  0.00000000E+00
  0.00000000E+00  0.00000000E+00  0.00000000E+00
  0.00000000E+00  0.00000000E+00  0.00000000E+00
  0.00000000E+00  0.00000000E+00  0.00000000E+00
  0.00000000E+00  0.00000000E+00  0.00000000E+00
  0.00000000E+00  0.00000000E+00  0.00000000E+00
  0.00000000E+00  0.00000000E+00  0.00000000E+00
  0.00000000E+00  0.00000000E+00  0.00000000E+00
  0.00000000E+00  0.00000000E+00  0.00000000E+00
  0.00000000E+00  0.00000000E+00  0.00000000E+00
  0.00000000E+00  0.00000000E+00  0.00000000E+00
  0.00000000E+00  0.00000000E+00  0.00000000E+00
  0.00000000E+00  0.00000000E+00  0.00000000E+00
  0.00000000E+00  0.00000000E+00  0.00000000E+00
  0.00000000E+00  0.00000000E+00  0.00000000E+00
  0.00000000E+00  0.00000000E+00  0.00000000E+00
  0.00000000E+00  0.00000000E+00  0.00000000E+00
