       N       E                     dE             d eps       ncg     rms          rms(c)
DAV:   1     0.106370000500E+05    0.10637E+05   -0.27223E+05 17592   0.170E+03
DAV:   2     0.125774617401E+04   -0.93793E+04   -0.87593E+04 24016   0.780E+02
DAV:   3    -0.479134222360E+03   -0.17369E+04   -0.16075E+04 29472   0.354E+02
DAV:   4    -0.732020209933E+03   -0.25289E+03   -0.24111E+03 32528   0.175E+02
DAV:   5    -0.760218950660E+03   -0.28199E+02   -0.27246E+02 32528   0.732E+01    0.293E+02
DAV:   6    -0.640963594239E+03    0.11926E+03   -0.22329E+02 30456   0.563E+01    0.170E+02
DAV:   7    -0.647061203275E+03   -0.60976E+01   -0.24398E+02 29256   0.502E+01    0.539E+01
DAV:   8    -0.643522241195E+03    0.35390E+01   -0.60219E+01 28536   0.399E+01    0.206E+01
DAV:   9    -0.641216777035E+03    0.23055E+01   -0.18521E+01 30216   0.217E+01    0.814E+00
DAV:  10    -0.640978456963E+03    0.23832E+00   -0.63597E+00 30256   0.102E+01    0.861E+00
DAV:  11    -0.641000479751E+03   -0.22023E-01   -0.11133E+00 30568   0.426E+00    0.622E+00
DAV:  12    -0.640985893441E+03    0.14586E-01   -0.25210E-01 30080   0.224E+00    0.273E+00
DAV:  13    -0.640970426768E+03    0.15467E-01   -0.15752E-01 28408   0.160E+00    0.180E+00
DAV:  14    -0.640965202595E+03    0.52242E-02   -0.40684E-02 28752   0.996E-01    0.722E-01
DAV:  15    -0.640966032355E+03   -0.82976E-03   -0.12152E-02 29888   0.328E-01    0.533E-01
DAV:  16    -0.640965709231E+03    0.32312E-03   -0.19976E-03 28472   0.177E-01    0.134E-01
DAV:  17    -0.640965687121E+03    0.22111E-04   -0.99441E-04 29464   0.124E-01    0.178E-01
DAV:  18    -0.640965657788E+03    0.29333E-04   -0.26714E-04 28080   0.765E-02    0.410E-02
DAV:  19    -0.640965658215E+03   -0.42662E-06   -0.66680E-05 31608   0.222E-02    0.256E-02
DAV:  20    -0.640965658610E+03   -0.39578E-06   -0.98648E-06 24792   0.150E-02
   1 F= 0.27192753E+03 E0= 0.27192043E+03  d E =0.271928E+03
