opt                                     
           1
    10.300104   -0.047796    0.039233
    -0.047923   10.350474    0.056792
     0.025933    0.037590    6.860052
   Y    Sc   Zr   K    H 
   9   9   9   9 216
Direct configuration=     1
   0.17382018  0.16580698  0.24659875
   0.17460069  0.50144185  0.24891272
   0.33306441  0.32847119  0.99995594
   0.83379442  0.17542580  0.24857351
   0.49967912  0.50042466  0.74801529
   0.66985412  0.33401889  0.00063097
   0.49190194  0.83522661  0.75900493
   0.00391389  0.00132284  0.49994724
   0.99924802  0.99865253  0.99805828
   0.16181570  0.17125064  0.74650069
   0.50401773  0.16510577  0.25467330
   0.17202613  0.49232979  0.74725679
   0.50748570  0.49366220  0.25272263
   0.67022379  0.33185118  0.49288582
   0.33119357  0.00389701  0.50729783
   0.00189876  0.33933115  0.49715199
   0.82189797  0.49105036  0.73089947
   0.66554253  0.00641766  0.50345534
   0.34149505  0.32589756  0.50244528
   0.50682677  0.16296086  0.75253766
   0.32976205  0.66792819  0.50314619
   0.16041404  0.82042461  0.75190982
   0.49667352  0.84054405  0.25340978
   0.66433068  0.66942781  0.49789285
   0.66220126  0.66996917  0.99733493
   0.83064560  0.83822785  0.25773289
   0.82932625  0.84192457  0.74534776
   0.16795989  0.83494219  0.24342714
   0.32763252  0.65966094  0.00942285
   0.84078028  0.17186388  0.75352504
   0.84733315  0.51744890  0.23338750
   0.32853285  0.99135306  0.00802090
   0.99510533  0.32887660  0.99171153
   0.99546448  0.66258250  0.50251827
   0.66451327  0.00126255  0.99893642
   0.98697439  0.65276836  0.01027191
   0.17053430  0.08129491  0.98128080
   0.17296062  0.08590857  0.51347237
   0.16505211  0.41055262  0.99202939
   0.49728517  0.08217887  0.01379800
   0.34724544  0.24527925  0.25536651
   0.16835847  0.41404411  0.50357557
   0.50050292  0.08266042  0.49786187
   0.32709988  0.24194252  0.75035918
   0.15761832  0.73821795  0.00877220
   0.50252499  0.41222193  0.00419976
   0.35095905  0.57895948  0.26297702
   0.16257566  0.74938201  0.49635213
   0.83069274  0.08255890  0.00542058
   0.66313227  0.25320353  0.26087825
   0.51178151  0.41506583  0.49294916
   0.32807067  0.57742644  0.75003616
   0.83115497  0.08638413  0.50038760
   0.67449648  0.25156572  0.73040752
   0.49212699  0.74589216  0.01238514
   0.33286381  0.92326931  0.27491281
   0.84401550  0.42854369  0.98345752
   0.66937198  0.58205037  0.24989387
   0.49718692  0.75293980  0.49809807
   0.31849041  0.92144281  0.74523281
   0.00927387  0.25156187  0.25802610
   0.82274379  0.42657704  0.48254406
   0.67720294  0.58550156  0.75159854
   0.01020715  0.25189717  0.73056015
   0.83482711  0.74822784  0.97896982
   0.66542912  0.92015075  0.25444627
   0.02212910  0.58833604  0.26505542
   0.83297291  0.75230141  0.51081978
   0.66174867  0.91754392  0.74595056
   0.97612546  0.57963330  0.75344356
   0.00441070  0.92176111  0.25259745
   0.00898542  0.91682656  0.75162747
   0.08483067  0.16996424  0.98850260
   0.08646440  0.17148728  0.50341197
   0.07150291  0.49384085  0.97584791
   0.41214346  0.15851201  0.99137982
   0.25533117  0.33442313  0.26008185
   0.08252924  0.49782582  0.52028985
   0.42077398  0.15832121  0.50568467
   0.24800796  0.32406460  0.74310386
   0.06897852  0.82320189  0.99880648
   0.42201925  0.49957780  0.00880591
   0.26049269  0.67475624  0.26326148
   0.08485704  0.82849519  0.50158070
   0.75078233  0.16770393  0.99959767
   0.58410040  0.33195840  0.25623744
   0.41999111  0.49897596  0.49451227
   0.24595039  0.66572139  0.75991231
   0.75386369  0.17614319  0.50338985
   0.58464702  0.33254556  0.74055607
   0.41281016  0.82361582  0.01502933
   0.26024474  0.99815903  0.27012210
   0.74892510  0.50560828  0.99087731
   0.57925347  0.66822919  0.25526009
   0.41230217  0.83957223  0.50487096
   0.25155749  0.01200638  0.75424450
   0.92374222  0.35086328  0.26104423
   0.75481945  0.48543284  0.48234282
   0.58163203  0.66904567  0.74581596
   0.91793548  0.34953717  0.73430076
   0.74602058  0.83454652  0.00189090
   0.58584438  0.00397535  0.26126147
   0.91627067  0.69017755  0.26050740
   0.74277495  0.84258125  0.50232976
   0.58293850  0.99916713  0.74141815
   0.91778972  0.63907879  0.75477905
   0.91313636  0.00473840  0.25597017
   0.91488168  0.00336569  0.74408542
   0.16162097  0.00390381  0.12160198
   0.16817059  0.00422557  0.63116169
   0.16025408  0.33553185  0.11769525
   0.49592423  0.01045634  0.12950282
   0.34151529  0.16446412  0.38152524
   0.16794425  0.33503750  0.62583589
   0.49715420  0.00122105  0.62103286
   0.34116759  0.15902395  0.88107284
   0.15478712  0.67471353  0.11595017
   0.50105323  0.33349501  0.12923705
   0.34334153  0.49101096  0.37566695
   0.16080322  0.64947434  0.62931322
   0.82891545  0.99855552  0.12052353
   0.66317104  0.16638166  0.37673491
   0.50655703  0.32932271  0.62019468
   0.32548120  0.49810890  0.87915224
   0.83330248  0.00664470  0.62570869
   0.66644474  0.16835310  0.87608703
   0.50020175  0.65584882  0.12972400
   0.33203277  0.83522374  0.38452734
   0.83172245  0.34847173  0.12308242
   0.66967987  0.50729074  0.36591872
   0.49914343  0.66805188  0.62288239
   0.31808849  0.82517238  0.88707208
   0.00610968  0.17511324  0.37512692
   0.83483371  0.33472496  0.61243813
   0.66898916  0.49773595  0.86552722
   0.01073225  0.16409965  0.87388686
   0.81840912  0.68687550  0.12000160
   0.66264382  0.83580647  0.37844089
   0.00751491  0.49735540  0.37774725
   0.82773422  0.67298852  0.63314486
   0.66751634  0.83668592  0.87559371
   0.02017887  0.49593423  0.86934846
   0.99855656  0.83462986  0.37582608
   0.99105315  0.82321147  0.88353055
   0.08541729  0.99587182  0.24725601
   0.09080763  0.99188236  0.74708573
   0.08684240  0.33344610  0.25340332
   0.42041010  0.00788042  0.26346930
   0.25246624  0.16271781  0.51109888
   0.08339796  0.34153506  0.73863726
   0.40981532  0.00607227  0.74737060
   0.25204336  0.15808768  0.98299630
   0.08278047  0.65746833  0.24941606
   0.42413973  0.32895927  0.25180584
   0.25635146  0.49490974  0.50150204
   0.07565329  0.65948719  0.75754663
   0.74717036  0.00318191  0.25786769
   0.58551619  0.16685067  0.49659221
   0.42067732  0.32448743  0.74953389
   0.25534517  0.49174635  0.98826993
   0.74612035  0.01092511  0.74039478
   0.58211147  0.16582279  0.01659025
   0.42451452  0.66586907  0.25361671
   0.24809780  0.83967118  0.50099360
   0.75502167  0.34990451  0.25780190
   0.58575681  0.49469260  0.49088328
   0.41034641  0.66575473  0.75304248
   0.24162657  0.82559275  0.98337575
   0.91995018  0.17697104  0.49980274
   0.74764502  0.32965250  0.73080256
   0.58436714  0.50086097  0.00069540
   0.91866374  0.16324683  0.00397939
   0.74275570  0.67052537  0.25239035
   0.58073927  0.84466135  0.50074136
   0.91744047  0.49026150  0.50535021
   0.75162772  0.66257695  0.74165046
   0.58582875  0.83143314  0.00789532
   0.90858197  0.48842358  0.95438079
   0.91965128  0.83137943  0.51120854
   0.91108146  0.82636341  0.98781232
   0.00510726  0.16628021  0.12309574
   0.00549049  0.17515935  0.62180689
   0.01940445  0.48415570  0.12176231
   0.34802958  0.16003113  0.12696199
   0.16620771  0.33358175  0.38164522
   0.01442324  0.49696132  0.62596147
   0.33396249  0.16402977  0.63198899
   0.16404925  0.33481948  0.87045963
   0.99998776  0.82520345  0.12151611
   0.34675738  0.49260962  0.12966761
   0.16823187  0.67043332  0.38313083
   0.99170473  0.83064612  0.62216562
   0.65834474  0.16460043  0.12345830
   0.50728470  0.32872677  0.37405426
   0.33197515  0.49416319  0.62157774
   0.15678203  0.64223441  0.87881288
   0.66900264  0.16809957  0.62540333
   0.50222880  0.32942883  0.87795319
   0.34134812  0.82455612  0.13759455
   0.17320802  0.99923273  0.37926698
   0.67069044  0.50305059  0.12736565
   0.50151674  0.66527548  0.36976167
   0.32806892  0.83431537  0.62586890
   0.16611324  0.01233346  0.87163935
   0.83627516  0.34476934  0.36876256
   0.66533552  0.50307331  0.61265055
   0.49587629  0.66558833  0.88667997
   0.82913647  0.34156065  0.86253024
   0.66698989  0.83616131  0.13153585
   0.50228553  0.00764487  0.38295655
   0.82569098  0.67328376  0.37694489
   0.66320213  0.83836615  0.61691004
   0.49625108  0.00202071  0.88531804
   0.82969978  0.68373192  0.87550636
   0.83084758  0.00447225  0.37744210
   0.83064607  0.99913343  0.87681235
   0.00007555  0.08780107  0.25268798
   0.00647262  0.08556084  0.74501906
   0.00075134  0.41265863  0.24273212
   0.34494325  0.08104217  0.25803565
   0.16660033  0.25259210  0.50402889
   0.99312295  0.41218598  0.73919429
   0.31834043  0.07925549  0.75402524
   0.15940479  0.24912778  0.99103258
   0.98727876  0.75419620  0.24670855
   0.34517323  0.41699840  0.26317666
   0.16645363  0.58325451  0.51964735
   0.99047481  0.74074472  0.75832271
   0.66304227  0.08403799  0.25886214
   0.50963265  0.24589661  0.49640340
   0.33369288  0.41278894  0.74190998
   0.15972658  0.57947341  0.97724802
   0.67602304  0.08283779  0.74018194
   0.50133359  0.24632591  0.00890959
   0.33123447  0.74780897  0.25190751
   0.17715931  0.91510998  0.50503342
   0.67493949  0.42093916  0.25416353
   0.49987185  0.58199971  0.48478870
   0.32494257  0.74292467  0.75672763
   0.16292541  0.91192453  0.98048086
   0.83296337  0.25294483  0.50367858
   0.66409947  0.41483059  0.73741574
   0.49689736  0.58120005  0.01463920
   0.82955133  0.24905550  0.99725820
   0.65881062  0.75147513  0.24945424
   0.49348342  0.92232805  0.50569414
   0.82358672  0.58543927  0.50315751
   0.66790284  0.75368885  0.74731297
   0.49800783  0.92175078  0.00438122
   0.81727339  0.58510429  0.95393492
   0.82556347  0.92496702  0.49474218
   0.82832389  0.92140372  0.01468142
