POSCAR                                  
   1.00000000000000     
     9.7911609502221530   -0.0117035698196220    0.0140417419153285
    -0.0116581746013864    9.7811596066968320   -0.0250925673964866
     0.0093732484259443   -0.0166513068155191    6.5006808409029961
   K    Zr   Hf   Na   H 
     9     9     9     9   216
Direct
  0.1668598058748785  0.1521942097515137  0.2619003142317382
  0.1673346139996710  0.4980714369494805  0.2588069261548327
  0.3376866146887920  0.3435804372410445  0.4934380718521751
  0.5057551071606667  0.5091126437647091  0.2682686201556095
  0.3297671206439006  0.0062190168784966  0.4915038072383311
  0.8277153882960988  0.5068266724942774  0.2656419663413701
  0.6608710299647242  0.6475148848563137  0.4754501831201736
  0.8322717490372114  0.8353674731959728  0.7409955402547652
  0.9995232173610802  0.0006336025398568  0.4953568094870562
  0.1648797347316844  0.1703723546411950  0.7547974229112526
  0.3424617093164315  0.6704801561998011  0.4966792691223603
  0.1674195868290127  0.8294590313316732  0.7440920173286969
  0.8319081790264988  0.1692463930572146  0.2506736197852817
  0.9943766638996081  0.3311331463791376  0.5073642173175514
  0.6665694989067106  0.9956753090471793  0.5014750185013668
  0.9945050744101636  0.6672950470680021  0.4969213984063074
  0.6663685104613251  0.9910131093970733  0.9895814434767800
  0.9989720430139784  0.9927477020100710  0.9974110243285281
  0.5013244463653592  0.1672990208730951  0.2540013075483500
  0.1645099366387939  0.5048979627082559  0.7578256001905999
  0.5041494942879012  0.1699824330264832  0.7475002641605286
  0.3367023646297937  0.3393919689017437  0.0051387747745508
  0.3383996145943797  0.6703436274623016  0.0035698401335722
  0.6707230775844408  0.3444014512357256  0.9965626860319503
  0.3367545270585595  0.9907601881733541  0.9996035253850408
  0.9923722854789148  0.3423810189664138  0.0073686888104731
  0.8308621277366299  0.8233817663679588  0.2409569385100809
  0.1715522538157899  0.8279113557758890  0.2451664200521506
  0.6677280013059459  0.3287439312868727  0.5102088520424672
  0.5053883947901170  0.5054217329101220  0.7630240493206770
  0.8308778610621772  0.1699344621370713  0.7530891509182638
  0.4990654564744617  0.8352991506207843  0.2451479005145103
  0.5015022753978613  0.8286123215186052  0.7444560178846231
  0.8272827833227865  0.4999505668255324  0.7594015622878061
  0.6699280739018434  0.6670291646544371  0.9806062302907179
  0.9986828588485324  0.6649879476775808  0.9963204102367769
  0.1682374001696303  0.0817577843839246  0.0013746726974588
  0.1624220028199375  0.0815140590516847  0.5202185921286144
  0.1667592853720947  0.4171918625451596  0.0060964492276909
  0.5000291671311246  0.0838138147672325  0.9986877057452617
  0.3270436591315757  0.2500552749843834  0.2508331851073180
  0.1648098988669062  0.4168869522172898  0.5137171204606545
  0.4990043424750894  0.0798007344154357  0.5023094212722157
  0.3348638048285224  0.2570634861700682  0.7462697482886611
  0.1593261877139938  0.7483293861010409  0.0074235660212096
  0.5032258015037314  0.4256152537683491  0.0037945935914365
  0.3348509104667556  0.5843603299271294  0.2394784585061345
  0.1672743073307217  0.7497097262356718  0.4874050927166138
  0.8330998642227740  0.0852943415976739  0.9927317650675889
  0.6673588606784548  0.2521170457113300  0.2610413436431713
  0.5123459572397095  0.4121409259584112  0.5152415830354684
  0.3453221405244591  0.5816777196743033  0.7606378135519876
  0.8342567895390118  0.0835366926314265  0.5058576477267209
  0.6728475578335988  0.2489939943738335  0.7447504871092931
  0.5093724240059174  0.7505799356231364  0.9895991424175037
  0.3415525554649363  0.9143278925655451  0.2528483235577141
  0.8308405878611183  0.4301396027428197  0.0030721181790270
  0.6709636276427418  0.5904212178019179  0.2033140913114764
  0.5112805800989406  0.7576025997377158  0.4922941046523874
  0.3412394134523637  0.9179534092691100  0.7385756748404546
  0.0028771046325318  0.2457876617935710  0.2500314541881039
  0.8190476889214935  0.4173858554292309  0.5218468326017174
  0.6697106058522024  0.5789851580329213  0.7530941711643493
  0.9930971022821922  0.2476063993748738  0.7585279137024017
  0.8299077450225880  0.7454521593057066  0.9829531927558506
  0.6580385013249455  0.9128321831231858  0.2481250457130173
  0.9985877225553352  0.5844286005375992  0.2347166254510356
  0.8176216923661528  0.7500906529542135  0.4966579536436200
  0.6549266875570652  0.9080572183615629  0.7409273294821261
  0.9879139222293105  0.5835418252351872  0.7567478052323082
  0.0052768719654566  0.9118270095992358  0.2488743758160439
  0.0035016403301853  0.9163810635352689  0.7424241462273855
  0.0838463055090841  0.1671442562572452  0.0095496719823132
  0.0807200826608749  0.1700166658683884  0.5077883480115659
  0.0821238303997731  0.5110491365936269  0.0100234339817931
  0.4166366520338087  0.1674003799686261  0.9965165207043682
  0.2480869394509000  0.3225542451544854  0.2461508294793617
  0.0794997629026071  0.5013381032662281  0.5048940317488615
  0.4126166292162949  0.1731791538883201  0.5095938651956260
  0.2531838398727473  0.3357911261771420  0.7466106728993580
  0.0856819854894226  0.8229328205592026  0.0105426622389899
  0.4232061490057291  0.5033368872847035  0.0002473247764314
  0.2444329110142860  0.6703064198052857  0.2543242603531795
  0.0829335141030612  0.8313030683481273  0.4719729678479681
  0.7509692239444519  0.1669079237085498  0.9886453095526377
  0.5886292733881504  0.3411043052773906  0.2511669539468286
  0.4217814445532113  0.5086029586748069  0.5337368619463305
  0.2521972671269666  0.6661808680453518  0.7406748502825096
  0.7514320563484844  0.1733835824915531  0.5102732315410989
  0.5839215762112460  0.3494572890142109  0.7426686299991587
  0.4272952362107958  0.8316433954531135  0.9944913312217167
  0.2475910938864416  0.9841084309839943  0.2439594140012673
  0.7536911974071430  0.5094677695082481  0.9961984070651724
  0.5820534833031061  0.6824346823482728  0.2149638626261279
  0.4189566479744258  0.8408020508026866  0.5036990186752703
  0.2514711260750246  0.9981419320304212  0.7466132458231698
  0.9119716985912447  0.3403100888809405  0.2559731606547828
  0.7529219051344214  0.4845355557486002  0.5310664004640628
  0.5809838999442576  0.6697164885464986  0.7450880543228848
  0.9107599193639899  0.3373554935310921  0.7570323832017536
  0.7506913381028255  0.8185941218348560  0.9904989646855853
  0.5843274650898564  0.9884180161858040  0.2454516264931002
  0.9190150948198905  0.6635832435015629  0.2257638686671442
  0.7442929114010823  0.8166936114017176  0.4981443869138928
  0.5786313640873644  0.9875946593246994  0.7467611165694947
  0.9111369818360942  0.6624392141848006  0.7644166777421049
  0.9143825943641133  0.9960104385527160  0.2491009093470709
  0.9157640945125678  0.0103284509105634  0.7485243678342357
  0.1654186389137209  0.9853065533103091  0.1257191137007538
  0.1650958084009275  0.0027389055568037  0.6202449684054514
  0.1611133032149468  0.3274662875108092  0.1377315307416680
  0.5063397848073166  0.9940196587030812  0.1278976298362196
  0.3383514804361880  0.1767710309155959  0.3727445170718227
  0.1695896136838826  0.3383339596644532  0.6260611945398793
  0.4977102709700389  0.9897693343152341  0.6210522510726051
  0.3367874101743382  0.1688503196094899  0.8782470020684983
  0.1606027813382482  0.6691498547656067  0.1268175627976262
  0.5066950877850260  0.3399699475188598  0.1339552873926664
  0.3329066835272059  0.5084594494807320  0.3823983566288973
  0.1629808273383020  0.6648866431978604  0.6138950032630319
  0.8286340803482020  0.9999313388806570  0.1247112311606386
  0.6670462077732893  0.1733672164084368  0.3812963562297611
  0.5063413252016673  0.3428271994733691  0.6289048724013071
  0.3439952334781893  0.5094552061726532  0.8695010183628042
  0.8328523468940929  0.0116945873332881  0.6228642274289697
  0.6717759482794179  0.1632215647873991  0.8752065426932205
  0.5124445901870587  0.6732455596418276  0.1186419532828111
  0.3333540945250064  0.8366145448725888  0.3738790997812700
  0.8312048112114141  0.3397077267336783  0.1386932265621965
  0.6673800011903452  0.4730433374201297  0.3886276005687250
  0.5090677741294769  0.6641659962399586  0.6332570295081510
  0.3412280941680592  0.8286568668529668  0.8597364028306984
  0.9975133084246224  0.1698746065576628  0.3754389262707321
  0.8267432819378371  0.3294158556985707  0.6287126878962681
  0.6690998021927541  0.5147421544631712  0.8637614765133037
  0.9919418009616408  0.1683739952884906  0.8768979205792817
  0.8415152845517113  0.6587886369380911  0.1133395578224849
  0.6565457017227700  0.8245776115837629  0.3637314791887007
  0.0002095618984796  0.4950932891778592  0.3793976480989585
  0.8168403860345421  0.6570549107454084  0.6336351105487523
  0.6615744130916710  0.8195247424003682  0.8612758376321779
  0.9849956864197296  0.5108118827046226  0.8761107882841372
  0.0158476106423748  0.8333758493324410  0.3674641520172131
  0.9965590624275933  0.8194741785327508  0.8744931254428820
  0.0835990428752993  0.9808885644513055  0.2447754544229710
  0.0832276010401216  0.9969230356126388  0.7444905578235108
  0.0876986783969400  0.3249977567228726  0.2468804376540916
  0.4197331359620193  0.9884819159794560  0.2505219921800546
  0.2500903216388579  0.1794812689600036  0.5122935598679277
  0.0828204314197194  0.3357942067640138  0.7613921252011622
  0.4161549459145490  0.9912753217140065  0.7407607195805568
  0.2493386518857008  0.1654556030326759  0.0080980687011021
  0.0844887609512242  0.6723363772241697  0.2383683274900079
  0.4223223898850819  0.3373775637971903  0.2474404567364843
  0.2498991451268182  0.5072593273956159  0.5113594472416523
  0.0772523291977762  0.6679884445199420  0.7581044053428272
  0.7496339142812189  0.9983289994706084  0.2441841532055022
  0.5908863072031068  0.1715616469814236  0.5012460608945517
  0.4176890059682208  0.3465141660324136  0.7501502501549169
  0.2485057077390351  0.5051420736717347  0.0073223427125484
  0.7555459128937230  0.0101775010047689  0.7467986073814288
  0.5871424853948071  0.1690371677316662  0.9997937374886803
  0.4264623883782193  0.6791492839942990  0.2517898397431253
  0.2492375069363320  0.8340800127880783  0.4857131802396495
  0.7484772651176996  0.3363024383966575  0.2656193742302264
  0.5837238846475898  0.4821478525799066  0.5392182498229872
  0.4202713811828502  0.6677627627159239  0.7460268201592228
  0.2447803251115772  0.8315503258857504  0.0058311048736357
  0.9125048836830842  0.1634329088159348  0.5193035831707249
  0.7515166057299325  0.3360028644790987  0.7443012983607460
  0.5822102030448377  0.5102436193750179  0.0015688206744215
  0.9142956079444744  0.1661493118821014  0.9854624203179370
  0.7429082454500957  0.6674924603783126  0.2168364717902662
  0.5818119276794675  0.8189918567031071  0.4937249638377423
  0.9108966216582601  0.5009186883902785  0.5259484113270645
  0.7465555525708041  0.6625412526030061  0.7331027498849068
  0.5835188345611897  0.8209173872315816  0.9981235602420924
  0.9140634340635074  0.5102641715571465  0.9961336610497256
  0.9165681459089399  0.8336923034772425  0.4907688096945506
  0.9211192090475535  0.8217615791823079  0.9894306003258393
  0.0015410600956400  0.1674604106642050  0.1256365803633344
  0.9836544759641370  0.1656277376893129  0.6290189301586722
  0.9962019491732761  0.5128238201250355  0.1327138465067677
  0.3329758909701681  0.1678430096647574  0.1242880290572330
  0.1622261196764256  0.3241452704954781  0.3829665914019529
  0.9825931570477167  0.4990291293866989  0.6335939311155059
  0.3366498336790613  0.1743546768047253  0.6206750998404402
  0.1632225208699509  0.3364693189897281  0.8797974044227814
  0.0072290367610037  0.8193752633198343  0.1251211510391457
  0.3365362690275830  0.5077685276471797  0.1407082577489547
  0.1699500205928999  0.6736810887578102  0.3653385109083516
  0.0004921875574908  0.8343386931941126  0.6177065460221414
  0.6665328976529139  0.1665847036987671  0.1247191069403897
  0.5140281809965117  0.3365031267136303  0.3852711506699933
  0.3481665361575637  0.5033866398232547  0.6311325286362077
  0.1572204774484547  0.6675884637771219  0.8808945942653281
  0.6746696750811907  0.1720189449772178  0.6263685563681776
  0.5032454509249646  0.3409986290726508  0.8738683678746142
  0.3338621362383734  0.8282418283811381  0.1365778501331505
  0.1660685904005774  0.9772446464209708  0.3666336904324226
  0.6661678661235086  0.5156186353894299  0.1266472807385099
  0.4956828989781812  0.6867210623525892  0.3615291091699646
  0.3428710985853201  0.8389683142610878  0.6165574557533446
  0.1663337826971585  0.9952020206777661  0.8737427788333676
  0.8235128167409869  0.3368443233262752  0.3838081644433657
  0.6571347270206971  0.4923348724095220  0.6251257484425778
  0.5113677931552161  0.6700699810715420  0.8710391518918428
  0.8334655955222274  0.3350294650309138  0.8666931622502219
  0.6576238492404869  0.8254821074887815  0.1149838011225697
  0.4992589959381064  0.9908740418677269  0.3746190065021437
  0.8332174450961602  0.6713829040724590  0.3751551896152279
  0.6617590107706377  0.8194536463263020  0.6185710351440790
  0.5024933586856832  0.9936017505259187  0.8657642322715304
  0.8379087188489720  0.6638865787374328  0.8704365256248678
  0.8334128300988866  0.9982291490676118  0.3723869570817797
  0.8335340620030678  0.0088852064839386  0.8662721710833239
  0.9941187765788442  0.0812596863204575  0.2428810207877277
  0.9954124616493658  0.0847628064733854  0.7513696085543984
  0.9951452885797920  0.4216526737464932  0.2620962114171022
  0.3379520463155572  0.0803247080990914  0.2365280359346471
  0.1724106355338861  0.2508328145619885  0.4987275821790575
  0.9904711107230781  0.4228587720271832  0.7481607990469783
  0.3334442988831654  0.0824501118743086  0.7518827821396457
  0.1667000576389768  0.2452038740338978  0.0119031767131119
  0.0104735295159983  0.7470254545801112  0.2308861218263090
  0.3401519876931047  0.4245305585046069  0.2445903081775995
  0.1615511750818968  0.5830952080393956  0.5057530483673318
  0.9960379818754888  0.7462317294434158  0.7615574219164856
  0.6682634731327184  0.0796086079500284  0.2463186541334963
  0.5086768195242470  0.2547610025106408  0.5015014268023563
  0.3443327731097838  0.4226884387296579  0.7488819510765126
  0.1566957818748449  0.5846380367973154  0.0107853041198496
  0.6727243793480753  0.0850993436971521  0.7509909199789888
  0.5037594471146178  0.2511253366597188  0.0034556489791058
  0.3358910345744590  0.7581695044886914  0.2430434346560375
  0.1672294738990701  0.9149063787683289  0.4851791875237765
  0.6648249733198242  0.4205581558949376  0.2886106771310963
  0.4957669075680826  0.5809084768620139  0.5304592634282912
  0.3420600665145841  0.7547079001907662  0.7512768184208909
  0.1666584410798606  0.9103854438002088  0.0094569733061363
  0.8223872014186213  0.2497549214986421  0.5189676443159499
  0.6622652983840283  0.4144112043677026  0.7430693885613948
  0.5116868819777949  0.5854490555934362  0.0010585954755697
  0.8304523116937190  0.2469811242653108  0.9890868815669620
  0.6539701010729573  0.7505102101544736  0.2339265627007521
  0.4957219740755079  0.9158310426230045  0.4983237732573542
  0.8324608144280887  0.5802119066831111  0.5314209962119065
  0.6628256209092172  0.7474691290292270  0.7396041684174079
  0.5014649257466104  0.9082776780638682  0.9946573048104170
  0.8305167289786723  0.5870123181850602  0.9968262616693480
  0.8334704760521987  0.9161954097484966  0.4865777033531273
  0.8342371518733103  0.9117608011735072  0.9986614779805763
 
  0.00000000E+00  0.00000000E+00  0.00000000E+00
  0.00000000E+00  0.00000000E+00  0.00000000E+00
  0.00000000E+00  0.00000000E+00  0.00000000E+00
  0.00000000E+00  0.00000000E+00  0.00000000E+00
  0.00000000E+00  0.00000000E+00  0.00000000E+00
  0.00000000E+00  0.00000000E+00  0.00000000E+00
  0.00000000E+00  0.00000000E+00  0.00000000E+00
  0.00000000E+00  0.00000000E+00  0.00000000E+00
  0.00000000E+00  0.00000000E+00  0.00000000E+00
  0.00000000E+00  0.00000000E+00  0.00000000E+00
  0.00000000E+00  0.00000000E+00  0.00000000E+00
  0.00000000E+00  0.00000000E+00  0.00000000E+00
  0.00000000E+00  0.00000000E+00  0.00000000E+00
  0.00000000E+00  0.00000000E+00  0.00000000E+00
  0.00000000E+00  0.00000000E+00  0.00000000E+00
  0.00000000E+00  0.00000000E+00  0.00000000E+00
  0.00000000E+00  0.00000000E+00  0.00000000E+00
  0.00000000E+00  0.00000000E+00  0.00000000E+00
  0.00000000E+00  0.00000000E+00  0.00000000E+00
  0.00000000E+00  0.00000000E+00  0.00000000E+00
  0.00000000E+00  0.00000000E+00  0.00000000E+00
  0.00000000E+00  0.00000000E+00  0.00000000E+00
  0.00000000E+00  0.00000000E+00  0.00000000E+00
  0.00000000E+00  0.00000000E+00  0.00000000E+00
  0.00000000E+00  0.00000000E+00  0.00000000E+00
  0.00000000E+00  0.00000000E+00  0.00000000E+00
  0.00000000E+00  0.00000000E+00  0.00000000E+00
  0.00000000E+00  0.00000000E+00  0.00000000E+00
  0.00000000E+00  0.00000000E+00  0.00000000E+00
  0.00000000E+00  0.00000000E+00  0.00000000E+00
  0.00000000E+00  0.00000000E+00  0.00000000E+00
  0.00000000E+00  0.00000000E+00  0.00000000E+00
  0.00000000E+00  0.00000000E+00  0.00000000E+00
  0.00000000E+00  0.00000000E+00  0.00000000E+00
  0.00000000E+00  0.00000000E+00  0.00000000E+00
  0.00000000E+00  0.00000000E+00  0.00000000E+00
  0.00000000E+00  0.00000000E+00  0.00000000E+00
  0.00000000E+00  0.00000000E+00  0.00000000E+00
  0.00000000E+00  0.00000000E+00  0.00000000E+00
  0.00000000E+00  0.00000000E+00  0.00000000E+00
  0.00000000E+00  0.00000000E+00  0.00000000E+00
  0.00000000E+00  0.00000000E+00  0.00000000E+00
  0.00000000E+00  0.00000000E+00  0.00000000E+00
  0.00000000E+00  0.00000000E+00  0.00000000E+00
  0.00000000E+00  0.00000000E+00  0.00000000E+00
  0.00000000E+00  0.00000000E+00  0.00000000E+00
  0.00000000E+00  0.00000000E+00  0.00000000E+00
  0.00000000E+00  0.00000000E+00  0.00000000E+00
  0.00000000E+00  0.00000000E+00  0.00000000E+00
  0.00000000E+00  0.00000000E+00  0.00000000E+00
  0.00000000E+00  0.00000000E+00  0.00000000E+00
  0.00000000E+00  0.00000000E+00  0.00000000E+00
  0.00000000E+00  0.00000000E+00  0.00000000E+00
  0.00000000E+00  0.00000000E+00  0.00000000E+00
  0.00000000E+00  0.00000000E+00  0.00000000E+00
  0.00000000E+00  0.00000000E+00  0.00000000E+00
  0.00000000E+00  0.00000000E+00  0.00000000E+00
  0.00000000E+00  0.00000000E+00  0.00000000E+00
  0.00000000E+00  0.00000000E+00  0.00000000E+00
  0.00000000E+00  0.00000000E+00  0.00000000E+00
  0.00000000E+00  0.00000000E+00  0.00000000E+00
  0.00000000E+00  0.00000000E+00  0.00000000E+00
  0.00000000E+00  0.00000000E+00  0.00000000E+00
  0.00000000E+00  0.00000000E+00  0.00000000E+00
  0.00000000E+00  0.00000000E+00  0.00000000E+00
  0.00000000E+00  0.00000000E+00  0.00000000E+00
  0.00000000E+00  0.00000000E+00  0.00000000E+00
  0.00000000E+00  0.00000000E+00  0.00000000E+00
  0.00000000E+00  0.00000000E+00  0.00000000E+00
  0.00000000E+00  0.00000000E+00  0.00000000E+00
  0.00000000E+00  0.00000000E+00  0.00000000E+00
  0.00000000E+00  0.00000000E+00  0.00000000E+00
  0.00000000E+00  0.00000000E+00  0.00000000E+00
  0.00000000E+00  0.00000000E+00  0.00000000E+00
  0.00000000E+00  0.00000000E+00  0.00000000E+00
  0.00000000E+00  0.00000000E+00  0.00000000E+00
  0.00000000E+00  0.00000000E+00  0.00000000E+00
  0.00000000E+00  0.00000000E+00  0.00000000E+00
  0.00000000E+00  0.00000000E+00  0.00000000E+00
  0.00000000E+00  0.00000000E+00  0.00000000E+00
  0.00000000E+00  0.00000000E+00  0.00000000E+00
  0.00000000E+00  0.00000000E+00  0.00000000E+00
  0.00000000E+00  0.00000000E+00  0.00000000E+00
  0.00000000E+00  0.00000000E+00  0.00000000E+00
  0.00000000E+00  0.00000000E+00  0.00000000E+00
  0.00000000E+00  0.00000000E+00  0.00000000E+00
  0.00000000E+00  0.00000000E+00  0.00000000E+00
  0.00000000E+00  0.00000000E+00  0.00000000E+00
  0.00000000E+00  0.00000000E+00  0.00000000E+00
  0.00000000E+00  0.00000000E+00  0.00000000E+00
  0.00000000E+00  0.00000000E+00  0.00000000E+00
  0.00000000E+00  0.00000000E+00  0.00000000E+00
  0.00000000E+00  0.00000000E+00  0.00000000E+00
  0.00000000E+00  0.00000000E+00  0.00000000E+00
  0.00000000E+00  0.00000000E+00  0.00000000E+00
  0.00000000E+00  0.00000000E+00  0.00000000E+00
  0.00000000E+00  0.00000000E+00  0.00000000E+00
  0.00000000E+00  0.00000000E+00  0.00000000E+00
  0.00000000E+00  0.00000000E+00  0.00000000E+00
  0.00000000E+00  0.00000000E+00  0.00000000E+00
  0.00000000E+00  0.00000000E+00  0.00000000E+00
  0.00000000E+00  0.00000000E+00  0.00000000E+00
  0.00000000E+00  0.00000000E+00  0.00000000E+00
  0.00000000E+00  0.00000000E+00  0.00000000E+00
  0.00000000E+00  0.00000000E+00  0.00000000E+00
  0.00000000E+00  0.00000000E+00  0.00000000E+00
  0.00000000E+00  0.00000000E+00  0.00000000E+00
  0.00000000E+00  0.00000000E+00  0.00000000E+00
  0.00000000E+00  0.00000000E+00  0.00000000E+00
  0.00000000E+00  0.00000000E+00  0.00000000E+00
  0.00000000E+00  0.00000000E+00  0.00000000E+00
  0.00000000E+00  0.00000000E+00  0.00000000E+00
  0.00000000E+00  0.00000000E+00  0.00000000E+00
  0.00000000E+00  0.00000000E+00  0.00000000E+00
  0.00000000E+00  0.00000000E+00  0.00000000E+00
  0.00000000E+00  0.00000000E+00  0.00000000E+00
  0.00000000E+00  0.00000000E+00  0.00000000E+00
  0.00000000E+00  0.00000000E+00  0.00000000E+00
  0.00000000E+00  0.00000000E+00  0.00000000E+00
  0.00000000E+00  0.00000000E+00  0.00000000E+00
  0.00000000E+00  0.00000000E+00  0.00000000E+00
  0.00000000E+00  0.00000000E+00  0.00000000E+00
  0.00000000E+00  0.00000000E+00  0.00000000E+00
  0.00000000E+00  0.00000000E+00  0.00000000E+00
  0.00000000E+00  0.00000000E+00  0.00000000E+00
  0.00000000E+00  0.00000000E+00  0.00000000E+00
  0.00000000E+00  0.00000000E+00  0.00000000E+00
  0.00000000E+00  0.00000000E+00  0.00000000E+00
  0.00000000E+00  0.00000000E+00  0.00000000E+00
  0.00000000E+00  0.00000000E+00  0.00000000E+00
  0.00000000E+00  0.00000000E+00  0.00000000E+00
  0.00000000E+00  0.00000000E+00  0.00000000E+00
  0.00000000E+00  0.00000000E+00  0.00000000E+00
  0.00000000E+00  0.00000000E+00  0.00000000E+00
  0.00000000E+00  0.00000000E+00  0.00000000E+00
  0.00000000E+00  0.00000000E+00  0.00000000E+00
  0.00000000E+00  0.00000000E+00  0.00000000E+00
  0.00000000E+00  0.00000000E+00  0.00000000E+00
  0.00000000E+00  0.00000000E+00  0.00000000E+00
  0.00000000E+00  0.00000000E+00  0.00000000E+00
  0.00000000E+00  0.00000000E+00  0.00000000E+00
  0.00000000E+00  0.00000000E+00  0.00000000E+00
  0.00000000E+00  0.00000000E+00  0.00000000E+00
  0.00000000E+00  0.00000000E+00  0.00000000E+00
  0.00000000E+00  0.00000000E+00  0.00000000E+00
  0.00000000E+00  0.00000000E+00  0.00000000E+00
  0.00000000E+00  0.00000000E+00  0.00000000E+00
  0.00000000E+00  0.00000000E+00  0.00000000E+00
  0.00000000E+00  0.00000000E+00  0.00000000E+00
  0.00000000E+00  0.00000000E+00  0.00000000E+00
  0.00000000E+00  0.00000000E+00  0.00000000E+00
  0.00000000E+00  0.00000000E+00  0.00000000E+00
  0.00000000E+00  0.00000000E+00  0.00000000E+00
  0.00000000E+00  0.00000000E+00  0.00000000E+00
  0.00000000E+00  0.00000000E+00  0.00000000E+00
  0.00000000E+00  0.00000000E+00  0.00000000E+00
  0.00000000E+00  0.00000000E+00  0.00000000E+00
  0.00000000E+00  0.00000000E+00  0.00000000E+00
  0.00000000E+00  0.00000000E+00  0.00000000E+00
  0.00000000E+00  0.00000000E+00  0.00000000E+00
  0.00000000E+00  0.00000000E+00  0.00000000E+00
  0.00000000E+00  0.00000000E+00  0.00000000E+00
  0.00000000E+00  0.00000000E+00  0.00000000E+00
  0.00000000E+00  0.00000000E+00  0.00000000E+00
  0.00000000E+00  0.00000000E+00  0.00000000E+00
  0.00000000E+00  0.00000000E+00  0.00000000E+00
  0.00000000E+00  0.00000000E+00  0.00000000E+00
  0.00000000E+00  0.00000000E+00  0.00000000E+00
  0.00000000E+00  0.00000000E+00  0.00000000E+00
  0.00000000E+00  0.00000000E+00  0.00000000E+00
  0.00000000E+00  0.00000000E+00  0.00000000E+00
  0.00000000E+00  0.00000000E+00  0.00000000E+00
  0.00000000E+00  0.00000000E+00  0.00000000E+00
  0.00000000E+00  0.00000000E+00  0.00000000E+00
  0.00000000E+00  0.00000000E+00  0.00000000E+00
  0.00000000E+00  0.00000000E+00  0.00000000E+00
  0.00000000E+00  0.00000000E+00  0.00000000E+00
  0.00000000E+00  0.00000000E+00  0.00000000E+00
  0.00000000E+00  0.00000000E+00  0.00000000E+00
  0.00000000E+00  0.00000000E+00  0.00000000E+00
  0.00000000E+00  0.00000000E+00  0.00000000E+00
  0.00000000E+00  0.00000000E+00  0.00000000E+00
  0.00000000E+00  0.00000000E+00  0.00000000E+00
  0.00000000E+00  0.00000000E+00  0.00000000E+00
  0.00000000E+00  0.00000000E+00  0.00000000E+00
  0.00000000E+00  0.00000000E+00  0.00000000E+00
  0.00000000E+00  0.00000000E+00  0.00000000E+00
  0.00000000E+00  0.00000000E+00  0.00000000E+00
  0.00000000E+00  0.00000000E+00  0.00000000E+00
  0.00000000E+00  0.00000000E+00  0.00000000E+00
  0.00000000E+00  0.00000000E+00  0.00000000E+00
  0.00000000E+00  0.00000000E+00  0.00000000E+00
  0.00000000E+00  0.00000000E+00  0.00000000E+00
  0.00000000E+00  0.00000000E+00  0.00000000E+00
  0.00000000E+00  0.00000000E+00  0.00000000E+00
  0.00000000E+00  0.00000000E+00  0.00000000E+00
  0.00000000E+00  0.00000000E+00  0.00000000E+00
  0.00000000E+00  0.00000000E+00  0.00000000E+00
  0.00000000E+00  0.00000000E+00  0.00000000E+00
  0.00000000E+00  0.00000000E+00  0.00000000E+00
  0.00000000E+00  0.00000000E+00  0.00000000E+00
  0.00000000E+00  0.00000000E+00  0.00000000E+00
  0.00000000E+00  0.00000000E+00  0.00000000E+00
  0.00000000E+00  0.00000000E+00  0.00000000E+00
  0.00000000E+00  0.00000000E+00  0.00000000E+00
  0.00000000E+00  0.00000000E+00  0.00000000E+00
  0.00000000E+00  0.00000000E+00  0.00000000E+00
  0.00000000E+00  0.00000000E+00  0.00000000E+00
  0.00000000E+00  0.00000000E+00  0.00000000E+00
  0.00000000E+00  0.00000000E+00  0.00000000E+00
  0.00000000E+00  0.00000000E+00  0.00000000E+00
  0.00000000E+00  0.00000000E+00  0.00000000E+00
  0.00000000E+00  0.00000000E+00  0.00000000E+00
  0.00000000E+00  0.00000000E+00  0.00000000E+00
  0.00000000E+00  0.00000000E+00  0.00000000E+00
  0.00000000E+00  0.00000000E+00  0.00000000E+00
  0.00000000E+00  0.00000000E+00  0.00000000E+00
  0.00000000E+00  0.00000000E+00  0.00000000E+00
  0.00000000E+00  0.00000000E+00  0.00000000E+00
  0.00000000E+00  0.00000000E+00  0.00000000E+00
  0.00000000E+00  0.00000000E+00  0.00000000E+00
  0.00000000E+00  0.00000000E+00  0.00000000E+00
  0.00000000E+00  0.00000000E+00  0.00000000E+00
  0.00000000E+00  0.00000000E+00  0.00000000E+00
  0.00000000E+00  0.00000000E+00  0.00000000E+00
  0.00000000E+00  0.00000000E+00  0.00000000E+00
  0.00000000E+00  0.00000000E+00  0.00000000E+00
  0.00000000E+00  0.00000000E+00  0.00000000E+00
  0.00000000E+00  0.00000000E+00  0.00000000E+00
  0.00000000E+00  0.00000000E+00  0.00000000E+00
  0.00000000E+00  0.00000000E+00  0.00000000E+00
  0.00000000E+00  0.00000000E+00  0.00000000E+00
  0.00000000E+00  0.00000000E+00  0.00000000E+00
  0.00000000E+00  0.00000000E+00  0.00000000E+00
  0.00000000E+00  0.00000000E+00  0.00000000E+00
  0.00000000E+00  0.00000000E+00  0.00000000E+00
  0.00000000E+00  0.00000000E+00  0.00000000E+00
  0.00000000E+00  0.00000000E+00  0.00000000E+00
  0.00000000E+00  0.00000000E+00  0.00000000E+00
  0.00000000E+00  0.00000000E+00  0.00000000E+00
  0.00000000E+00  0.00000000E+00  0.00000000E+00
  0.00000000E+00  0.00000000E+00  0.00000000E+00
  0.00000000E+00  0.00000000E+00  0.00000000E+00
  0.00000000E+00  0.00000000E+00  0.00000000E+00
  0.00000000E+00  0.00000000E+00  0.00000000E+00
  0.00000000E+00  0.00000000E+00  0.00000000E+00
  0.00000000E+00  0.00000000E+00  0.00000000E+00
  0.00000000E+00  0.00000000E+00  0.00000000E+00
  0.00000000E+00  0.00000000E+00  0.00000000E+00
  0.00000000E+00  0.00000000E+00  0.00000000E+00
  0.00000000E+00  0.00000000E+00  0.00000000E+00
  0.00000000E+00  0.00000000E+00  0.00000000E+00
