generated by phonopy                    
   1.00000000000000     
     0.0000000000000000    3.3879902219590878    3.3879902219591989
     3.3879902219591300    0.0000000000000000    3.3879902219591989
     3.3879902219591300    3.3879902219590878    0.0000000000000000
   Na   Sr   Mg   Y    H 
     1     1     1     1    24
Direct
  0.2500000000000000  0.2500000000000000  0.2500000000000000
  0.7500000000000000  0.7500000000000000  0.7500000000000000
  0.0000000000000000  0.0000000000000000  0.0000000000000000
  0.5000000000000000  0.5000000000000000  0.5000000000000000
  0.1248009881192900  0.9010510902187505  0.6209389262301812
  0.9010510902187505  0.1248009881192900  0.3532089954317783
  0.6209389262301812  0.3532089954317783  0.1248009881192900
  0.3532089954317783  0.6209389262301812  0.9010510902187505
  0.6209389262301812  0.1248009881192900  0.9010510902187505
  0.3532089954317783  0.9010510902187505  0.1248009881192900
  0.1248009881192900  0.6209389262301812  0.3532089954317783
  0.9010510902187505  0.3532089954317783  0.6209389262301812
  0.9010510902187505  0.6209389262301812  0.1248009881192900
  0.1248009881192900  0.3532089954317783  0.9010510902187505
  0.3532089954317783  0.1248009881192900  0.6209389262301812
  0.6209389262301812  0.9010510902187505  0.3532089954317783
  0.1248009881192900  0.3532089954317783  0.6209389262301812
  0.3532089954317783  0.1248009881192900  0.9010510902187505
  0.6209389262301812  0.9010510902187505  0.1248009881192900
  0.9010510902187505  0.6209389262301812  0.3532089954317783
  0.6209389262301812  0.1248009881192900  0.3532089954317783
  0.9010510902187505  0.3532089954317783  0.1248009881192900
  0.1248009881192900  0.6209389262301812  0.9010510902187505
  0.3532089954317783  0.9010510902187505  0.6209389262301812
  0.3532089954317783  0.6209389262301812  0.1248009881192900
  0.1248009881192900  0.9010510902187505  0.3532089954317783
  0.9010510902187505  0.1248009881192900  0.6209389262301812
  0.6209389262301812  0.3532089954317783  0.9010510902187505
 
  0.00000000E+00  0.00000000E+00  0.00000000E+00
  0.00000000E+00  0.00000000E+00  0.00000000E+00
  0.00000000E+00  0.00000000E+00  0.00000000E+00
  0.00000000E+00  0.00000000E+00  0.00000000E+00
  0.00000000E+00  0.00000000E+00  0.00000000E+00
  0.00000000E+00  0.00000000E+00  0.00000000E+00
  0.00000000E+00  0.00000000E+00  0.00000000E+00
  0.00000000E+00  0.00000000E+00  0.00000000E+00
  0.00000000E+00  0.00000000E+00  0.00000000E+00
  0.00000000E+00  0.00000000E+00  0.00000000E+00
  0.00000000E+00  0.00000000E+00  0.00000000E+00
  0.00000000E+00  0.00000000E+00  0.00000000E+00
  0.00000000E+00  0.00000000E+00  0.00000000E+00
  0.00000000E+00  0.00000000E+00  0.00000000E+00
  0.00000000E+00  0.00000000E+00  0.00000000E+00
  0.00000000E+00  0.00000000E+00  0.00000000E+00
  0.00000000E+00  0.00000000E+00  0.00000000E+00
  0.00000000E+00  0.00000000E+00  0.00000000E+00
  0.00000000E+00  0.00000000E+00  0.00000000E+00
  0.00000000E+00  0.00000000E+00  0.00000000E+00
  0.00000000E+00  0.00000000E+00  0.00000000E+00
  0.00000000E+00  0.00000000E+00  0.00000000E+00
  0.00000000E+00  0.00000000E+00  0.00000000E+00
  0.00000000E+00  0.00000000E+00  0.00000000E+00
  0.00000000E+00  0.00000000E+00  0.00000000E+00
  0.00000000E+00  0.00000000E+00  0.00000000E+00
  0.00000000E+00  0.00000000E+00  0.00000000E+00
  0.00000000E+00  0.00000000E+00  0.00000000E+00
